thickness,radius,length,exp_index,pressure,mesh_length,youngs_modulus,poisson_ratio,tensile_strength,density,body_area,body_volume,body_mass,outer_area,outer_volume,inner_area,inner_volume,node_count,edge_count,face_count,volume_count,vonmises_stress,tresca_stress,max_displacement,has_failed
0.01,0.6373008625579288,1.2,1.0,3.01938,0.08,68900.0,0.33,276.0,2700.0,19.58368073748977,0.0979163092923461,264.37403508933454,9.908996750374785,2.615390203831444,9.674683987114992,2.5174738945390978,24333,284,8104,12171,188.67332069274104,108.4539542391858,0.001616247361359,False
0.02,0.4848995430934149,1.2,2.0,3.01938,0.1,68900.0,0.33,276.0,2700.0,12.83200614363784,0.1283033062755602,346.41892694401275,6.610756568767109,1.3639876279543153,6.22124957487073,1.235684321678755,10552,178,3496,5302,70.29463239477394,40.00988577132959,0.0004859887557917,False
0.03,0.6493986366386801,1.2,3.0,3.01938,0.1,68900.0,0.33,276.0,2700.0,19.687124934597485,0.2952503253511979,797.1758784482342,10.195822454385349,2.7369982758668248,9.491302480212136,2.441747950515627,15700,226,5176,7930,71.55758916065258,40.74074933241536,0.000551286601954,False
0.04,0.5028305975421095,1.2,4.0,3.01938,0.1,68900.0,0.33,276.0,2700.0,13.15004697393606,0.2628668981921684,709.7406251188548,6.968517063647006,1.485720900699475,6.181529910289054,1.2228540025073065,10797,180,3548,5469,41.65439387050076,23.75609421961353,0.0002567269824667,False
0.05,0.6878073853362378,1.2,5.0,3.01938,0.2,68900.0,0.33,276.0,2700.0,21.05176364580428,0.5260322917573055,1420.2871877447249,11.130831544621005,3.146444650644352,9.920932101183276,2.6204123588870463,4444,120,1468,2236,39.58948682664254,22.83738294201527,0.0003650803527206,False
0.06,0.4425105843737184,1.2,6.0,3.01938,0.1,68900.0,0.33,276.0,2700.0,10.519844994142508,0.3151429604821577,850.8859933018257,5.797142821264878,1.1011681810640894,4.7227021728776295,0.7860252205819318,8552,156,2810,4331,23.59078361213462,13.52713649350298,0.0001348065047262,False
0.0699999999999999,0.374216260924937,1.2,7.0,3.01938,0.1,68900.0,0.33,276.0,2700.0,8.03801432786648,0.2806121239552062,757.6527346790567,4.581291154558778,0.7474412506628859,3.4567231733077017,0.4668291267076797,6850,134,2238,3487,16.00955101279134,9.212240660608757,9.12662896250356e-05,False
0.08,0.6130584056615125,1.2,8.0,3.01938,0.2,68900.0,0.33,276.0,2700.0,16.935219644598913,0.6763364554915307,1826.1084298271328,9.345303861781384,2.3820342667927195,7.589915782817529,1.7056978113011887,3649,106,1200,1843,22.83652049875472,13.182805719969496,0.0001806097996316,False
0.09,0.6145085877144392,1.2,9.0,3.01938,0.2,68900.0,0.33,276.0,2700.0,16.790435059837698,0.7540427636630533,2035.915461890244,9.37860857482174,2.3956108012933552,7.411826485015958,1.641568037630302,3647,106,1200,1841,20.484517052898244,11.821592320304749,0.0001606761841053,False
0.0999999999999999,0.4879245453886726,1.2,10.0,3.01938,0.2,68900.0,0.33,276.0,2700.0,11.486482940669722,0.5722297519310936,1545.0203302139528,6.670544802613519,1.3840755535462033,4.815938138056203,0.8118458016151097,2678,86,876,1358,15.014846244594157,8.667577822204883,9.472525377542592e-05,False
0.11,0.4585677038408225,1.2,11.0,3.01938,0.3,68900.0,0.33,276.0,2700.0,10.254975584446692,0.5612360172632832,1515.337246610865,6.100029969286668,1.1966766726262956,4.154945615160024,0.6354406553630124,1596,64,520,810,13.320478889889277,7.681988671709092,7.956283299034755e-05,False
0.12,0.5716993996350368,1.2,12.0,3.01938,0.2,68900.0,0.33,276.0,2700.0,14.387386385789991,0.8596240684104643,2320.9849847082537,8.417707050887001,2.0148522020380417,5.969679334902992,1.1552281336275774,3133,96,1032,1579,14.671809518048628,8.458680097970035,0.0001035765382829,False
0.13,0.6902904856991885,1.2,13.0,3.01938,0.3,68900.0,0.33,276.0,2700.0,19.36194925420876,1.2539253154836103,3385.5983518057483,11.192555239105111,3.1741602234910795,8.169394015103649,1.920234908007469,1857,76,606,942,16.45503753145019,9.442628294230856,0.0001389070677359,False
0.14,0.4731543638165693,1.2,14.0,3.01938,0.1,68900.0,0.33,276.0,2700.0,10.287485927922232,0.7143769947935891,1928.8178859426905,6.380796730836329,1.2876969600796488,3.906689197085904,0.5733199652860598,8347,154,2768,4189,10.580543804225703,6.096542909278597,6.620393552375115e-05,False
0.15,0.6956645802249708,1.2,15.0,3.01938,0.3,68900.0,0.33,276.0,2700.0,19.18252124510203,1.4316205099120742,3865.3753767626,11.326672471544072,3.23467012760518,7.855848773557957,1.8030496176931052,1845,76,602,936,14.30453502469702,8.169828109743603,0.0001208588817526,False
0.16,0.5337391234333628,1.2,16.0,3.01938,0.3,68900.0,0.33,276.0,2700.0,12.177382788904843,0.9656119807729864,2607.152348087063,7.60417382190936,1.7108692540510682,4.573208966995483,0.7452572732780819,1727,68,566,872,10.675510058808989,6.142131574699963,6.927100960015961e-05,False
0.17,0.5224858118513326,1.2,17.0,3.01938,0.3,68900.0,0.33,276.0,2700.0,11.588966417859291,0.9747723823797332,2631.88543242528,7.369961614803726,1.626617932873601,4.219004803055567,0.6518455504938678,1742,68,572,878,9.775501695991176,5.630132229886282,6.352066500700843e-05,False
0.18,0.7167573229205452,1.2,18.0,3.01938,0.3,68900.0,0.33,276.0,2700.0,19.527615554817704,1.7452708876964378,4712.231396780382,11.860083455499216,3.4791866116533483,7.667532099318487,1.7339157239569103,2050,78,670,1039,12.30652608971129,7.001031849639153,0.0001047618693336,False
0.19,0.7804832238679585,1.2,19.0,3.01938,0.3,68900.0,0.33,276.0,2700.0,22.37322114491125,2.1110905527592547,5699.944492449988,13.539560583273692,4.287952202625488,8.833660561637556,2.176861649866233,2284,86,748,1156,12.392535088635237,7.012141199021476,0.000116687522133,False
0.2,0.553922150575211,1.2,20.0,3.01938,0.3,68900.0,0.33,276.0,2700.0,12.274795859678752,1.2107244251487297,3268.95594790157,8.032210961539937,1.868646823912797,4.242584898138816,0.6579223987640674,1510,64,500,754,8.927367421357484,5.123656379880969,5.9587749378847615e-05,False
0.21,0.6079748998148944,1.2,21.0,3.01938,0.3,68900.0,0.33,276.0,2700.0,14.219946392894702,1.4736981782106804,3978.985081168837,9.228974035318746,2.334823316786156,4.990972357575956,0.8611251385754757,1565,68,516,785,9.27031539793943,5.302328437143186,6.481551744946344e-05,False
0.22,0.6903747457552853,1.2,22.0,3.01938,0.3,68900.0,0.33,276.0,2700.0,17.521534158348985,1.9050676383681049,5143.682623593882,11.194652452804783,3.1751033971778124,6.326881705544199,1.2700357588097078,1654,72,542,835,9.895024813913402,5.644400315777044,7.762424679660345e-05,False
0.23,0.6202000631910163,1.2,23.0,3.01938,0.3,68900.0,0.33,276.0,2700.0,14.365174732469184,1.6265125890231398,4391.583990362477,9.509829121170252,2.449361955132441,4.855345611298931,0.822849366109301,1471,66,482,742,8.853145341156933,5.052216075458025,6.147025669674807e-05,False
0.24,0.5407191833007187,1.2,24.0,3.01938,0.3,68900.0,0.33,276.0,2700.0,11.154818884170902,1.309625348205025,3535.988440153568,7.751047289981872,1.7644587231139106,3.4037715941890303,0.4548333749088855,1485,62,492,741,7.407556077945417,4.258817521793207,4.895947285849993e-05,False
0.25,0.8537510553422938,1.2,25.0,3.01938,0.3,68900.0,0.33,276.0,2700.0,24.729454574332703,3.0584568983166944,8257.833625455074,15.59664404500245,5.354501711810001,9.132810529330255,2.2960448134933067,2432,88,798,1229,10.035107681107672,5.642957392813899,0.0001012535682307,False
0.26,0.8774465124273607,1.2,26.0,3.01938,0.3,68900.0,0.33,276.0,2700.0,25.73703779479797,3.309003825004005,8934.310327510813,16.29079517660779,5.7322675709554485,9.44624261819018,2.423263745951444,2384,90,788,1196,9.827495127566134,5.524113989023437,0.00010212193323,False
0.27,0.6244951156043207,1.2,27.0,3.01938,0.3,68900.0,0.33,276.0,2700.0,13.86139888208512,1.830064870281085,4941.17514975893,9.60939326068832,2.490420820303352,4.252005621396798,0.6603559500222669,1449,64,480,723,7.267898041280763,4.157260713033488,5.375268288283758e-05,False
0.28,0.6398450625102562,1.2,28.0,3.01938,0.3,68900.0,0.33,276.0,2700.0,14.309379601067,1.9573369828616385,5284.809853726424,9.969011657612858,2.6406769833619093,4.34036794345414,0.6833400005002708,1367,64,450,686,7.420436499322416,4.2374816370332455,5.366641295490451e-05,False
0.29,0.6719111930496756,1.2,29.0,3.01938,0.3,68900.0,0.33,276.0,2700.0,15.451788282462603,2.189429098804811,5911.45856677299,10.7393631711683,2.9726266531200696,4.712425111294303,0.7831975543152585,1536,66,510,765,7.348506045269362,4.189922611896583,5.563280706093455e-05,False
0.3,0.9763810953365766,1.2,30.0,3.01938,0.3,68900.0,0.33,276.0,2700.0,30.190312624799567,4.471998225955317,12074.395210079356,19.34151300150196,7.492873181150033,10.848799623297609,3.0208749551947163,2851,100,944,1429,9.16742391715553,5.148579906206151,0.0001058784436893,False
0.31,0.7765496739655273,1.2,31.0,3.01938,0.3,68900.0,0.33,276.0,2700.0,19.6859434302008,2.988927107185727,8070.103189401462,13.432937485304128,4.234903496523854,6.253005944896673,1.2459763893381273,1874,78,618,941,7.649850852200433,4.333763766130098,6.486193404678896e-05,False
0.32,0.6407615647574605,1.2,32.0,3.01938,0.3,68900.0,0.33,276.0,2700.0,13.702084532498093,2.1237043864844747,5734.001843508082,9.990670805189602,2.649823528664879,3.711413727308491,0.5261191421804043,1297,62,430,646,6.280934328236482,3.594193165832535,4.813447821612212e-05,False
0.33,0.8886944674933631,1.2,33.0,3.01938,0.3,68900.0,0.33,276.0,2700.0,24.760157457571,4.010159703704511,10827.431200002178,16.625239673334416,5.917383630994133,8.134917784236581,1.907223927289623,2288,86,756,1148,7.897717800584269,4.443578828305097,7.848539300009908e-05,False
0.34,0.8334014788927464,1.2,34.0,3.01938,0.3,68900.0,0.33,276.0,2700.0,21.79115251311056,3.622177822124333,9779.8801197357,15.01177266817919,5.043085203046058,6.779379844931366,1.4209073809217243,2111,82,704,1049,7.50934190861667,4.259163061491083,6.65777160672398e-05,False
0.3500000000000001,0.9870579980021724,1.2,35.0,3.01938,0.3,68900.0,0.33,276.0,2700.0,29.588725754897435,5.088229817091946,13738.220506148256,19.68544940909388,7.701214171501379,9.903276345803558,2.6129843544094324,2790,98,926,1395,8.024988755376267,4.518552245944902,8.977244507497832e-05,False
0.36,0.6614740411097475,1.2,36.0,3.01938,0.3,68900.0,0.33,276.0,2700.0,13.900961319413364,2.4044569395970363,6492.033736911998,10.485785933097684,2.8618639812940514,3.4151753863156795,0.457407041697015,1342,62,444,670,5.882373479162812,3.3555973715294733,4.533445114379978e-05,False
0.37,1.065126020983005,1.2,37.0,3.01938,0.3,68900.0,0.33,276.0,2700.0,33.600525360478365,6.110009796566973,16497.026450730827,22.28732603222812,9.338583468401962,11.313199328250246,3.2285736718349893,3066,104,1020,1530,7.878487594126425,4.452484156906411,9.677074000678096e-05,False
0.38,0.900402014212498,1.2,38.0,3.01938,0.3,68900.0,0.33,276.0,2700.0,24.303668149755783,4.502773300395081,12157.487911066715,16.976726823311807,6.114078566395695,7.326941326443975,1.6113052660006142,2136,84,710,1065,6.980019859278591,3.937894724850557,6.77519588418667e-05,False
0.39,0.90371813521973,1.2,39.0,3.01938,0.3,68900.0,0.33,276.0,2700.0,24.26659851246148,4.607749286851132,12440.923074498058,17.076910369943338,6.1705414808555705,7.18968814251814,1.5627921940044385,2135,84,710,1064,7.686549798314911,4.339054031480433,8.038388759222832e-05,False
0.4,0.941829475399877,1.2,40.0,3.01938,0.3,68900.0,0.33,276.0,2700.0,26.02265781249767,5.07049027594637,13690.3237450552,18.248135028184134,6.84356795508787,7.774522784313536,1.7730776791415002,2333,88,776,1163,6.969796216653037,3.920781220253581,6.938417046084791e-05,False
0.4100000000000001,1.1074441706097131,1.2,41.0,3.01938,0.3,68900.0,0.33,276.0,2700.0,35.132983149034615,7.057913740700062,19056.36709989017,23.76173880180984,10.312780353763705,11.371244347224774,3.254866613063641,3184,106,1064,1582,7.365705672945864,4.184687159893379,9.195729195969182e-05,False
0.42,0.8326285242894369,1.2,42.0,3.01938,0.3,68900.0,0.33,276.0,2700.0,20.24048711745013,4.095332750318421,11057.398425859736,14.989762188477211,5.0314902917763655,5.2507249289729145,0.9361575414579448,2049,78,652,1041,6.118837037522533,3.4799105510479675,5.488422979007722e-05,False
0.43,0.8692184685220615,1.2,43.0,3.01938,0.3,68900.0,0.33,276.0,2700.0,21.784001648459675,4.517041283012852,12196.0114641347,16.04815788091105,5.599225574822055,5.7358437675486265,1.0821842918092024,2134,82,696,1074,6.031859155533531,3.427459863054672,5.68206094939081e-05,False
0.44,0.9805447244230632,1.2,44.0,3.01938,0.3,68900.0,0.33,276.0,2700.0,27.222657153065963,5.81057562127224,15688.554177435048,19.475295723022583,7.573682426901929,7.74736143004338,1.7631068056296888,2579,92,860,1281,6.4345608567923325,3.661740392089878,6.669249507896694e-05,False
0.45,0.7827270870445305,1.2,45.0,3.01938,0.2,68900.0,0.33,276.0,2700.0,17.500449368960993,3.746749354310644,10116.223256638736,13.600557092279823,4.318401534293693,3.89989227668117,0.5716521799830496,5035,104,1286,2802,6.011138747977121,3.4436141213798703,4.81916733712433e-05,False
0.46,1.1476766623977153,1.2,46.0,3.01938,0.3,68900.0,0.33,276.0,2700.0,36.33280691290462,8.152685548281521,22012.25098036011,25.20522052139929,11.297675356030815,11.127586391505332,3.144989807749294,3230,108,1082,1601,6.88527286420807,3.8886410390413815,8.558578708366243e-05,False
0.4700000000000001,0.9316704503283382,1.2,47.0,3.01938,0.3,68900.0,0.33,276.0,2700.0,24.091667350959103,5.444095444759621,14699.057700850975,17.93236289730644,6.659790858235835,6.159304453652663,1.2156954134762143,2201,84,712,1109,5.982448510246122,3.388905616837027,5.830699188379126e-05,False
0.4800000000000001,1.1704236515582498,1.2,48.0,3.01938,0.3,68900.0,0.33,276.0,2700.0,37.23522081142027,8.704829651576997,23503.04005925789,26.0393510224241,11.880480561989078,11.19586978899617,3.175650910412081,3595,110,1158,1820,6.5726606739665945,3.7355634452781543,8.428918235942261e-05,False
0.49,0.9552087491136124,1.2,49.0,3.01938,0.3,68900.0,0.33,276.0,2700.0,24.89515430793129,5.852909316041711,15802.85515331262,18.667959348188266,7.09051820465465,6.227194959743024,1.2376088886129386,2231,84,714,1130,5.913802067396913,3.3039488054946973,5.8503261119628414e-05,False
0.5,0.8008944055517115,1.2,50.0,3.01938,0.1,68900.0,0.33,276.0,2700.0,17.505489326763346,4.114572943891687,11109.346948507557,14.099071890305494,4.570002967115124,3.4064174364578523,0.4554300232234363,30949,200,4568,19945,6.5451754485116735,3.718163953087392,4.647771853935652e-05,False
0.01,0.4447491590401271,1.2,51.0,6.03876,0.05,68900.0,0.33,276.0,2700.0,11.492041891191748,0.0574581150608567,155.13691066431326,5.838980566537462,1.114192323084772,5.653061324654285,1.056734208023915,36177,326,12006,18162,275.8868556813659,157.41103398665433,0.0016707172254181,False
0.02,0.3403483495472885,1.2,52.0,6.03876,0.08,68900.0,0.33,276.0,2700.0,7.726785880587251,0.0772511036450121,208.57797984153277,4.021816759824771,0.6018379648746836,3.7049691207624793,0.5245868612296715,9768,164,3230,4917,106.62664648157718,60.80423605895221,0.0005277674146534,False
0.03,0.5373488572948163,1.2,53.0,6.03876,0.1,68900.0,0.33,276.0,2700.0,14.739916504018543,0.221042198892514,596.813937009788,7.679976467461115,1.7384550129617382,7.05994003655743,1.5174128140692242,11589,190,3824,5847,112.77347561799009,64.28105705500484,0.0007764238762235,False
0.04,0.7323056411876067,1.2,54.0,6.03876,0.1,68900.0,0.33,276.0,2700.0,23.503202426839927,0.4699300072502457,1268.8110195756633,12.260441527906764,3.6666955388273537,11.242760898933165,3.196765531577108,18631,252,6140,9415,132.77174048540977,75.70979056876374,0.0010312170683192,False
0.05,0.5142395117144156,1.2,55.0,6.03876,0.1,68900.0,0.33,276.0,2700.0,13.408920803500394,0.3349612206997105,904.3952958892183,7.200354212135157,1.5665435086282289,6.208566591365236,1.231582287928518,11281,184,3716,5701,69.48282238931782,39.71531501807204,0.000424963697546,False
0.06,0.5339361054706925,1.2,56.0,6.03876,0.1,68900.0,0.33,276.0,2700.0,14.004296714998883,0.4196765121077725,1133.126582690986,7.6083019005959,1.712367546265494,6.395994814402985,1.2926910341577216,11339,186,3724,5747,60.03081223103805,34.40358088939919,0.0003769637875579,False
0.0699999999999999,0.4265333408847194,1.2,57.0,6.03876,0.1,68900.0,0.33,276.0,2700.0,9.787779229208802,0.3418538955021521,923.0055178558108,5.50219411236638,1.010910594428306,4.285585116842422,0.6690566989261539,8082,150,2656,4092,37.43218933628344,21.51402516041917,0.0002184965044138,False
0.08,0.551618811648929,1.2,58.0,6.03876,0.2,68900.0,0.33,276.0,2700.0,14.333833039495772,0.5722809912874052,1545.158676475994,7.982844742529182,1.8502027989015648,6.35098829696659,1.2779218076141596,3122,96,1028,1574,41.398163106293374,23.900898346591905,0.0002969245026602,False
0.09,0.681383046702053,1.2,59.0,6.03876,0.3,68900.0,0.33,276.0,2700.0,19.825666607050906,0.8906281832876477,2404.6960948766487,10.971857579692925,3.075447626134733,8.853809027357977,2.1848194428470857,2042,80,668,1034,47.464821185597145,27.25604651442913,0.0003988023708279,False
0.0999999999999999,0.563354649253837,1.2,60.0,6.03876,0.2,68900.0,0.33,276.0,2700.0,14.427344179475654,0.7192728138713115,1942.036597452541,8.235763686081357,1.9453688909207405,6.191580493394296,1.2260960770494291,3134,96,1028,1586,34.30935753626311,19.75821067990752,0.0002441914390903,False
0.11,0.5697287085538638,1.2,61.0,6.03876,0.2,68900.0,0.33,276.0,2700.0,14.496762898750834,0.7945343195500073,2145.2426627850195,8.374581568578481,1.9983060113599,6.122181330172353,1.2037716918098922,3115,96,1026,1570,53.95413397947835,30.45253998614279,0.0003478834758176,False
0.12,0.5553045166372187,1.2,62.0,6.03876,0.2,68900.0,0.33,276.0,2700.0,13.725223070658616,0.8198942695025825,2213.7145276569727,8.061902492209757,1.8797707964985,5.663320578448859,1.0598765269959176,3060,94,1004,1548,28.543457816050957,16.464839915097592,0.0001960529390582,False
0.13,0.5618255553565449,1.2,63.0,6.03876,0.3,68900.0,0.33,276.0,2700.0,13.801794779372615,0.892515274619258,2409.7912414719963,8.202614071354681,1.9328009868531757,5.599180708017935,1.0402857122339173,1681,70,552,847,27.995581390071525,16.104104195816305,0.0001845842131842,False
0.14,0.4619403312738908,1.2,64.0,6.03876,0.1,68900.0,0.33,276.0,2700.0,9.894293306771171,0.6868535113130154,1854.5044805451416,6.16447166379901,1.2173583896107234,3.729821642972161,0.530504878297708,8477,154,2814,4250,20.581052442875023,11.870443756383487,0.0001280621981884,False
0.15,0.5929278495155499,1.2,65.0,6.03876,0.3,68900.0,0.33,276.0,2700.0,14.693378808236416,1.0949348271471544,2956.324033297317,8.888447078040938,2.198523578700713,5.804931730195479,1.1035887515535583,1624,70,530,823,25.539434639185654,14.658268880659987,0.000175554815403,False
0.16,0.7544445487418026,1.2,66.0,6.03876,0.3,68900.0,0.33,276.0,2700.0,21.76350069309815,1.7325014131084506,4677.753815392816,12.840987361370107,3.9445319194380186,8.92251333172804,2.212030506329568,2177,82,706,1112,29.08373074134498,16.565612118957684,0.000264061954024,False
0.17,0.7456535718429247,1.2,67.0,6.03876,0.3,68900.0,0.33,276.0,2700.0,21.113520416629783,1.7843594722754574,4817.770575143735,12.608988106998511,3.832668269114052,8.504532309631273,2.0483087968385947,2175,82,706,1110,27.10665647711896,15.431869127801358,0.0002412761343345,False
0.18,0.5611644148326698,1.2,68.0,6.03876,0.3,68900.0,0.33,276.0,2700.0,12.88793284687686,1.1476994439817614,3098.788498750756,8.188299234889126,1.927382638953392,4.699633611987734,0.7796831949716303,1606,68,528,808,20.39280280662912,11.745561255541302,0.0001331307569254,False
0.19,0.5130268134852957,1.2,69.0,6.03876,0.3,68900.0,0.33,276.0,2700.0,10.922375301480113,1.0232601976332951,2762.8025336098976,7.175555950107734,1.557826691965585,3.746819351372378,0.5345664943322896,1597,64,528,799,17.447671083179905,10.038786965328226,0.0001122618846553,False
0.2,0.5322954195810031,1.2,70.0,6.03876,0.3,68900.0,0.33,276.0,2700.0,11.466978597727952,1.1299426989536394,3050.8452871748264,7.573948427194512,1.6999129035721,3.89303017053344,0.5699702046184605,1572,64,520,786,17.268517863734168,9.938003420541436,0.0001126112160806,False
0.21,0.6774179347844702,1.2,71.0,6.03876,0.3,68900.0,0.33,276.0,2700.0,17.143999166641944,1.7807237194541432,4807.954042526187,10.874256274135224,3.0321366135018466,6.26974289250672,1.2514128940477034,1636,72,538,823,20.414035841316093,11.659827608726031,0.0001572981845656,False
0.22,0.6244503794437208,1.2,72.0,6.03876,0.3,68900.0,0.33,276.0,2700.0,14.713446135015651,1.5961779558014388,4309.680480663885,9.608353836828782,2.48999095619328,5.10509229818687,0.8938130003918405,1586,68,522,797,18.016171688790354,10.32742034337906,0.0001295671301387,False
0.23,0.5336052145723907,1.2,73.0,6.03876,0.3,68900.0,0.33,276.0,2700.0,11.04881685407152,1.2451314330074066,3361.8548691199976,7.601368100933144,1.709851175656422,3.447448753138377,0.4647197426490153,1497,62,496,747,15.141541637276962,8.704998540036986,9.973003154389394e-05,False
0.24,0.5852728040416111,1.2,74.0,6.03876,0.3,68900.0,0.33,276.0,2700.0,12.818765278593048,1.5092989155356815,4075.107071946341,8.717391041698942,2.1311377725051552,4.101374236894106,0.6218388569694735,1458,64,482,729,15.77940055858799,9.025751373875702,0.0001090443916998,False
0.25,0.7241423495315948,1.2,75.0,6.03876,0.3,68900.0,0.33,276.0,2700.0,18.449492060006985,2.27346158402598,6138.346276870146,12.049485029823416,3.567472167857034,6.400007030183568,1.2940105838310545,1762,74,578,889,18.053651990557896,10.272297292168703,0.0001463810289395,False
0.26,0.956615262131465,1.2,76.0,6.03876,0.3,68900.0,0.33,276.0,2700.0,30.06282872852755,3.8713566463889215,10452.662945250087,18.7123552444355,7.116806148370023,11.35047348409205,3.245449501981101,2726,98,902,1367,21.002970711928253,11.785945867857825,0.0002411441865233,False
0.27,0.902959636718628,1.2,77.0,6.03876,0.3,68900.0,0.33,276.0,2700.0,26.86093852688157,3.5850027223286056,9679.507350287236,17.053970944410104,6.157597370610398,9.806967582471463,2.5725946482817927,2474,92,814,1247,19.26416888591404,10.875153330943396,0.0002067267090354,False
0.28,0.8697340810670025,1.2,78.0,6.03876,0.3,68900.0,0.33,276.0,2700.0,24.88021442449061,3.43725385814088,9280.585416980375,16.063312839384235,5.60750411310553,8.816901585106375,2.17025025496465,2494,90,818,1261,18.208741257561957,10.29020369293161,0.0001835769368959,False
0.29,0.8986613656230625,1.2,79.0,6.03876,0.3,68900.0,0.33,276.0,2700.0,26.168895622814865,3.743409663155824,10107.206090520724,16.924250585918305,6.08457373318784,9.244645036896555,2.341164070032016,2481,90,820,1245,18.041864965830168,10.138497892660313,0.0001877701897678,False
0.3,0.7579587265455661,1.2,80.0,6.03876,0.3,68900.0,0.33,276.0,2700.0,19.0226966101385,2.7968558237561605,7551.510724141634,12.934272063163204,3.989821250823121,6.088424546975297,1.19296542706696,1741,74,574,874,15.632667641108826,8.84655991538992,0.0001286322216782,False
0.31,0.7543585252260576,1.2,81.0,6.03876,0.3,68900.0,0.33,276.0,2700.0,18.67037849946914,2.8315145429223287,7645.089265890288,12.838707738118558,3.943427390611498,5.831670761350583,1.111912847689169,1784,74,586,899,14.906096964719888,8.49788729147136,0.0001240700500557,False
0.32,0.7946496045931088,1.2,82.0,6.03876,0.3,68900.0,0.33,276.0,2700.0,20.33665728871137,3.185236027478572,8600.137274192144,13.92677770863767,4.482495550946528,6.409879580073701,1.2972595234679556,1895,78,626,950,14.91249655766516,8.482305671028993,0.0001304908835409,False
0.33,0.8391605911708886,1.2,83.0,6.03876,0.3,68900.0,0.33,276.0,2700.0,22.272983551098747,3.599776009136437,9719.39522466838,15.176240574312978,5.130012881844989,7.0967429767857695,1.5302368727085516,2064,82,688,1026,15.018807527076238,8.50412289500217,0.000140218424711,False
0.34,0.8440607198047152,1.2,84.0,6.03876,0.2,68900.0,0.33,276.0,2700.0,22.310190776894167,3.7104143269675447,10018.11868281237,15.316834110471955,5.204722629619992,6.99335666642221,1.4943083026524473,4997,120,1540,2587,15.497681228750118,8.79434458059676,0.0001368236448241,False
0.3500000000000001,0.8938812353406813,1.2,85.0,6.03876,0.3,68900.0,0.33,276.0,2700.0,24.598518970641848,4.214943629847215,11380.34780058748,16.78053321067841,6.004017333102626,7.817985759963438,1.7890737032554105,2269,86,752,1135,14.984047866290794,8.425728525647694,0.0001477818236199,False
0.36,0.8291151042058209,1.2,86.0,6.03876,0.3,68900.0,0.33,276.0,2700.0,21.192417015782038,3.716918964943511,10035.68120534748,14.889904083740149,4.979000472824177,6.302512932041886,1.2620815078806666,2030,80,672,1016,14.091124876934137,7.965970528044379,0.0001245982537714,False
0.37,0.6982175274133107,1.2,87.0,6.03876,0.3,68900.0,0.33,276.0,2700.0,15.219074824275566,2.709441447369458,7315.491907897536,11.39063876277811,3.2636681406778307,3.828436061497456,0.5542266933083728,1381,64,462,682,11.84704043719024,6.720752925771736,9.50789867546226e-05,False
0.38,1.0220991497457608,1.2,88.0,6.03876,0.3,68900.0,0.33,276.0,2700.0,30.856684963813606,5.747846495066066,15519.185536678378,20.834365927311133,8.411054556110438,10.022319036502472,2.663208061044372,2845,100,948,1417,15.054839452318149,8.478379139039145,0.0001737687891783,False
0.39,0.8613856916481312,1.2,89.0,6.03876,0.3,68900.0,0.33,276.0,2700.0,22.1652256069236,4.19798157027124,11334.550239732347,15.818757498950854,5.474423362388308,6.346468107972745,1.2764417921170672,2078,82,692,1034,13.09395686195394,7.433890809039268,0.0001222967726303,False
0.4,0.7367078117427174,1.2,90.0,6.03876,0.3,68900.0,0.33,276.0,2700.0,16.33829146873626,3.133617007193912,8460.765919423564,12.374897917683532,3.720919843116076,3.963393551052725,0.5873028359221637,1580,68,526,785,11.571374342909792,6.572161054947763,9.49575493623303e-05,False
0.4100000000000001,1.0886481795364271,1.2,91.0,6.03876,0.3,68900.0,0.33,276.0,2700.0,34.00580557874734,6.826842338791167,18432.47431473615,23.101309086810847,9.872375546540608,10.904496491936497,3.045533207749441,3046,104,1014,1519,14.713504303405326,8.224213314563977,0.000178243950334,False
0.42,0.8401467065334536,1.2,92.0,6.03876,0.3,68900.0,0.33,276.0,2700.0,20.5905736827033,4.168850929021587,11255.897508358285,15.204485502162132,5.144992330191307,5.386088180541169,0.9761414011697208,1996,78,652,1002,12.265915332143544,6.960698667381259,0.0001111746899123,False
0.43,0.775414928945301,1.2,93.0,6.03876,0.2,68900.0,0.33,276.0,2700.0,17.50593067159137,3.5972560229861696,9712.59126206266,13.402251273874976,4.219677951178424,4.103679397716393,0.6224219281922543,4987,104,1272,2771,12.686200368079172,7.254240506430287,9.899199069949296e-05,False
0.44,1.0624424884661097,1.2,94.0,6.03876,0.3,68900.0,0.33,276.0,2700.0,31.75709946308245,6.808152929475877,18382.012909584868,22.19534624642981,9.27889816012716,9.561753216652637,2.470745230651282,3080,102,1016,1542,13.746183552467905,7.768893381341795,0.0001559463662943,False
0.45,0.799858606824652,1.2,95.0,6.03876,0.08,68900.0,0.33,276.0,2700.0,18.24643502315805,3.91459612650498,10569.409541563446,14.070426381413254,4.555414004216723,4.176008641744792,0.640817877711743,56619,258,7342,37270,13.499021830232737,7.689838101786969,0.0001002860273819,False
0.46,0.979730805419008,1.2,96.0,6.03876,0.3,68900.0,0.33,276.0,2700.0,26.76221657107586,5.951449769660899,16068.914378084426,19.44910920479223,7.557841771585011,7.313107366283631,1.606392001924112,2469,90,820,1225,12.34504771351803,7.009878742967818,0.0001274106406025,False
0.4700000000000001,1.004159648388811,1.2,97.0,6.03876,0.3,68900.0,0.33,276.0,2700.0,27.85530457833036,6.328550193191902,17087.085521618137,20.24231679132396,8.042619045191058,7.6129877870064,1.7140688519991558,2774,94,894,1405,12.410601866025011,6.9947363729108325,0.0001298893994459,False
0.4800000000000001,0.8741706854104448,1.2,98.0,6.03876,0.3,68900.0,0.33,276.0,2700.0,21.118410855644512,4.836795262190556,13059.3472079145,16.193990251792357,5.679060375708064,4.924420603852155,0.8422651135175085,2302,80,676,1216,11.133877906884017,6.27097390176489,0.0001054078322957,False
0.49,0.8780725005812519,1.2,99.0,6.03876,0.3,68900.0,0.33,276.0,2700.0,21.12782110337756,4.929912680926045,13310.764238500322,16.30932462935051,5.742471214848584,4.81849647402705,0.8125585339225392,2365,80,688,1255,11.526760958911847,6.6167908029357525,0.0001043825412025,False
0.5,1.0326278732225975,1.2,100.0,6.03876,0.3,68900.0,0.33,276.0,2700.0,28.766511165603145,6.929828403601638,18710.536689724424,21.185607128976887,8.632260450041365,7.580904036626258,1.702432046439727,2852,94,894,1465,12.759373341974245,7.278843699125607,0.0001289229625665,False
0.01,0.6550343279376591,1.2,101.0,9.05814,0.05,68900.0,0.33,276.0,2700.0,20.422619831311778,0.1021110047614547,275.6997128559277,10.330694750268169,2.794838458184283,10.091925081043607,2.6927274534228283,66572,462,22092,33428,685.3494852251588,388.2513630022677,0.0050888857254217,True
0.02,0.5704526422528128,1.2,102.0,9.05814,0.1,68900.0,0.33,276.0,2700.0,16.348314087467916,0.1634663857138606,441.3592414274237,8.390412379707028,2.0043743826062075,7.957901707760888,1.840907996892347,12719,202,4210,6398,243.17718217751928,139.28007318728103,0.0019595458217765,False
0.03,0.5827151132603661,1.2,103.0,9.05814,0.1,68900.0,0.33,276.0,2700.0,16.666890890031553,0.2499468146827068,674.8563996433085,8.660566336043084,2.1089140868573124,8.006324553988469,1.8589672721746056,13298,206,4386,6713,190.7812609630883,108.81180035147264,0.0013504968267752,False
0.04,0.616873686562907,1.2,104.0,9.05814,0.1,68900.0,0.33,276.0,2700.0,17.964441336546546,0.359154785444378,969.7179206998208,9.433038553857918,2.4178564760661825,8.531402782688629,2.0587016906218043,14531,216,4786,7346,162.37833845751902,92.67089433012676,0.0011197618703193,False
0.05,0.4925974161372449,1.2,105.0,9.05814,0.1,68900.0,0.33,276.0,2700.0,12.5621179851651,0.3137911502409106,847.2361056504586,6.763354673272194,1.4154627777937554,5.798763311892906,1.1016716275528449,9938,172,3264,5036,95.62127882492966,54.68134271047011,0.0005900673902411,False
0.06,0.5406170108513522,1.2,106.0,9.05814,0.1,68900.0,0.33,276.0,2700.0,14.27539546675897,0.4278094746606521,1155.0855815837608,7.7488885604592115,1.7636668899107124,6.526506906299759,1.3358574152500602,11458,188,3770,5797,89.53128897766734,51.21269413317383,0.0005832799116232,False
0.0699999999999999,0.6094487560931785,1.2,107.0,9.05814,0.2,68900.0,0.33,276.0,2700.0,16.9868585644281,0.5938216722348616,1603.3185150341262,9.262634582877308,2.3484502968095176,7.724223981550793,1.7546286245746558,3608,106,1182,1829,78.03296339822869,44.6249471785871,0.0006151945095967,False
0.08,0.4003811479204245,1.2,108.0,9.05814,0.1,68900.0,0.33,276.0,2700.0,8.738736071249393,0.3484771125575506,940.8882039053866,5.033255575745018,0.8731854991328206,3.705480495504375,0.52470838657527,7628,144,2508,3860,44.58376831543893,25.740370183931603,0.0002648993326826,False
0.09,0.6799741938656535,1.2,109.0,9.05814,0.3,68900.0,0.33,276.0,2700.0,19.75940496528039,0.8876464094079712,2396.6453054015224,10.937133383788169,3.060014359960691,8.82227158149222,2.17236795055272,2042,80,668,1034,71.05282716641246,40.80332209292256,0.000595707471918,False
0.0999999999999999,0.6474007739635371,1.2,110.0,9.05814,0.2,68900.0,0.33,276.0,2700.0,18.040989118280407,0.8999550608116272,2429.878664191393,10.14820163066406,2.7166760093774607,7.8927874876163475,1.816720948565833,4065,112,1340,2049,60.143750752823856,34.52444973898107,0.0004787306902727,False
0.11,0.7720532310268193,1.2,111.0,9.05814,0.3,68900.0,0.33,276.0,2700.0,23.811318865416705,1.3068348977166355,3528.4542238349163,13.311532894625946,4.174776194428723,10.49978597079076,2.867941296712088,2255,88,738,1142,64.34093398447136,36.86568172035154,0.0006243316551713,False
0.12,0.6440201076087202,1.2,112.0,9.05814,0.3,68900.0,0.33,276.0,2700.0,17.469556072919215,1.0445542496382183,2820.2964740231896,10.067848952790431,2.6825042292818826,7.401707120128783,1.6379499796436645,1618,72,530,817,51.496188296178005,29.48212641921966,0.0003948901538576,False
0.13,0.729638768244749,1.2,113.0,9.05814,0.3,68900.0,0.33,276.0,2700.0,21.230957374989984,1.375410843334392,3713.6092770028586,12.191339762691513,3.634090681588225,9.039617612298471,2.2586798382538325,2178,82,706,1113,52.05870482849189,29.73547412764402,0.000465102550165,False
0.14,0.5915954537299319,1.2,114.0,9.05814,0.3,68900.0,0.33,276.0,2700.0,14.826283824538862,1.0320928475567543,2786.650688403237,8.858568127599439,2.186700559521094,5.967715696939424,1.1546077119643396,1642,70,536,832,40.75553332251908,23.4146425847756,0.0002820899361657,False
0.15,0.7825726612456447,1.2,115.0,9.05814,0.3,68900.0,0.33,276.0,2700.0,23.394250900574924,1.7475002340725407,4718.25063199586,13.596355172603802,4.31630158184954,9.797895727971122,2.568801347777,2250,88,740,1134,47.64587890159727,27.1863937884173,0.0004588520220564,False
0.16,0.7124492236717592,1.2,116.0,9.05814,0.3,68900.0,0.33,276.0,2700.0,19.750855096528515,1.5714897653828794,4243.022366533774,11.750227952061186,3.428328996695877,8.000627144467328,1.8568392313129976,1820,76,598,917,41.70359627403654,23.716431585856125,0.0003545516173351,False
0.17,0.6959644572199859,1.2,117.0,9.05814,0.3,68900.0,0.33,276.0,2700.0,18.77619954001035,1.5856871977628233,4281.355433959623,11.334177657614108,3.238067861369318,7.442021882396242,1.6523806636064948,1849,76,604,937,37.81229755281521,21.57285699321054,0.0003160074103083,False
0.18,0.511247369724106,1.2,118.0,9.05814,0.3,68900.0,0.33,276.0,2700.0,11.015624392661689,0.9791916831023952,2643.8175443764667,7.139235311796117,1.5450905207645207,3.87638908086557,0.5658988376621256,1578,64,522,789,27.30444255251776,15.74030680796679,0.0001759872522732,False
0.19,0.6084635536210523,1.2,119.0,9.05814,0.3,68900.0,0.33,276.0,2700.0,14.595788023610917,1.372234406235721,3705.032896836447,9.240128066059857,2.3393358150608563,5.35565995755106,0.9671014088251352,1579,68,518,796,30.589021508765924,17.498768652976256,0.0002134473987294,False
0.2,0.7913470034268733,1.2,120.0,9.05814,0.3,68900.0,0.33,276.0,2700.0,22.68905668062566,2.25215050724342,6080.806369557233,13.836055110812126,4.436650844367151,8.853001569813536,2.184500337123731,2283,86,748,1155,35.665388247221934,20.151069358998576,0.0003393336687465,False
0.21,0.8740552723334825,1.2,121.0,9.05814,0.3,68900.0,0.33,276.0,2700.0,26.73882833006884,2.788180781613966,7528.0881103577085,16.190584564503634,5.677191573997567,10.548243765565209,2.8890107923836013,2464,92,810,1243,36.76019162090936,20.77836833378103,0.0003912479443243,False
0.22,0.8111670472789779,1.2,122.0,9.05814,0.3,68900.0,0.33,276.0,2700.0,23.233597112306903,2.5333945633034745,6840.165320919381,14.384626512011533,4.71630211107847,8.84897060029537,2.1829075477749957,2266,86,744,1144,33.27571329568006,18.806442066115505,0.0003187130249785,False
0.23,0.8124954306565431,1.2,123.0,9.05814,0.3,68900.0,0.33,276.0,2700.0,23.07743928884458,2.6284230130063104,7096.742135117038,14.421746016007074,4.735435059386149,8.655693272837507,2.1070120463798387,2444,88,800,1238,31.52860608060342,17.770734252472735,0.000304221944386,False
0.24,0.8113748659809124,1.2,124.0,9.05814,0.3,68900.0,0.33,276.0,2700.0,22.801029167528792,2.707170582207965,7309.360571961505,14.390430739846824,4.719292108582759,8.410598427681968,2.012121526374794,1987,82,656,997,30.416554191739568,17.18695327316992,0.0002890986036095,False
0.25,0.6879740755636179,1.2,125.0,9.05814,0.3,68900.0,0.33,276.0,2700.0,16.847714361163746,2.073239371670575,5597.746303510552,11.13497019661098,3.1483003964121763,5.712744164552767,1.0750610247416017,1677,72,550,846,25.95156002052537,14.803174227919508,0.0001985831815663,False
0.26,0.6040141810677366,1.2,126.0,9.05814,0.3,68900.0,0.33,276.0,2700.0,13.21977042686636,1.681759067172964,4540.749481367003,9.138787969050568,2.298448677260096,4.080982457815791,0.6166896100871317,1446,64,476,726,22.532566387498857,12.91780568279121,0.0001588077736305,False
0.27,0.8824538861264353,1.2,127.0,9.05814,0.3,68900.0,0.33,276.0,2700.0,25.770726906529536,3.437824153581082,9282.125214668922,16.43929076158397,5.814213193743679,9.331436144945569,2.3763890401625973,2488,90,818,1255,28.56589326142751,16.163058396300812,0.0002959038586365,False
0.28,0.6289216069104719,1.2,128.0,9.05814,0.3,68900.0,0.33,276.0,2700.0,13.873205346351837,1.8962725872015225,5119.935985444111,9.712489436647497,2.533184711541607,4.160715909704338,0.6369121243400844,1465,64,486,730,21.8107277668416,12.477475320019469,0.000157756687529,False
0.29,0.5953724958808266,1.2,129.0,9.05814,0.3,68900.0,0.33,276.0,2700.0,12.417682366023383,1.7494837409211244,4723.606100487036,8.943384258809141,2.2203198089336764,3.474298107214242,0.470836068012552,1366,62,456,676,20.14094313538408,11.54169275826706,0.0001417676272316,False
0.3,0.6182184927068344,1.2,130.0,9.05814,0.3,68900.0,0.33,276.0,2700.0,13.135869797898245,1.9138318019201208,5167.345865184326,9.46405038659666,2.430562931627165,3.6718194113015823,0.5167311297070443,1253,60,414,626,19.639330519436637,11.202737630150857,0.0001451569645162,False
0.31,0.8728795413108288,1.2,131.0,9.05814,0.3,68900.0,0.33,276.0,2700.0,24.38136678064745,3.71671772650496,10035.13786156339,16.15590937295832,5.658176189203337,8.225457407689134,1.9414584626983773,2277,86,754,1140,24.938865394162377,14.044577730445372,0.0002454282023398,False
0.32,0.917920734716348,1.2,132.0,9.05814,0.3,68900.0,0.33,276.0,2700.0,26.509921977949983,4.172958377756615,11266.98761994286,17.509112679554327,6.416141197481716,9.000809298395655,2.243182819725101,2556,92,842,1287,25.013623100131397,14.091719302339149,0.0002600761904942,False
0.33,0.6425209613682313,1.2,133.0,9.05814,0.3,68900.0,0.33,276.0,2700.0,13.616010532683651,2.1713754610980978,5862.713744964864,10.032308731467216,2.6674376984256085,3.5837018012164368,0.4960622373275107,1301,62,430,650,18.50656937710573,10.527516876320124,0.0001410343970722,False
0.34,0.9243875356172532,1.2,134.0,9.05814,0.3,68900.0,0.33,276.0,2700.0,26.405289206968423,4.406581060080172,11897.768862216464,17.707584948351474,6.530010317050111,8.697704258616952,2.12342925696994,2553,92,842,1284,23.694431391919743,13.352807895139486,0.0002449621672034,False
0.3500000000000001,0.8285743059399293,1.2,135.0,9.05814,0.3,68900.0,0.33,276.0,2700.0,21.361044537789123,3.648385604097992,9850.641131064578,14.87456111676458,4.970952187572622,6.486483421024543,1.32256658347463,2123,82,708,1055,21.48691708276313,12.173849402122377,0.0001905091315685,False
0.36,0.9139487714061572,1.2,136.0,9.05814,0.3,68900.0,0.33,276.0,2700.0,25.420512671310377,4.477976182938613,12090.535693934256,17.387730380445586,6.346836838586131,8.032782290864791,1.8688606556475185,2332,88,772,1168,22.19821056123072,12.607595305650072,0.0002233467096606,False
0.37,0.9575447570077484,1.2,137.0,9.05814,0.3,68900.0,0.33,276.0,2700.0,27.509726924480574,4.983212085907308,13454.672631949732,18.74172158154769,7.13421283294102,8.768005342932888,2.151000747033712,2811,96,932,1407,22.25248263382436,12.5385708346173,0.0002366825916884,False
0.38,0.6974953019119586,1.2,138.0,9.05814,0.3,68900.0,0.33,276.0,2700.0,15.0331155536782,2.7413683071403385,7401.694429278914,11.37252616544732,3.255448072365507,3.660589388230882,0.5140797652251683,1392,64,466,687,17.23256836210838,9.783610162557196,0.0001390019324307,False
0.39,0.893484702310504,1.2,139.0,9.05814,0.2,68900.0,0.33,276.0,2700.0,23.75035754189448,4.507082297590561,12169.122203494511,16.76863701152797,5.997365656169136,6.981720530366509,1.4902833585785755,6735,126,1730,3746,21.815021545590632,12.395408390772932,0.000197657319653,False
0.4,0.7710025696285321,1.2,140.0,9.05814,0.3,68900.0,0.33,276.0,2700.0,17.81020337873812,3.4279993891943352,9255.598350824705,13.283238127773515,4.160805147203226,4.526965250964604,0.7328057580088911,1648,72,554,811,18.09908765033066,10.2002331698643,0.0001531985192291,False
0.4100000000000001,0.7646003587465902,1.2,141.0,9.05814,0.3,68900.0,0.33,276.0,2700.0,17.365160348386343,3.4155100665671583,9221.877179731327,13.111423416373931,4.076313602123811,4.253736932012412,0.6608035355566528,1618,70,542,799,17.79520079899907,10.126446848466363,0.0001473232117957,False
0.42,0.969577531668363,1.2,142.0,9.05814,0.3,68900.0,0.33,276.0,2700.0,27.06304999888514,5.528070955419773,14925.791579633387,19.12384346163144,7.362023089872056,7.939206537253703,1.8339521344522831,2570,92,858,1277,20.11323089439345,11.439991382748214,0.0002109076528745,False
0.43,0.97404176330827,1.2,143.0,9.05814,0.3,68900.0,0.33,276.0,2700.0,27.08792917122972,5.657385700408415,15274.94139110272,19.266538441955813,7.447714682316245,7.821390729273904,1.7903289819078303,2565,92,858,1272,19.60085847431757,11.155154287417648,0.0002028419676873,False
0.44,0.743527771850182,1.2,144.0,9.05814,0.3,68900.0,0.33,276.0,2700.0,15.999452574739236,3.341470614040371,9021.970657909002,12.553178571975817,3.805923422362174,3.4462740027634204,0.4644528083218029,1567,66,510,786,15.92380426788036,8.999440379435962,0.0001346847938335,False
0.45,0.7547276879093712,1.2,145.0,9.05814,0.3,68900.0,0.33,276.0,2700.0,16.31298465442421,3.4795697935396728,9394.838442557117,12.848491863080966,3.9481687682720255,3.4644927913432437,0.4685989747323535,1568,66,510,787,15.7379239106641,8.985400385426406,0.0001352959941731,False
0.46,1.1218773786676972,1.2,146.0,9.05814,0.3,68900.0,0.33,276.0,2700.0,34.77043587596198,7.793340209784712,21042.018566418723,24.274901456897226,10.659435468197652,10.495534419064755,2.86609525841294,3133,104,1034,1566,20.33995758941348,11.702797664766123,0.0002461221328812,False
0.4700000000000001,1.102963365278206,1.2,147.0,9.05814,0.3,68900.0,0.33,276.0,2700.0,33.41054689993321,7.634032138768536,20611.886774675047,23.60349189064425,10.206663353076234,9.80705500928896,2.572631214307698,3223,104,1030,1640,20.323323549037788,11.573777175940403,0.0002317259041005,False
0.4800000000000001,0.9723375952093632,1.2,148.0,9.05814,0.3,68900.0,0.33,276.0,2700.0,25.970187049384936,6.001221548688384,16203.298181458636,19.212007198550264,7.414927737695664,6.758179850834672,1.4137061890072804,2640,90,830,1349,17.99315120552915,10.1769427807336,0.0001839538726451,False
0.49,0.8221176832398003,1.2,149.0,9.05814,0.2,68900.0,0.33,276.0,2700.0,18.582154368276235,4.306224330826219,11626.805693230792,14.691948265337832,4.875502853487384,3.890206102938404,0.5692785226611647,5331,106,1320,3001,17.391586537375012,9.979110169923054,0.0001441475337677,False
0.5,1.0177925340403235,1.2,150.0,9.05814,0.3,68900.0,0.33,276.0,2700.0,27.96472102307996,6.7293808679708444,18169.32834352128,20.6914988725382,8.32163675263483,7.273222150541759,1.5922558846639865,2772,92,850,1435,19.091203721892526,10.78860234172356,0.0001899939047369,False
0.01,0.6045796697990098,1.2,151.0,12.07752,0.05,68900.0,0.33,276.0,2700.0,18.07719115328748,0.0903838613713349,244.03642570260428,9.151640091922111,2.303620192360686,8.925551061365365,2.2132363309893512,57261,426,18998,28758,835.2634242280407,474.94775583314265,0.0058446853062419,True
0.02,0.6319034580822247,1.2,152.0,12.07752,0.1,68900.0,0.33,276.0,2700.0,19.101033779018177,0.1909935826294178,515.682673099428,9.782216500007571,2.562249811883359,9.318817279010604,2.3712562292539414,15164,222,5022,7625,383.5256694739808,218.0448674911458,0.0031640879763059,True
0.03,0.4856294012282142,1.2,153.0,12.07752,0.1,68900.0,0.33,276.0,2700.0,12.669280997355992,0.1899826662925748,512.953198989952,6.625160938542658,1.3688177981721568,6.044120058813334,1.178835131879582,10467,176,3448,5289,213.2424006645488,121.52309037761736,0.0012921667691346,False
0.04,0.5997622599332518,1.2,154.0,12.07752,0.1,68900.0,0.33,276.0,2700.0,17.20038650908137,0.3438736888950739,928.4589600166996,9.042409998974582,2.259796328310524,8.157976510106787,1.9159226394154492,13864,210,4570,7003,201.40770859740545,114.97938306773506,0.0014162467972828,False
0.05,0.4084940403593826,1.2,155.0,12.07752,0.08,68900.0,0.33,276.0,2700.0,9.494875769925905,0.2371100948603485,640.1972561229411,5.176889856156039,0.914601286599719,4.317985913769864,0.6774911917393704,12549,188,4120,6363,104.02723216506654,59.590667497334834,0.0005665325929503,False
0.06,0.7347418011617419,1.2,156.0,12.07752,0.2,68900.0,0.33,276.0,2700.0,23.132328009951987,0.6935174509564446,1872.4971175824005,12.323721475684229,3.6966409854994313,10.80860653426776,3.0031235345429868,5045,128,1658,2552,147.15776582572667,83.9882174160863,0.0013763879406609,False
0.0699999999999999,0.3778467400353921,1.2,157.0,12.07752,0.08,68900.0,0.33,276.0,2700.0,8.154994745888086,0.2847064385859623,768.7073841820983,4.642974899790259,0.7641854030535963,3.512019846097827,0.4794789644676339,10553,170,3470,5342,65.38545593607782,37.60212663301647,0.0003698412037918,False
0.08,0.4756146020606563,1.2,158.0,12.07752,0.1,68900.0,0.33,276.0,2700.0,11.378316851986284,0.4540603437870259,1225.96292822497,6.428678883499426,1.303454109788008,4.949637968486858,0.849393766000982,9282,164,3058,4689,73.17644593436653,42.01629730490488,0.0004546018882967,False
0.09,0.5663363054111461,1.2,159.0,12.07752,0.2,68900.0,0.33,276.0,2700.0,14.743326602120572,0.6619228830657807,1787.191784277608,8.30057277821453,1.970021670121768,6.442753823906042,1.3080987870559873,3109,96,1022,1570,85.08413994126931,48.67619280433031,0.0005525458743434,False
0.0999999999999999,0.638887676190526,1.2,160.0,12.07752,0.3,68900.0,0.33,276.0,2700.0,17.65879933688778,0.8808455717419954,2378.283043703388,9.946408865798556,2.631143609619406,7.712390471089224,1.7502980378774105,1744,74,572,880,80.53918200819498,46.19486410866401,0.0006290773710593,False
0.11,0.4277184094579552,1.2,161.0,12.07752,0.3,68900.0,0.33,276.0,2700.0,9.187903343034964,0.5025470439856377,1356.8770187612215,5.523850845276078,1.01744390062579,3.6640524977588864,0.5148968566401524,1701,66,558,858,49.4754622925744,28.564625208521324,0.0002887787729965,False
0.12,0.5712284996499548,1.2,162.0,12.07752,0.2,68900.0,0.33,276.0,2700.0,14.368179021979216,0.8584716265818177,2317.873391770908,8.407393268533433,2.0108907325120304,5.960785753445784,1.152419105930213,3132,96,1032,1578,58.640026259044056,33.807801996232506,0.0004136764095896,False
0.13,0.4396807924455314,1.2,163.0,12.07752,0.2,68900.0,0.33,276.0,2700.0,9.284516447136152,0.5988921830238919,1617.008894164508,5.744435778521887,1.08483809554337,3.540080668614265,0.4859459125194779,2089,74,680,1063,42.85672666358608,24.73864394519945,0.0002559327067508,False
0.14,0.4998488875226887,1.2,164.0,12.07752,0.3,68900.0,0.33,276.0,2700.0,11.248897204774243,0.7816757841732305,2110.524617267722,6.90846582821942,1.4650323867561574,4.340431376554825,0.683356602582927,1638,66,536,828,45.39347243519783,26.18795206894313,0.0002869389828105,False
0.15,0.7863036401293098,1.2,165.0,12.07752,0.3,68900.0,0.33,276.0,2700.0,23.58356037982402,1.761698445016224,4756.585801543804,13.698042641739324,4.367218884018901,9.885517738084696,2.605520439002677,2251,88,740,1135,63.77395876855441,36.38116096171159,0.000617711121866,False
0.16,0.4815404040372225,1.2,166.0,12.07752,0.2,68900.0,0.33,276.0,2700.0,10.268206077917654,0.8128778438940093,2194.770178513825,6.544633713851469,1.3418923146911688,3.723572364066185,0.5290144707971595,2366,80,776,1196,39.50620192770533,22.78506632708507,0.0002399024171504,False
0.17,0.5718624398269728,1.2,167.0,12.07752,0.3,68900.0,0.33,276.0,2700.0,13.480636888563478,1.1355643723898388,3066.023805452565,8.421279301317124,2.0162249178124005,5.059357587246353,0.8806605454225618,1592,68,520,806,43.101476558279664,24.72979275365018,0.0002885072240163,False
0.18,0.5791024393545925,1.2,168.0,12.07752,0.3,68900.0,0.33,276.0,2700.0,13.591350649615046,1.211007046228189,3269.7190248161105,8.58058299181996,2.0777708604679286,5.010767657795087,0.8667638142397396,1606,68,526,811,41.11697632238688,23.55218404539568,0.0002788319828102,False
0.19,0.7463479018744285,1.2,169.0,12.07752,0.3,68900.0,0.33,276.0,2700.0,20.71158619120117,1.9532352321567967,5273.735126823352,12.627241256048531,3.841429404377328,8.084344935152643,1.8881941722205315,1943,78,634,986,48.30210652238053,27.387864018919974,0.0004266297027563,False
0.2,0.7007211026115496,1.2,170.0,12.07752,0.3,68900.0,0.33,276.0,2700.0,18.379536079318303,1.821198447112497,4917.235807203741,11.453527078777208,3.292264151325334,6.926009000541098,1.4710657042128372,1696,74,558,853,43.23633177430189,24.56960559112328,0.0003560750012651,False
0.21,0.623268284221291,1.2,171.0,12.07752,0.3,68900.0,0.33,276.0,2700.0,14.84309499885159,1.5391287818361556,4155.64771095762,9.580906628940909,2.478649193093526,5.262188369910682,0.9395204112573704,1585,68,522,796,37.591656769559606,21.55101408991494,0.0002695851172605,False
0.22,0.9173436925452824,1.2,172.0,12.07752,0.3,68900.0,0.33,276.0,2700.0,28.860179422936103,3.1523186174726874,8511.260267176256,17.491453783827392,6.406042796453738,11.36872563910871,3.2537241789810505,2613,96,862,1314,48.56615522673375,27.34172106800227,0.0005424371814683,False
0.23,0.7177271720719645,1.2,173.0,12.07752,0.3,68900.0,0.33,276.0,2700.0,18.551515469320904,2.1079417737610857,5691.442789154931,11.88487870247945,3.490701125442442,6.666636766841455,1.382759351681356,1944,76,642,975,38.70536442924276,21.963455600172548,0.0003171812255808,False
0.24,0.8091841926999634,1.2,174.0,12.07752,0.3,68900.0,0.33,276.0,2700.0,22.69198429020597,2.69408519692923,7274.030031708921,14.329301386223005,4.687834355699151,8.362682903982964,1.9937491587699203,1984,82,656,994,40.654441301942335,23.02998980388416,0.0003834873396124,False
0.25,0.8667866099898927,1.2,175.0,12.07752,0.3,68900.0,0.33,276.0,2700.0,25.4078025128134,3.1432503906267804,8486.776054692307,15.97677041695916,5.560285557381707,9.431032095854238,2.417035166754927,2396,90,792,1202,40.61956691564936,22.838103414016132,0.0004170817137117,False
0.26,0.5872821602485856,1.2,176.0,12.07752,0.3,68900.0,0.33,276.0,2700.0,12.575827316701044,1.598046462851474,4314.72544969898,8.76214861253535,2.1486990662633927,3.813678704165692,0.5506526034119188,1460,64,484,728,29.333316668879483,16.806961106515352,0.000203669895109,False
0.27,0.6491298537214468,1.2,177.0,12.07752,0.3,68900.0,0.33,276.0,2700.0,14.854264837485946,1.964101774260197,5303.074790502532,10.189409935663956,2.7342586747923554,4.66485490182199,0.7701569005321585,1367,64,452,683,31.05339140875172,17.63725531662508,0.000226340261045,False
0.28,0.7650542178211259,1.2,178.0,12.07752,0.3,68900.0,0.33,276.0,2700.0,19.73737769376895,2.7172567158394063,7336.593132766397,13.123569605948656,4.0822670967552295,6.613808087820292,1.3650103809158232,1926,78,634,969,33.64069455219791,19.148166985871583,0.0002850443275615,False
0.29,0.6429214734060857,1.2,179.0,12.07752,0.3,68900.0,0.33,276.0,2700.0,14.267949626794415,2.017772493732834,5447.985733078652,10.041798130630427,2.671457659015254,4.226151496163988,0.65368516528242,1370,64,452,686,28.841497021700864,16.469985928662474,0.0002096098362024,False
0.3,0.6401941995333361,1.2,180.0,12.07752,0.3,68900.0,0.33,276.0,2700.0,13.996596327003788,2.0429407812859552,5515.940109472079,9.977260114097737,2.644158974246733,4.019336212906053,0.6012181929607783,1389,64,458,696,28.043695658262877,16.055521471345372,0.000202350541909,False
0.31,0.9100464076082252,1.2,181.0,12.07752,0.3,68900.0,0.33,276.0,2700.0,26.31769775701916,4.016849027842574,10845.49237517495,17.26886117224908,6.279215648932119,9.048836584770084,2.262366621089545,2567,92,846,1292,36.7991388425319,20.671367701822007,0.0003619418470238,False
0.32,0.9606873512216854,1.2,182.0,12.07752,0.3,68900.0,0.33,276.0,2700.0,28.830085270483185,4.54418450456154,12269.298162316158,18.8411690947578,7.193266655331603,9.988916175725382,2.649082150770063,2762,98,916,1382,34.14521106270101,19.3291330584429,0.0003797959395609,False
0.33,0.9675460976104596,1.2,183.0,12.07752,0.3,68900.0,0.33,276.0,2700.0,28.97385088920329,4.705419119923838,12704.631623794365,19.05907639565784,7.323240065515573,9.914774493545456,2.6178209455917347,2777,98,922,1388,33.45877724767411,18.8474724745372,0.0003711052914969,False
0.34,0.9065076269890946,1.2,184.0,12.07752,0.3,68900.0,0.33,276.0,2700.0,25.46570131275204,4.246851118063386,11466.498018771144,17.161397911396694,6.218295174968983,8.304303401355348,1.9714440569055969,2269,86,754,1132,31.0843248212615,17.4794631259005,0.0003150332386558,False
0.3500000000000001,0.7096935125766541,1.2,185.0,12.07752,0.3,68900.0,0.33,276.0,2700.0,16.018057562172153,2.713362883365019,7326.079785085551,11.680202591039905,3.396045291819329,4.33785497113225,0.6826824084543102,1440,66,478,717,25.744825618985946,14.59627062299838,0.0002039138093011,False
0.36,0.7840289334184284,1.2,186.0,12.07752,0.3,68900.0,0.33,276.0,2700.0,19.09254711665555,3.3389423831007417,9015.144434372003,13.636004102766105,4.336130438887282,5.456543013889446,0.9971880557865402,1798,76,598,895,26.51446489134403,14.953947452641035,0.0002297097920622,False
0.37,0.9115575451730418,1.2,187.0,12.07752,0.3,68900.0,0.33,276.0,2700.0,25.083616610649276,4.534381677848594,12242.830530191204,17.31484625608078,6.305346011417695,7.768770354568492,1.7709643335691003,2342,88,778,1169,28.834128735366463,16.25202239570467,0.0002865583463537,False
0.38,0.8268532149234432,1.2,188.0,12.07752,0.3,68900.0,0.33,276.0,2700.0,20.704200078454026,3.8188743668477447,10310.96079048891,14.825781029020122,4.945393702223297,5.8784190494339,1.1265193353755527,2053,80,680,1027,26.765184660455866,15.128732346032146,0.0002363292812595,False
0.39,0.8996815673257252,1.2,189.0,12.07752,0.3,68900.0,0.33,276.0,2700.0,24.06233907975504,4.567918697473374,12333.380483178107,16.954997900405342,6.101855564458866,7.107341179349696,1.533936866985492,2121,84,706,1056,27.43691317751785,15.489522956908932,0.0002615340623953,False
0.4,0.7865081694139251,1.2,190.0,12.07752,0.3,68900.0,0.33,276.0,2700.0,18.49510219767979,3.564979152982794,9625.443713053544,13.703627182644892,4.3700211059642085,4.791475015034896,0.8050419529814143,1923,76,618,974,24.29978829455076,13.796900393009915,0.0002104849044896,False
0.4100000000000001,0.8539409462060057,1.2,191.0,12.07752,0.3,68900.0,0.33,276.0,2700.0,21.426011729817567,4.24798459976056,11469.558419353512,15.602150749586572,5.3574638948408175,5.823860980230995,1.1094792950802574,2055,80,678,1030,25.21967710943213,14.31496455555854,0.0002318501225276,False
0.42,0.756532210608515,1.2,192.0,12.07752,0.3,68900.0,0.33,276.0,2700.0,16.856951359920266,3.384790241237148,9138.933651340298,12.89636742806986,3.9713973474536775,3.9605839318504064,0.5866071062165301,1568,68,524,776,22.70401723929937,12.902289079664468,0.0001906220229741,False
0.43,0.9532812570509308,1.2,193.0,12.07752,0.3,68900.0,0.33,276.0,2700.0,25.9936122284581,5.422107557712515,14639.69040582379,18.60719975778828,7.0545944329967725,7.386412470669825,1.6324868752842576,2201,86,734,1094,25.85938884135072,14.652326988228769,0.0002666070538593,False
0.44,0.8188261402446689,1.2,194.0,12.07752,0.3,68900.0,0.33,276.0,2700.0,19.258928827480464,4.058555389643442,10958.099552037294,14.599256668063164,4.827296297967735,4.659672159417299,0.7687409083242924,1834,74,616,902,23.12014040084097,13.145863286428575,0.0002035664172358,False
0.45,0.7848134875557994,1.2,195.0,12.07752,0.3,68900.0,0.33,276.0,2700.0,17.590511982496082,3.7670134423560393,10170.936294361309,13.657386715980934,4.346837009220739,3.933125266515148,0.5798235668646994,1720,72,566,859,21.658157782600785,12.270622358328852,0.0001891518156103,False
0.46,1.1536324702755916,1.2,196.0,12.07752,0.3,68900.0,0.33,276.0,2700.0,36.698236170262,8.236734277473719,22239.18254917904,25.422362879064583,11.44843899359121,11.275873291197414,3.211704716117492,3498,110,1154,1747,27.10697501316888,15.326812769360464,0.0003466053756161,False
0.4700000000000001,0.9208759180899267,1.2,197.0,12.07752,0.3,68900.0,0.33,276.0,2700.0,23.55381008376308,5.317698986968559,14357.78726481511,17.599679660131667,6.468017603123911,5.954130423631415,1.150318616155352,2234,84,714,1133,23.7632258354065,13.472477619990226,0.0002300220547813,False
0.4800000000000001,0.9328986546980664,1.2,198.0,12.07752,0.3,68900.0,0.33,276.0,2700.0,23.96275528685813,5.51943792568208,14902.482399341618,17.97040123259764,6.68183882025032,5.992354054260485,1.1624008945682398,2251,84,716,1145,23.603633568742318,13.384781736006836,0.0002303402191657,False
0.49,0.9749246728925683,1.2,199.0,12.07752,0.3,68900.0,0.33,276.0,2700.0,25.90607144982496,6.100584015805644,16471.57684267524,19.29481914568839,7.464737776973631,6.6112523041365705,1.3641537611679864,2728,90,830,1417,23.578787927067307,13.286255748911271,0.0002424705971082,False
0.5,1.089233311990104,1.2,200.0,12.07752,0.3,68900.0,0.33,276.0,2700.0,31.92744163565077,7.720061021113522,20844.16475700651,23.12173482517115,9.88589884767143,8.805706810479617,2.1658378265579072,3434,100,1000,1824,26.18139657621753,14.956924114673177,0.000281188764685,False
0.01,0.3703314512546145,1.2,201.0,15.0969,0.05,68900.0,0.33,276.0,2700.0,8.86409012945151,0.0443183562521549,119.65956188081844,4.515653080704303,0.7297714249864905,4.348437048747207,0.6854530687343355,28891,282,9578,14518,577.4290960806336,326.65739926763536,0.0030415201431054,True
0.02,0.5434211958017791,1.2,202.0,15.0969,0.1,68900.0,0.33,276.0,2700.0,15.19753965197352,0.1519586413589174,410.2883316690772,7.808231418472912,1.7854793645865448,7.389308233500609,1.6335207232276272,12263,196,4058,6170,396.7582549717396,226.5775306993114,0.0029904129060758,True
0.03,0.4958784661042954,1.2,203.0,15.0969,0.1,68900.0,0.33,276.0,2700.0,13.068929402341016,0.1959773923673715,529.1389593919031,6.828848947465706,1.4377610534375225,6.240080454875311,1.241783661070151,10893,180,3580,5517,261.7476200489773,149.0835061576076,0.0016766288524479,False
0.04,0.381215262514416,1.2,204.0,15.0969,0.1,68900.0,0.33,276.0,2700.0,8.736282182107336,0.1745916023555937,471.3973263601031,4.700504132838747,0.7799221825775657,4.03577804926859,0.605330580221972,7228,140,2362,3679,153.55343199122447,87.83313124834618,0.0007914258358342,False
0.05,0.7259941115897264,1.2,205.0,15.0969,0.2,68900.0,0.33,276.0,2700.0,22.936496817704644,0.5731506210548185,1547.50667684801,12.097191558303708,3.589829104326116,10.839305259400936,3.0166784832712974,4899,126,1620,2463,216.5101834306576,123.5527315087407,0.0020221605846541,False
0.06,0.4265707819532113,1.2,206.0,15.0969,0.08,68900.0,0.33,276.0,2700.0,9.9553515982773,0.2982081586062019,805.1620282367452,5.502877795448132,1.011116615253708,4.452473802829168,0.7129084566475061,12589,190,4146,6364,111.4414153294398,63.90665045051873,0.0006329050205986,False
0.0699999999999999,0.4598121905385637,1.2,207.0,15.0969,0.1,68900.0,0.33,276.0,2700.0,10.972394650695406,0.3833154352542193,1034.951675186392,6.123775428195622,1.2042828501960403,4.848619222499784,0.820967414941821,9220,162,3030,4669,104.83699042261648,60.17985972073301,0.0006151950376506,False
0.08,0.7383622518330328,1.2,208.0,15.0969,0.2,68900.0,0.33,276.0,2700.0,22.828752113860773,0.9120777542620048,2462.6099365074133,12.418039262043992,3.74142904824447,10.41071285181678,2.829351293982465,4938,126,1626,2493,139.55004230022288,79.77494125674254,0.0013014660423407,False
0.09,0.537476209864167,1.2,209.0,15.0969,0.2,68900.0,0.33,276.0,2700.0,13.572774623502749,0.6092480440279792,1644.9697188755438,7.682656789810797,1.7394332483660655,5.890117833691952,1.1301852043380864,2955,94,970,1494,91.56898738963694,52.85568754221519,0.0006256683386299,False
0.0999999999999999,0.5208084579347702,1.2,210.0,15.0969,0.2,68900.0,0.33,276.0,2700.0,12.733394740526508,0.6345753419239363,1713.353423194628,7.335323845772366,1.614284958676789,5.398070894754143,0.9797096167528526,2903,92,954,1466,80.14272418647978,46.26420227043793,0.0005287334060622,False
0.11,0.4348147507547762,1.2,211.0,15.0969,0.1,68900.0,0.33,276.0,2700.0,9.42912832125246,0.5158144177876006,1392.6989280265216,5.654272612406429,1.0571050417338457,3.7748557088460304,0.541290623946245,7893,148,2602,3984,60.45630142318175,34.89897113815587,0.0003674219620941,False
0.12,0.4833494557029549,1.2,212.0,15.0969,0.3,68900.0,0.33,276.0,2700.0,10.978846816301148,0.6551116942411327,1768.8015744510585,6.58020868943757,1.3537640612975317,4.398638126863577,0.698652367056399,1553,64,506,788,63.99674944141437,36.93603950062793,0.0003946862054252,False
0.13,0.6012117845527911,1.2,213.0,15.0969,0.3,68900.0,0.33,276.0,2700.0,15.418312160640737,0.997588904401689,2693.4900418845605,9.07521521590242,2.2729272938300507,6.343096944738315,1.2753383894283616,1747,72,574,880,74.17532257262512,42.59725817545975,0.000528050304724,False
0.14,0.8216144260033833,1.2,214.0,15.0969,0.3,68900.0,0.33,276.0,2700.0,25.65532382840347,1.790125647827275,4833.339249133642,14.677758641080848,4.868112594988283,10.977565187322623,3.077986947161008,2479,92,818,1246,88.60209839748084,50.236899423659615,0.0009097194207605,False
0.15,0.7877276695910546,1.2,215.0,15.0969,0.3,68900.0,0.33,276.0,2700.0,23.65599998265487,1.767131415228537,4771.254821117049,13.736946675452057,4.386752994506017,9.919053307202814,2.61962157927748,2249,88,740,1133,84.01292664372434,47.53458987306683,0.000818700934156,False
0.16,0.7372937249119962,1.2,216.0,15.0969,0.3,68900.0,0.33,276.0,2700.0,20.93083028593144,1.665887780535114,4497.897007444808,12.390168380412849,3.7281749319352944,8.540661905518593,2.0622871514001804,2175,82,706,1110,71.34464948810968,40.67872028095645,0.0006308122327872,False
0.17,0.7584731062757117,1.2,217.0,15.0969,0.3,68900.0,0.33,276.0,2700.0,21.736676771458587,1.837327762435916,4960.784958576973,12.947952437946554,3.996477896365436,8.788724333512032,2.1591501339295203,2158,82,702,1099,68.67920386766706,39.04200003087171,0.0006244537184499,False
0.18,0.6899323443035752,1.2,218.0,15.0969,0.3,68900.0,0.33,276.0,2700.0,18.296088332070145,1.6344334376491565,4412.970281652722,11.18364317198128,3.170153302123557,7.112445160088866,1.5357198644744003,1699,74,558,856,59.97423713860753,34.10541371881276,0.0004859123377122,False
0.19,0.8431637488159052,1.2,219.0,15.0969,0.3,68900.0,0.33,276.0,2700.0,25.576893172440453,2.415439395374528,6521.686367511225,15.291053271330007,5.190995437626321,10.285839901110446,2.775556042251793,2408,90,788,1220,66.16867644743189,37.49289982785732,0.000680774293059,False
0.2,0.5841313294652486,1.2,220.0,15.0969,0.3,68900.0,0.33,276.0,2700.0,13.44254677757916,1.3274995169387709,3584.2486957346814,8.692010368067677,2.121201581070681,4.750536409511481,0.7937020641319101,1601,68,528,803,47.2569462098973,27.071595243556903,0.0003199506615755,False
0.21,0.5724046375918939,1.2,221.0,15.0969,0.3,68900.0,0.33,276.0,2700.0,12.81606132718384,1.326290246311039,3580.9836650398056,8.43316379189504,2.020794138165631,4.382897535288798,0.6945038918545918,1442,64,474,725,44.21354230654052,25.439637202312014,0.0002981532997495,False
0.22,0.5830842250902939,1.2,222.0,15.0969,0.3,68900.0,0.33,276.0,2700.0,13.06297395446614,1.414626015940886,3819.4902430403927,8.668756812724817,2.1121123158415327,4.394217141741322,0.6974862999006466,1456,64,478,733,42.62818511694475,24.420654266386503,0.0002933389583904,False
0.23,0.739052962737027,1.2,223.0,15.0969,0.3,68900.0,0.33,276.0,2700.0,19.530625008470743,2.220539370763317,5995.456301060955,12.436070663556896,3.750012549921654,7.094554344913849,1.529473179158337,1800,76,594,903,49.741616098538415,28.1508416478188,0.0004206142943671,False
0.24,0.5747775715130112,1.2,224.0,15.0969,0.3,68900.0,0.33,276.0,2700.0,12.41781556665303,1.4611849501028802,3945.199365277777,8.485263310135752,2.0408672649624395,3.932552256517278,0.5796823148595593,1488,64,492,744,39.07230268838024,22.432963054163714,0.0002656667277008,False
0.25,0.7547045949044187,1.2,225.0,15.0969,0.3,68900.0,0.33,276.0,2700.0,19.85425318094609,2.4490567241433663,6612.453155187089,12.84787971583344,3.947872065053878,7.006373465112652,1.4988153409105118,1801,76,594,904,46.57232554818224,26.310956291121368,0.000397514785403,False
0.26,0.7829698675936951,1.2,226.0,15.0969,0.3,68900.0,0.33,276.0,2700.0,20.9871349847919,2.691516459703229,7267.094441198717,13.607164352925787,4.321704287041224,7.379970631866112,1.6301878273379953,1933,80,638,970,45.57234405600676,25.763903077817677,0.0004088137744572,False
0.27,0.9529194137015202,1.2,227.0,15.0969,0.3,68900.0,0.33,276.0,2700.0,29.605585416234213,3.955530052391216,10679.931141456282,18.59580391889842,7.047863603366744,11.009781497335794,3.0923335509755283,2615,96,862,1316,49.846486101637645,28.094317295724164,0.0005738066559401,False
0.28,0.613242746680206,1.2,228.0,15.0969,0.3,68900.0,0.33,276.0,2700.0,13.257630207287262,1.8100920677324808,4887.248582877698,9.349534483945217,2.383757379552081,3.908095723342047,0.5736653118196002,1459,64,480,733,36.079950379540485,20.66459428803825,0.0002529832175912,False
0.29,0.6557472252345018,1.2,229.0,15.0969,0.3,68900.0,0.33,276.0,2700.0,14.786498032569432,2.09296201257014,5650.997433939377,10.347812547274042,2.8022092834033168,4.438685485295391,0.7092472708331772,1360,64,448,682,35.357427874647094,20.07254307685918,0.000269332432835,False
0.3,0.6724141091017088,1.2,230.0,15.0969,0.3,68900.0,0.33,276.0,2700.0,15.302445655062156,2.2388181804947007,6044.809087335692,10.7516509755661,2.9780307408481064,4.550794679496056,0.7392125603534057,1524,66,504,762,36.553917115818464,20.86404058545618,0.000271394885667,False
0.31,0.6841257295681742,1.2,231.0,15.0969,0.3,68900.0,0.33,276.0,2700.0,15.619357171284856,2.3586062370537566,6368.236840045143,11.03959995877536,3.105632806649176,4.579757212509497,0.7470265695954192,1424,66,474,707,35.827100974426486,20.243474803448283,0.000260257938826,False
0.32,0.8078796136488907,1.2,232.0,15.0969,0.3,68900.0,0.33,276.0,2700.0,20.962610290767493,3.285388507807581,8870.548971080469,14.292955232714162,4.669164362159584,6.669655058053332,1.3837758543520031,1958,80,646,983,38.66888132992166,21.838110269531786,0.0003372993270642,False
0.33,0.9545109366596408,1.2,233.0,15.0969,0.3,68900.0,0.33,276.0,2700.0,28.2557125593473,4.586926295497602,12384.700997843527,18.645951691766328,7.07749914945128,9.609760867580974,2.490572853953678,2610,94,860,1314,41.80200648266976,23.54816337892101,0.0004513927025626,False
0.34,0.9543537580479198,1.2,234.0,15.0969,0.3,68900.0,0.33,276.0,2700.0,28.01604652515281,4.6804098041715125,12637.106471263083,18.640996270815528,7.074568794101374,9.375050254337278,2.3941589899298616,2549,92,844,1277,40.16472179850352,22.49005993575673,0.0004356005229542,False
0.3500000000000001,0.916877129927128,1.2,235.0,15.0969,0.3,68900.0,0.33,276.0,2700.0,25.789533995754184,4.423371259241875,11943.10239995306,17.47718195012829,6.397885267545785,8.312352045625893,1.9745140083039103,2340,88,776,1170,38.343022090492326,21.54090510443388,0.00038824112173,False
0.36,1.036937032798731,1.2,236.0,15.0969,0.3,68900.0,0.33,276.0,2700.0,32.19261112415738,5.696953904450916,15381.775542017473,21.33016539346397,8.723863906607292,10.862445730693404,3.0269100021563764,2940,102,978,1467,40.13079887940727,22.70546796032116,0.0004755612336129,False
0.37,0.9778353493396144,1.2,237.0,15.0969,0.3,68900.0,0.33,276.0,2700.0,28.613980279804792,5.187498956642365,14006.247182934385,19.388190527403875,7.521034587905335,9.225789752400916,2.3335356312629703,2801,96,928,1403,37.95033881583024,21.30531180404846,0.000411330407456,False
0.38,0.8002365672550138,1.2,238.0,15.0969,0.3,68900.0,0.33,276.0,2700.0,19.468590627962413,3.5841085712543395,9677.093142386717,14.080875933311262,4.5607340432726975,5.387714694651152,0.976625472018358,1797,76,598,894,32.15310898323866,18.07935148370367,0.0002816742840461,False
0.39,0.8365319414574506,1.2,239.0,15.0969,0.3,68900.0,0.33,276.0,2700.0,20.97345845683964,3.965586976004869,10707.084835213143,15.101068563848289,5.090218699891299,5.87238989299135,1.1246317238864303,2051,80,680,1025,32.801100886326815,18.539940399664104,0.0002934440259376,False
0.4,0.7372461017116928,1.2,240.0,15.0969,0.3,68900.0,0.33,276.0,2700.0,16.360937893221514,3.138146292091139,8472.994988646076,12.38892687042539,3.727584902027287,3.972011022796124,0.5894386099361477,1587,68,528,789,29.26490086706105,16.62777610702424,0.0002405836776243,False
0.4100000000000001,0.9168792349558508,1.2,241.0,15.0969,0.3,68900.0,0.33,276.0,2700.0,24.52766008207092,4.8838225119724985,13186.320782325743,17.47724632924153,6.397922057583544,7.050413752829385,1.514099545611045,2180,86,728,1082,33.23155335087128,18.75786281760629,0.0003208723382811,False
0.42,1.0601149194538717,1.2,242.0,15.0969,0.3,68900.0,0.33,276.0,2700.0,32.0911007385584,6.583961610751156,17776.69634902812,22.115713906602902,9.227329661281228,9.975386831955491,2.6433680505300723,2952,102,988,1464,35.41499814363241,19.874739420339893,0.0004120300082324,False
0.43,0.8124031729679817,1.2,243.0,15.0969,0.3,68900.0,0.33,276.0,2700.0,19.14002644362184,3.948586613972719,10661.18385772634,14.419166592478454,4.734104661421166,4.720859851143384,0.7855180474484471,1834,74,614,905,29.18242704588945,16.456558992715863,0.0002581562764418,False
0.44,0.8285662497867641,1.2,244.0,15.0969,0.3,68900.0,0.33,276.0,2700.0,19.70137062721241,4.155892585584497,11220.909981078144,14.874332611514555,4.970832356750439,4.827038015697854,0.8149397711659416,2224,78,672,1160,29.39113647296624,16.660717501657807,0.0002623480901078,False
0.45,0.8835110583971368,1.2,245.0,15.0969,0.3,68900.0,0.33,276.0,2700.0,22.10093967516563,4.781859673206688,12911.021117658056,16.470722176583855,5.831608967822461,5.630217498581775,1.0497492946157738,2189,82,704,1107,30.2612342854165,17.139088979175355,0.0002806982654318,False
0.46,0.9073933997885631,1.2,246.0,15.0969,0.3,68900.0,0.33,276.0,2700.0,23.07682916062747,5.103810665257747,13780.288796195917,17.188266921288687,6.233508172903404,5.888562239338782,1.1296975076456572,2160,82,698,1091,29.79086806947975,16.83373708095808,0.0002831849591218,False
0.4700000000000001,0.8632745204635655,1.2,247.0,15.0969,0.3,68900.0,0.33,276.0,2700.0,20.782730822615104,4.666495360598725,12599.537473616558,15.873934989633016,5.504354383680363,4.908795832982088,0.8378590230816378,2294,80,684,1204,27.79400814307483,15.970982453838564,0.0002625378017251,False
0.4800000000000001,1.1233646065361549,1.2,248.0,15.0969,0.3,68900.0,0.33,276.0,2700.0,34.38037840175957,8.019667473258432,21653.10217779777,24.32807634535113,10.695577312846858,10.05230205640844,2.675909839588426,3200,104,1028,1622,33.06962426428161,18.430248043184637,0.0003901475762964,False
0.49,1.1099116643879103,1.2,249.0,15.0969,0.3,68900.0,0.33,276.0,2700.0,33.3522581214655,7.924899750357593,21397.2293259655,23.849097797500107,10.37152004384055,9.503160323965396,2.4466202934829564,3272,102,1008,1692,50.72249809667008,28.078801333981016,0.0003722311700204,False
0.5,0.9666100969339386,1.2,250.0,15.0969,0.3,68900.0,0.33,276.0,2700.0,25.28343938666547,6.059060458867219,16359.463238941493,19.029269317518477,7.305414708555489,6.254170069146998,1.2463542496882702,2710,88,798,1429,28.979897906114164,16.44897354755237,0.0002946141168148,False
0.02,0.6187450391177336,1.2,252.0,18.11628,0.1,68900.0,0.33,276.0,2700.0,18.49562525233478,0.1849394973625286,499.3366428788274,9.476205165277666,2.43554939311259,9.019420087057114,2.250609895750061,14702,218,4870,7391,538.4563719563987,306.6446993935522,0.0045637615086125,True
0.03,0.7003104431326965,1.2,253.0,18.11628,0.1,68900.0,0.33,276.0,2700.0,22.143494942224432,0.3320958754656042,896.6588637571314,11.443200757070338,3.287562772309785,10.700294185154094,2.9554668968441806,17292,242,5700,8736,468.9005653960914,267.1592433854582,0.0038122973127005,True
0.04,0.7252994164539346,1.2,254.0,18.11628,0.1,68900.0,0.33,276.0,2700.0,23.14793116267462,0.4628245819670497,1249.6263713110343,12.0792841831598,3.581431464979407,11.06864697951482,3.118606883012357,18331,250,6038,9268,391.138811699581,222.57244408814176,0.003038717215818,True
0.05,0.3548410659702121,1.2,255.0,18.11628,0.1,68900.0,0.33,276.0,2700.0,7.723913876933,0.192836047535526,520.6573283459202,4.257697751622737,0.6618279174333119,3.466216125310264,0.4689918698977859,6632,132,2176,3362,132.2320241146395,75.83042311219563,0.0006969017176127,False
0.06,0.7178168252304182,1.2,256.0,18.11628,0.2,68900.0,0.33,276.0,2700.0,22.28475127401695,0.668090148878392,1803.8434019716583,11.887171976505185,3.4917667451540795,10.397579297511768,2.823676596275688,4775,124,1574,2408,207.69550089027615,119.3677249901064,0.0019704131718728,False
0.0699999999999999,0.7042774383029407,1.2,257.0,18.11628,0.2,68900.0,0.33,276.0,2700.0,21.38101992627164,0.7476173198993864,2018.5667637283432,11.543130929385418,3.333155974950103,9.83788899688622,2.5855386550507165,4518,120,1494,2271,183.3729347661385,104.76418767839849,0.0016227792475657,False
0.08,0.4273716745175215,1.2,258.0,18.11628,0.2,68900.0,0.33,276.0,2700.0,9.6529787003161,0.3850468177202185,1039.62640784459,5.517510727102036,1.0155296877895448,4.135467973214063,0.6304828700693262,2131,76,696,1081,99.39662670148292,57.355123050995545,0.0005808779108782,False
0.09,0.5689281010462093,1.2,259.0,18.11628,0.2,68900.0,0.33,276.0,2700.0,14.850497363501663,0.6667455673279297,1800.21303178541,8.357089410710698,1.991608261733862,6.493407952790967,1.3248626944059323,3263,98,1072,1649,114.69034061923468,66.20260930261514,0.0008335738037036,False
0.0999999999999999,0.7613573710616697,1.2,260.0,18.11628,0.3,68900.0,0.33,276.0,2700.0,23.50775197627908,1.1732932037115598,3167.8916500212117,13.02478514297203,4.033933972311856,10.482966833307051,2.8606407686002964,2133,84,694,1086,140.69724770697036,80.6836193732026,0.0013395229851322,False
0.11,0.7298688824466876,1.2,261.0,18.11628,0.3,68900.0,0.33,276.0,2700.0,21.69946647436099,1.1906830162085686,3214.8441437631354,12.197295241675928,3.636896767202903,9.50217123268506,2.4462137509943345,2082,82,676,1062,123.13570896275571,70.33349060920897,0.0011143063474493,False
0.12,0.7450842111038385,1.2,262.0,18.11628,0.3,68900.0,0.33,276.0,2700.0,22.217114612787352,1.3294077620303069,3589.4009574818283,12.594029300363816,3.8254934651914874,9.623085312423536,2.49608570316118,2228,84,724,1136,114.58936208951908,65.52254452083552,0.0010578285048541,False
0.13,0.6716784267456479,1.2,263.0,18.11628,0.3,68900.0,0.33,276.0,2700.0,18.505005379589928,1.1982239636333898,3235.2047018101525,10.733678117803857,2.970127552917949,7.771327261786071,1.7719035892845592,1920,76,628,972,96.61699424184152,55.38714942657659,0.0007885696141616,False
0.14,0.7829336391230957,1.2,264.0,18.11628,0.3,68900.0,0.33,276.0,2700.0,23.64826474095473,1.6496315117057367,4454.005081605489,13.606178302853383,4.3212113381487445,10.042086438101348,2.671579826443008,2233,88,734,1126,102.44623576577436,58.52498281778254,0.0009898015478983,False
0.15,0.5315294485509182,1.2,265.0,18.11628,0.3,68900.0,0.33,276.0,2700.0,12.263817812884628,0.9127177524957708,2464.3379317385807,7.557933321117455,1.6941176129882618,4.705884491767172,0.7813998604924911,1710,68,562,861,67.78081248609456,39.01456960212235,0.0004388232267395,False
0.16,0.5533791186129452,1.2,266.0,18.11628,0.3,68900.0,0.33,276.0,2700.0,12.931178915618348,1.0259156709098864,2769.972311456693,8.02056043859244,1.864288240271739,4.910618477025908,0.8383725693618524,1646,68,540,830,66.33826106796069,38.117813498291625,0.000437570695809,False
0.17,0.5541613659948058,1.2,267.0,18.11628,0.3,68900.0,0.33,276.0,2700.0,12.788398451317944,1.0767241052239576,2907.1550841046856,8.037345579506333,1.8705688667394664,4.751052871811611,0.7938447615155086,1676,68,552,842,63.01254185670719,36.19574231986733,0.0004145248667377,False
0.18,0.492854842706983,1.2,268.0,18.11628,0.3,68900.0,0.33,276.0,2700.0,10.357326562674467,0.9199448784035454,2483.8511716895728,6.768483480816787,1.4172045050970108,3.5888430818576804,0.4972596266934653,1359,60,446,684,53.41699028624255,30.74507269454103,0.0003343835873208,False
0.19,0.8367149324282888,1.2,269.0,18.11628,0.3,68900.0,0.33,276.0,2700.0,25.23817308933362,2.383260987479378,6434.804666194321,15.10629596859395,5.092982537359593,10.131877120739672,2.709721549880215,2402,90,788,1214,78.77792909130358,44.57141357701008,0.000804025289096,False
0.2,0.68067391306074,1.2,270.0,18.11628,0.3,68900.0,0.33,276.0,2700.0,17.481996540794515,1.7314444932603077,4674.90013180283,10.954373226781096,3.067673312935567,6.52762331401342,1.3362288196752592,1734,74,570,873,64.1667500095959,36.527396446229695,0.0005038056261009,False
0.21,0.5769483597691758,1.2,271.0,18.11628,0.3,68900.0,0.33,276.0,2700.0,12.991849580238252,1.3447480128817526,3630.819634780732,8.533048518760413,2.0593388192668813,4.458801061477839,0.7145908063851287,1641,68,540,825,54.82715762759351,31.46808843913978,0.0003612895638575,False
0.22,0.5296228268268371,1.2,272.0,18.11628,0.3,68900.0,0.33,276.0,2700.0,11.057325756730506,1.1940047141900725,3223.812728313196,7.518133250146199,1.6797454494852058,3.539192506584308,0.4857407352951333,1611,64,534,804,46.54762948007337,26.74183348078746,0.0003080785795863,False
0.23,0.7504937758616349,1.2,273.0,18.11628,0.3,68900.0,0.33,276.0,2700.0,20.06531721015743,2.282028973957288,6161.478229684678,12.736483748906537,3.894006658988233,7.328833461250896,1.6119776850309444,1813,76,598,910,59.7700864439523,33.8184667613257,0.0005205329598603,False
0.24,0.8915869313324922,1.2,274.0,18.11628,0.3,68900.0,0.33,276.0,2700.0,26.959855108822246,3.2062296951631883,8656.820176940608,16.71175760032183,5.965596609870718,10.248097508500416,2.7593669147075297,2465,92,808,1247,65.51460224841475,36.86521773457319,0.0006936952175876,False
0.25,0.6329795142829211,1.2,275.0,18.11628,0.2,68900.0,0.33,276.0,2700.0,14.53818233384978,1.7845478682563292,4818.279244292089,9.807433673247166,2.5727895915427936,4.730748660602615,0.7882417232864645,3065,94,1016,1535,48.837384836588456,27.96089698389719,0.0003523053748512,False
0.26,0.920279961767814,1.2,276.0,18.11628,0.3,68900.0,0.33,276.0,2700.0,28.038347370418204,3.608174069834705,9742.069988553703,17.581397824184865,6.457534410794453,10.45694954623334,2.8493603409597483,2526,94,832,1272,61.462564495279366,34.48632937647031,0.0006733183267548,False
0.27,0.7190605278490707,1.2,277.0,18.11628,0.3,68900.0,0.33,276.0,2700.0,17.838918556012406,2.3670300262612693,6390.981070905427,11.919005982395106,3.506570644058774,5.9199125736173,1.1395406177975045,1861,74,612,937,49.3183965064384,28.050219755170477,0.0003949505813807,False
0.28,0.8414337395325191,1.2,278.0,18.11628,0.3,68900.0,0.33,276.0,2700.0,23.435515518627188,3.2349960113200718,8734.489230564193,15.241386263986591,5.16458474655042,8.194129254640597,1.929588735230349,2212,84,732,1108,53.59780072237832,30.42267466721128,0.0005177362510255,False
0.29,0.672045519965368,1.2,279.0,18.11628,0.3,68900.0,0.33,276.0,2700.0,15.457372046300078,2.190238744561245,5913.644610315361,10.742644573610798,2.9740694590366115,4.71472747268928,0.7838307144753665,1530,66,506,765,43.79073997734565,25.032098005725917,0.0003336991172617,False
0.3,0.9021572690079228,1.2,280.0,18.11628,0.3,68900.0,0.33,276.0,2700.0,26.12636211056259,3.862405648819776,10428.495251813396,17.029720511364964,6.143923544949402,9.096641599197625,2.281517896129626,2482,90,820,1246,52.52088217422547,29.541801629245043,0.0005450623914755,False
0.31,1.0053534181996655,1.2,281.0,18.11628,0.3,68900.0,0.33,276.0,2700.0,31.60035025836864,4.835660165551744,13056.282446989708,20.28146302026781,8.066807074108311,11.318887238100825,3.231146908556568,2980,102,990,1489,54.24061986865939,30.44851890644584,0.0006435001870963,False
0.32,0.8784092807370594,1.2,282.0,18.11628,0.3,68900.0,0.33,276.0,2700.0,24.44806159818096,3.843060716993582,10376.263935882673,16.31929750592074,5.7479655509920295,8.128764092260216,1.9049048339984476,2271,86,752,1137,48.56097180561106,27.340300023671382,0.0004784303304718,False
0.33,0.8493016491096761,1.2,283.0,18.11628,0.3,68900.0,0.33,276.0,2700.0,22.77214188482764,3.682137134201799,9941.770262344857,15.4678737176961,5.285392566823635,7.304268167131541,1.603255432621836,2094,82,698,1041,45.98077358545956,26.028009967371503,0.0004315940847057,False
0.34,0.8346646809039928,1.2,284.0,18.11628,0.3,68900.0,0.33,276.0,2700.0,21.852364235563076,3.632583814941259,9807.9763003414,15.04777564338105,5.06207083976662,6.804588592182023,1.4294870248253613,2111,82,704,1049,45.10097963806854,25.5788377368455,0.0004006867354667,False
0.3500000000000001,0.7935500735590294,1.2,285.0,18.11628,0.3,68900.0,0.33,276.0,2700.0,19.713097749842877,3.3599949162073663,9071.986273759889,13.896543103187788,4.467199251378731,5.816554646655085,1.1072043351713647,1893,78,626,948,41.84455555794218,23.625483368498955,0.0003592402755637,False
0.36,0.8310190061626395,1.2,286.0,18.11628,0.3,68900.0,0.33,276.0,2700.0,21.283338955890667,3.7332849141630633,10079.86926824027,14.943978103331466,5.007400851707765,6.339360852559201,1.274115937544702,2029,80,672,1015,42.55267712108778,24.038477533396616,0.0003750460274194,False
0.37,0.9977729166977308,1.2,287.0,18.11628,0.3,68900.0,0.33,276.0,2700.0,29.71917908834818,5.391960736222892,14558.293987801808,20.033490790086784,7.91400420248439,9.685688298261397,2.522043466261499,2866,98,950,1435,46.32143904482636,26.05352308604919,0.0005135671951333,False
0.38,1.0474611867566723,1.2,288.0,18.11628,0.3,68900.0,0.33,276.0,2700.0,32.31609081989515,6.025133607721105,16267.860740846983,21.68517818286504,8.950211514488064,10.630912637030114,2.9250779067669592,2886,100,958,1443,45.684197422027225,25.82637593380769,0.000544504689761,False
0.39,0.9992588939059844,1.2,289.0,18.11628,0.3,68900.0,0.33,276.0,2700.0,29.340281416115342,5.597117453063363,15112.21712327108,20.081986048917223,7.943809537752892,9.25829536719812,2.346692084689529,2804,96,932,1400,43.54068789171636,24.48678139875816,0.0004823613930633,False
0.4,0.8775059136317658,1.2,290.0,18.11628,0.3,68900.0,0.33,276.0,2700.0,22.75814482651003,4.417587678748827,11927.486732621834,16.29255304862483,5.733235316019023,6.4655917778852015,1.315647637270196,2082,82,692,1038,39.777134719040255,22.49207525958864,0.0003683430326719,False
0.4100000000000001,1.089822325605558,1.2,291.0,18.11628,0.3,68900.0,0.33,276.0,2700.0,34.075697981193414,6.841170281292607,18471.15975949004,23.14230473744452,9.899523921847486,10.933393243748895,3.058353640554879,3045,104,1014,1518,44.16195523278486,24.68329424817006,0.0005357707417879,False
0.42,1.0021092219550356,1.2,292.0,18.11628,0.3,68900.0,0.33,276.0,2700.0,28.82229179692081,5.897511733007264,15923.281679119616,20.1751625769279,8.00118252920407,8.647129219992909,2.1036707961968064,2827,96,932,1417,40.984767783203445,23.048981473143748,0.0004424903959852,False
0.43,0.951664331524468,1.2,293.0,18.11628,0.3,68900.0,0.33,276.0,2700.0,25.909291065121057,5.403978507594423,14590.74197050494,18.55630205538819,7.02454913448383,7.352989009732866,1.620570626889407,2206,86,736,1096,38.7804428619774,21.941035493292908,0.0003899375491955,False
0.44,0.9803669371714462,1.2,294.0,18.11628,0.3,68900.0,0.33,276.0,2700.0,27.213180323810608,5.808490718836041,15682.924940857312,19.46957428657746,7.570220476212172,7.74360603723315,1.7617297573761306,2579,92,860,1281,38.6030643417056,21.9681318215086,0.0004000463937034,False
0.45,0.8433644253429005,1.2,295.0,18.11628,0.3,68900.0,0.33,276.0,2700.0,20.20718180951901,4.3557641534362,11760.56321427774,15.296819382315348,5.19406457163555,4.910362427203662,0.8383004181993492,2185,78,660,1139,34.48430566877215,19.467480265840628,0.0003167610283295,False
0.46,0.7860922059023092,1.2,296.0,18.11628,0.2,68900.0,0.33,276.0,2700.0,17.487207157742713,3.818197604594282,10309.13353240456,13.692270671010398,4.364323259177405,3.7949364867323143,0.5461256545831232,5093,104,1286,2844,36.38393393094836,20.696290573725108,0.0002849302095848,False
0.4700000000000001,0.928518897705234,1.2,297.0,18.11628,0.3,68900.0,0.33,276.0,2700.0,23.93403011171489,5.407050693537232,14599.036872550529,17.83493059589622,6.603429669979914,6.0990995158186685,1.1963789764426824,2200,84,712,1108,35.84425678073069,20.30518502191841,0.0003481106901551,False
0.4800000000000001,1.1581866616426195,1.2,298.0,18.11628,0.3,68900.0,0.33,276.0,2700.0,36.48215291097445,8.524093355470002,23015.05205976901,25.58900528796888,11.564596562024384,10.893147623005568,3.0405032065543818,3667,110,1150,1882,40.94153894828853,23.30359001427341,0.0004965414746,False
0.49,0.8550378185308487,1.2,299.0,18.11628,0.3,68900.0,0.33,276.0,2700.0,20.060799008812747,4.668492267757667,12604.9291229457,15.633977029769747,5.374594914125107,4.426821979043,0.70610264636744,1921,74,608,975,32.43092671892526,18.35897248518632,0.0002993576131784,False
0.5,1.16660912110297,1.2,300.0,18.11628,0.3,68900.0,0.33,276.0,2700.0,36.50876875906255,8.865392801966488,23936.560565309515,25.89856493382613,11.781421297136676,10.610203825236422,2.9160284951701883,3701,108,1126,1926,40.21875027363858,22.571126291238546,0.0004789349827325,False
0.02,0.4061005778544322,1.2,302.0,21.13566,0.1,68900.0,0.33,276.0,2700.0,9.918787486516251,0.0991711197043435,267.76202320172746,5.134342900181894,0.902261540825626,4.784444586334359,0.8030904211212824,8362,154,2762,4213,406.1269552370263,232.28083030122943,0.0024906450054086,True
0.03,0.7298568750684438,1.2,303.0,21.13566,0.1,68900.0,0.33,276.0,2700.0,23.628784845993582,0.3543752240221374,956.8131048597712,12.196984451376004,3.636750311531277,11.43180039461758,3.2823750875091395,18255,250,6032,9201,595.3609124844443,338.7004050483748,0.0048126628439357,True
0.04,0.6269538570492292,1.2,304.0,21.13566,0.1,68900.0,0.33,276.0,2700.0,18.421427184784644,0.3682945024091419,994.3951565046832,9.66659832430445,2.514118128872921,8.754828860480194,2.145823626463779,14621,218,4820,7385,376.56629702923385,214.84899275611025,0.0026915342818453,True
0.05,0.4012782233348109,1.2,305.0,21.13566,0.1,68900.0,0.33,276.0,2700.0,9.248276634283863,0.2309451164692972,623.5518144671025,5.049056456784211,0.8777077947431196,4.199220177499653,0.6467626782738223,8015,148,2620,4079,181.44054413585948,103.88109965508124,0.000962611056688,False
0.06,0.6798421648157993,1.2,306.0,21.13566,0.2,68900.0,0.33,276.0,2700.0,20.435435362946503,0.6126106715462785,1654.048813174952,10.933881801566486,3.058570555288377,9.501553561380016,2.4459598837420984,4355,118,1438,2192,231.35765104302095,132.19002501482703,0.0020693390159604,False
0.0699999999999999,0.4647038784988712,1.2,307.0,21.13566,0.2,68900.0,0.33,276.0,2700.0,11.151215078255138,0.389574150218809,1051.8502055907843,6.217488595444217,1.23446741136408,4.933726482810921,0.8448932611452711,2533,84,832,1279,141.086610960457,81.44306951689596,0.000879187190485,False
0.08,0.4442557888901896,1.2,308.0,21.13566,0.2,68900.0,0.33,276.0,2700.0,10.2435075723664,0.40866797260223,1103.403526026021,5.8297489262233615,1.111313821926583,4.413758646143039,0.702645849324353,2191,78,720,1105,121.64008069490748,70.18467862517647,0.0007152600107152,False
0.09,0.6474579091193262,1.2,309.0,21.13566,0.2,68900.0,0.33,276.0,2700.0,18.25781250947573,0.8200747488967625,2214.2018220212585,10.149562104224644,2.7172558673236527,8.108250405251086,1.8971811184268903,4058,112,1338,2045,157.43867361865634,90.28150428142776,0.0012450660500812,False
0.0999999999999999,0.5375047562731419,1.2,310.0,21.13566,0.2,68900.0,0.33,276.0,2700.0,13.387299968314869,0.6672706033133475,1801.6306289460383,7.683257646947318,1.7396525692049112,5.704042321367549,1.0723819658915636,2848,92,938,1435,116.27021666891692,67.10893546529122,0.0007852480558721,False
0.11,0.4766492617492313,1.2,311.0,21.13566,0.1,68900.0,0.33,276.0,2700.0,10.902649922289497,0.5968581058446379,1611.5168857805224,6.448861289583896,1.310116043320751,4.453788632705598,0.7132579374761131,9074,160,2992,4580,91.8014982886613,52.99613914831847,0.0005848682306413,False
0.12,0.4481905771707832,1.2,312.0,21.13566,0.08,68900.0,0.33,276.0,2700.0,9.731554998780894,0.5802741851899182,1566.7403000127792,5.903544440914983,1.1343977069516875,3.828010557865911,0.5541235217617693,12035,186,3992,6041,80.3109733301938,46.32448658777251,0.0004950664114833,False
0.13,0.7492378139503273,1.2,313.0,21.13566,0.3,68900.0,0.33,276.0,2700.0,22.19093060527584,1.4378091033029732,3882.084578918028,12.703343931197567,3.878030935839439,9.487586674078274,2.4402218325364657,2079,82,676,1059,124.6061560034093,70.86226131453536,0.0011452664060191,False
0.14,0.7563689034323667,1.2,314.0,21.13566,0.3,68900.0,0.33,276.0,2700.0,22.31344113882141,1.55619385955653,4201.723420802631,12.892031377832128,3.969291632169609,9.421409760989286,2.413097772613079,2064,82,672,1050,117.1575291090518,66.64428636342508,0.0010799258447736,False
0.15,0.640183553144768,1.2,315.0,21.13566,0.3,68900.0,0.33,276.0,2700.0,16.692351936534696,1.2448578117694389,3361.116091777485,9.97700854500709,2.6440527537981726,6.715343391527606,1.3991949420287335,1659,72,542,840,95.36052355169625,54.62156441611411,0.0007167197774869,False
0.16,0.785144145039099,1.2,316.0,21.13566,0.3,68900.0,0.33,276.0,2700.0,23.2908820625521,1.854691922664764,5007.668191194863,13.66640324686237,4.351354416956683,9.62447881568973,2.496662494291919,2331,88,762,1182,104.15424680556288,59.144595221485375,0.0010090188255696,False
0.17,0.6402199223843037,1.2,317.0,21.13566,0.3,68900.0,0.33,276.0,2700.0,16.30175231864462,1.3753591839467365,3713.469796656188,9.9778679445713,2.6444156256392413,6.32388437407332,1.269056441692505,1580,70,510,809,83.88412745531481,48.11661026934021,0.0006269512099246,False
0.18,0.5031300162685928,1.2,318.0,21.13566,0.3,68900.0,0.33,276.0,2700.0,10.722995134543702,0.9528550498717764,2572.7086346537963,6.974559661789773,1.487808309781449,3.748435472753928,0.5349532599096726,1598,64,528,800,63.370955839445045,36.48590393223243,0.0004016751185128,False
0.19,0.5941047473646541,1.2,319.0,21.13566,0.3,68900.0,0.33,276.0,2700.0,14.013850564195817,1.316950347591288,3555.7659384964777,8.914876100962747,2.2089999216647627,5.09897446323307,0.8920495740734746,1572,68,516,792,69.70755269531116,40.06071668675511,0.000481109084625,False
0.2,0.8904884985725346,1.2,320.0,21.13566,0.3,68900.0,0.33,276.0,2700.0,27.87636108489709,2.7708809476705647,7481.378558710525,16.678877067200254,5.94725792914917,11.197484017696835,3.176376981478605,2560,94,842,1291,91.6051600780382,52.02532175033397,0.0009980582182297,False
0.21,0.5682163058416897,1.2,321.0,21.13566,0.3,68900.0,0.33,276.0,2700.0,12.6549416492054,1.309372680123305,3535.306236332924,8.341551205809743,1.9856652563327524,4.313390443395656,0.6762925762094474,1447,64,474,730,63.6311127293572,36.07718725616192,0.0006067148086525,False
0.22,0.7672442279664935,1.2,322.0,21.13566,0.3,68900.0,0.33,276.0,2700.0,21.071705237356536,2.295586457058936,6198.083434059126,13.182251480836545,4.111072082287231,7.889453756519993,1.815485625228296,2075,82,680,1049,74.0585966730529,41.99531146660831,0.0006672800421307,False
0.23,0.7660873443729723,1.2,323.0,21.13566,0.3,68900.0,0.33,276.0,2700.0,20.804685561000024,2.367056334304182,6391.052102621291,13.151237473384018,4.09583969486444,7.653448087616006,1.7287833605602576,2071,82,680,1045,70.90001080744916,40.16863992995721,0.0006317452898194,False
0.24,0.8454171903635073,1.2,324.0,21.13566,0.3,68900.0,0.33,276.0,2700.0,24.526549922600157,2.9142330728165367,7868.429296604649,15.355860348926331,5.225525927889044,9.170689573673824,2.311292855072508,2439,88,800,1233,72.58125451117643,40.93100314420624,0.0007309883830691,False
0.25,0.6142357537664083,1.2,325.0,21.13566,0.3,68900.0,0.33,276.0,2700.0,13.78576283883357,1.6904954313793026,4564.337664724117,9.372338665399736,2.393052853853457,4.4134241734338335,0.7025574224741542,1408,64,464,706,55.4608884684697,31.61062376447007,0.0003933600349285,False
0.26,0.924624014932889,1.2,326.0,21.13566,0.3,68900.0,0.33,276.0,2700.0,28.276890738308246,3.639184707660408,9825.7987106831,17.714862643460492,6.53419865510474,10.562028094847754,2.895013947444333,2538,94,834,1281,71.98736149734118,40.3858306286451,0.0007923866457841,False
0.27,0.6706339396945311,1.2,327.0,21.13566,0.3,68900.0,0.33,276.0,2700.0,15.745890614472708,2.084471254153411,5628.0723862142095,10.708184468953762,2.9589296813926365,5.037706145518946,0.8744584272392255,1682,70,554,845,55.489054772756255,31.633767710448524,0.0004165130791132,False
0.28,0.8881206112928235,1.2,328.0,21.13566,0.3,68900.0,0.33,276.0,2700.0,25.84039919446772,3.571679725937744,9643.53526003191,16.608099771249066,5.90784805243747,9.232299423218656,2.3361683264997257,2489,90,818,1256,64.43399437129992,36.45504900117986,0.0006691151743732,False
0.29,0.7554236865133859,1.2,329.0,21.13566,0.3,68900.0,0.33,276.0,2700.0,19.09827679121127,2.7181699325733675,7339.058817948092,12.86694761924296,3.957117722556451,6.23132917196831,1.2389477899830834,1773,74,582,894,61.64453275957811,34.87085085042621,0.0005200661489406,False
0.3,0.6470915541997474,1.2,330.0,21.13566,0.3,68900.0,0.33,276.0,2700.0,14.271751407650392,2.0842140433829432,5627.3779171339465,10.140840068920072,2.7135391230984527,4.13091133873032,0.6293250797155094,1399,64,462,700,49.593052180811526,28.38767706485793,0.0003609513511798,False
0.31,0.7130976648903607,1.2,331.0,21.13566,0.3,68900.0,0.33,276.0,2700.0,16.847899021351267,2.5490302238140505,6882.381604297936,11.766733227577454,3.435953679607396,5.081165793773813,0.8869234557933456,1583,70,522,794,51.04104450603474,29.06859801166732,0.0004014404485717,False
0.32,0.7588843309009068,1.2,332.0,21.13566,0.3,68900.0,0.33,276.0,2700.0,18.68853146232304,2.921535895255816,7888.146917190702,12.95889409645409,4.001804662848089,5.729637365868952,1.0802687675922735,1769,74,582,890,51.44185551153238,29.01001156632139,0.0004255329641314,False
0.33,1.0195819089682503,1.2,333.0,21.13566,0.3,68900.0,0.33,276.0,2700.0,31.92572872294172,5.192478962490683,14019.693198724844,20.750802738471545,8.35871464836451,11.174925984470176,3.1662356858738265,2967,102,986,1482,60.10740567155509,33.788174454491525,0.0007159761532437,False
0.34,0.742546492819214,1.2,334.0,21.13566,0.3,68900.0,0.33,276.0,2700.0,17.598884923776367,2.9094923319375208,7855.629296231306,12.527454948276864,3.793617874462721,5.071429975499504,0.8841255425252004,1700,72,562,851,46.83719537733296,26.61031779972651,0.0003900724595698,False
0.3500000000000001,0.96755210833683,1.2,335.0,21.13566,0.3,68900.0,0.33,276.0,2700.0,28.50794546233642,4.899093265893765,13227.551817913169,19.05926787926925,7.323354624984139,9.448677583067171,2.424261359090374,2700,96,898,1347,55.26703570920336,31.036137647552053,0.0006043605516428,False
0.36,0.901523735935894,1.2,336.0,21.13566,0.3,68900.0,0.33,276.0,2700.0,24.77863958045376,4.36243902658442,11778.585371777934,17.010584298795557,6.133140716042373,7.768055281658203,1.7707016894579528,2257,86,750,1126,51.76346959414197,29.138585567466144,0.0005078610034773,False
0.37,0.84350191178665,1.2,337.0,21.13566,0.3,68900.0,0.33,276.0,2700.0,21.68832203723384,3.9062521817667393,10546.880890770197,15.300770414107577,5.196167948534316,6.387551623126264,1.289915766767577,2026,80,672,1012,48.63557431373779,27.47598079686308,0.0004360092427177,False
0.38,0.9565331824656284,1.2,338.0,21.13566,0.3,68900.0,0.33,276.0,2700.0,27.23366320264681,5.059472360444306,13660.575373199626,18.70976307380588,7.11527035088802,8.523900128840925,2.055797990443714,2642,94,874,1325,50.60941662688452,28.519112229639823,0.00053340571927,False
0.39,1.0897603021661637,1.2,339.0,21.13566,0.3,68900.0,0.33,276.0,2700.0,34.56951202170298,6.61681742115322,17865.407037113695,23.14013830426556,9.898088623697474,11.429373717437418,3.2812712025442536,3058,104,1018,1525,53.34376044965042,30.10995751912815,0.0006635024824799,False
0.4,0.9965412914516042,1.2,340.0,21.13566,0.3,68900.0,0.33,276.0,2700.0,28.963041460621422,5.658567005571118,15278.13091504202,19.99333843524227,7.8893551796990895,8.969703025379154,2.230788174127971,2787,96,926,1392,49.99932930871465,28.14391977316096,0.0005430861253263,False
0.4100000000000001,0.8388721763724054,1.2,341.0,21.13566,0.3,68900.0,0.33,276.0,2700.0,20.712953698878888,4.10180770341813,11074.880799228951,15.16798423808032,5.125637020152775,5.544969460798569,1.0238293167346448,2017,78,660,1011,43.81301253601603,24.89208406652784,0.0003937853402902,False
0.42,0.8473569654356885,1.2,342.0,21.13566,0.3,68900.0,0.33,276.0,2700.0,20.928990692296225,4.239918501036096,11447.779952797458,15.411748856906794,5.255367033286425,5.517241835389431,1.0154485322503293,2010,78,652,1012,43.49894727973485,24.720619248389536,0.000394028900191,False
0.43,0.9850852061861576,1.2,343.0,21.13566,0.3,68900.0,0.33,276.0,2700.0,27.678872603098004,5.784438538260098,15617.984053302263,19.62168383619663,7.662441792193322,8.057188766901373,1.8780032539332243,2566,92,858,1273,46.34178316247885,26.051011901195924,0.0004841232900047,False
0.44,1.0713944893137817,1.2,344.0,21.13566,0.3,68900.0,0.33,276.0,2700.0,32.273185992864946,6.921691966028029,18688.56830827568,22.502886941893504,9.478965968307326,9.770299050971442,2.557274002279297,3076,102,1022,1533,49.0301151971841,27.59660069287617,0.0005553198881041,False
0.45,1.0912701917016905,1.2,345.0,21.13566,0.3,68900.0,0.33,276.0,2700.0,33.195605097587645,7.278159393251642,19651.030361779434,23.192905108225247,9.93306750518698,10.002699989362398,2.654908111935339,2969,102,986,1478,46.98878701520148,26.665791395856917,0.0005606181294117,False
0.46,0.9183989941538168,1.2,346.0,21.13566,0.3,68900.0,0.33,276.0,2700.0,23.620568821456505,5.228870787248452,14117.95112557082,17.523754925410728,6.424518597029317,6.096813896045777,1.1956478097808647,2165,84,712,1081,42.161467934726936,23.914649686302987,0.0004063319916527,False
0.4700000000000001,1.0869268754226795,1.2,347.0,21.13566,0.3,68900.0,0.33,276.0,2700.0,32.475536133991646,7.41430460877227,20018.62244368513,23.041271884480828,9.832662849999688,9.434264249510818,2.418358241227417,3029,100,970,1538,46.122010720729634,25.6518478516819,0.0005260575212537,False
0.4800000000000001,1.0458701766200562,1.2,348.0,21.13566,0.3,68900.0,0.33,276.0,2700.0,29.92175610531324,6.9495981221113095,18763.91492970053,21.631329808228365,8.915753021274224,8.29042629708487,1.9661548991629143,2730,94,894,1369,43.52160406674574,24.543509457939223,0.0004753531218521,False
0.49,1.1035538195935943,1.2,349.0,21.13566,0.3,68900.0,0.33,276.0,2700.0,32.98099141381255,7.833939406982619,21151.636398853072,23.624315877016592,10.220606284096458,9.356675536795962,2.3866668771138397,3418,102,1038,1785,45.23742087255085,25.858606299833347,0.0005150691712401,False
0.5,0.8473407065273738,1.2,350.0,21.13566,0.2,68900.0,0.33,276.0,2700.0,19.54624414378369,4.62476164814677,12486.85644999628,15.411280014678788,5.25511645888623,4.134964129104905,0.6303548107394592,5372,108,1340,3014,41.30021022903131,23.48157770479329,0.0003439987521463,False
0.01,0.3681752790687575,1.2,351.0,24.15504,0.05,68900.0,0.33,276.0,2700.0,8.792097662111223,0.0439583939154536,118.68766357172493,4.479385894446202,0.7200740195566949,4.312711767665021,0.6761156256412413,28347,280,9388,14259,937.8339536052104,535.2480339175136,0.0048189982315518,True
0.02,0.4292734506756162,1.2,352.0,24.15504,0.1,68900.0,0.33,276.0,2700.0,10.743098229754583,0.107414227136727,290.0184132691631,5.552322249962469,1.0260558455986994,5.1907759797921145,0.9186416184619725,8620,158,2850,4339,488.3113641746928,281.3516843760649,0.0031436747319498,True
0.03,0.3390253140326251,1.2,353.0,24.15504,0.08,68900.0,0.33,276.0,2700.0,7.530588412337528,0.1129022775172981,304.83614929670506,4.000546207235039,0.5965310341664578,3.5300422051024896,0.4836287566491596,9670,162,3182,4891,290.42594622293683,166.09333989965342,0.0013996815962422,True
0.04,0.4230267679554929,1.2,354.0,24.15504,0.1,68900.0,0.33,276.0,2700.0,10.169879203269364,0.2032635427788337,548.8115655028511,5.438319398352434,0.9917288304780792,4.73155980491693,0.7884652876992454,8643,156,2836,4383,284.37121541311086,162.82833083371804,0.0015127561056908,True
0.05,0.4367427536696694,1.2,355.0,24.15504,0.08,68900.0,0.33,276.0,2700.0,10.485448690346814,0.2618744178708719,707.0609282513541,5.689925506408289,1.0680408502439138,4.795523183938525,0.806166432373042,13153,196,4324,6661,226.06077977407028,129.57077567538872,0.0012713444883984,False
0.06,0.4676734521391326,1.2,356.0,24.15504,0.1,68900.0,0.33,276.0,2700.0,11.436958554987871,0.342656367307519,925.1721917303014,6.274671957011181,1.2530155518618342,5.16228659797669,0.9103591845543152,9553,166,3138,4840,201.82909482880032,115.7086327845788,0.001189600707535,False
0.0699999999999999,0.6880735287481452,1.2,357.0,24.15504,0.2,68900.0,0.33,276.0,2700.0,20.598145059867186,0.7202166995752314,1944.5850888531247,11.137439792882494,3.149407927460392,9.460705266984688,2.429191227885161,4373,118,1442,2204,234.85161645503229,134.16489380013303,0.0020680380480774,False
0.08,0.5964993719538463,1.2,358.0,24.15504,0.2,68900.0,0.33,276.0,2700.0,16.215422823149208,0.6475445826335432,1748.3703731105666,8.968758494689636,2.2304121884793897,7.2466643284595715,1.5828676058458466,3552,104,1166,1797,177.26271785986498,102.304897644711,0.0013707953810561,False
0.09,0.4289811994720549,1.2,359.0,24.15504,0.2,68900.0,0.33,276.0,2700.0,9.546804487546565,0.4280793879099502,1155.8143473568657,5.546966755897061,1.0244339553656598,3.999837731649502,0.5963545674557096,2142,76,702,1083,121.97215902899651,70.4184158820425,0.0006972553861318,False
0.0999999999999999,0.472668371193487,1.2,360.0,24.15504,0.2,68900.0,0.33,276.0,2700.0,10.926448560819756,0.544228032938595,1469.4156889342066,6.371356138779142,1.2845982342085307,4.555092422040613,0.7403702012699357,2296,80,756,1156,116.87419803064354,67.47717981510263,0.0007234095494183,False
0.11,0.6456658007305078,1.2,361.0,24.15504,0.3,68900.0,0.33,276.0,2700.0,17.751520747504426,0.9735460012314586,2628.5742033249385,10.106928393758812,2.699104966103486,7.644592353745613,1.725558964872027,1749,74,572,885,147.2752059252045,84.72392855436814,0.0011616997781479,False
0.12,0.7164395637193427,1.2,362.0,24.15504,0.3,68900.0,0.33,276.0,2700.0,20.819375709099926,1.2455434278090602,3362.9672550844625,11.851964737901952,3.4754192509741424,8.967410971197975,2.229875823165082,2052,80,670,1041,156.3505832481592,88.33625777111457,0.0018150259151419,False
0.13,0.6887032768021514,1.2,363.0,24.15504,0.3,68900.0,0.33,276.0,2700.0,19.288191209541203,1.249131042580221,3372.653814966596,11.153083307589805,3.1564266337099727,8.1351079019514,1.907295591129752,1857,76,606,942,131.3559430051999,75.38514119906782,0.0011061156620164,False
0.14,0.703918214335925,1.2,364.0,24.15504,0.3,68900.0,0.33,276.0,2700.0,19.78206182673028,1.3789973077101536,3723.292730817415,11.534065650043548,3.3290110339957617,8.247996176686733,1.950013726285608,1858,76,606,943,124.54170232761555,71.38180105806622,0.001066412353993,False
0.15,0.4942767727392694,1.2,365.0,24.15504,0.3,68900.0,0.33,276.0,2700.0,10.882076733292928,0.809087171526393,2184.535363121261,6.796843141727743,1.426848971736854,4.085233591565185,0.617761800210461,1560,64,508,792,84.7982469693378,48.89905257591638,0.0005297613537116,False
0.16,0.6211229572344288,1.2,366.0,24.15504,0.3,68900.0,0.33,276.0,2700.0,15.680011366698444,1.2458222669964727,3363.720120890476,9.5311837334058,2.4581483721581354,6.148827633292644,1.2123261051616627,1536,68,502,777,99.78690937766952,57.24599819867464,0.000718478059449,False
0.17,0.5745100770624376,1.2,367.0,24.15504,0.3,68900.0,0.33,276.0,2700.0,13.585532469978626,1.144480496810126,3090.09734138734,8.479383194452751,2.038598290604566,5.106149275525874,0.8941177937944402,1589,68,520,803,87.63024642772588,50.41086769191352,0.0005813109443547,False
0.18,0.7003285714591171,1.2,368.0,24.15504,0.3,68900.0,0.33,276.0,2700.0,18.76908359883233,1.677003011657754,4527.908131475936,11.443656517179342,3.2877702225194763,7.325427081652993,1.610767210861722,1711,74,562,862,97.11050926378007,55.18719512062625,0.0008023122032762,False
0.19,0.7591270887070425,1.2,369.0,24.15504,0.3,68900.0,0.33,276.0,2700.0,21.32679077868814,2.01167966796806,5431.535103513762,12.96535526939088,4.004951319768627,8.361435509297259,1.9932716518005669,1876,78,616,946,97.71947391036842,55.3628393895896,0.0008867866778707,False
0.2,0.7689272048738147,1.2,370.0,24.15504,0.3,68900.0,0.33,276.0,2700.0,21.584499021150965,2.141694741295905,5782.575801498943,13.22742918153133,4.133295513645749,8.357069839619635,1.9916007723498448,2015,82,662,1016,93.0849060685406,52.66050230789961,0.0008574232441874,False
0.21,0.5959403431989765,1.2,371.0,24.15504,0.3,68900.0,0.33,276.0,2700.0,13.737848561426174,1.423077905906484,3842.310345947507,8.95616667287531,2.225401914546509,4.781681888550864,0.802324008640025,1600,68,528,802,73.27961175973341,41.969899539690665,0.0005038997980985,False
0.22,0.821870783787918,1.2,372.0,24.15504,0.3,68900.0,0.33,276.0,2700.0,23.775132954239925,2.592963505916112,7001.001465973501,14.6849859993626,4.87187627903494,9.090146954877325,2.278912773118828,2439,88,800,1233,93.34232822196743,53.80191234394911,0.0009341487293493,False
0.23,0.8011940729264999,1.2,373.0,24.15504,0.3,68900.0,0.33,276.0,2700.0,22.51400382728004,2.5636279349263837,6921.795424301235,14.10736436379814,4.574229241411024,8.4066394634819,2.010601306484641,2002,82,660,1006,83.2226978579995,47.17347501958496,0.0007903905052421,False
0.24,0.8762495663131113,1.2,374.0,24.15504,0.3,68900.0,0.33,276.0,2700.0,26.139637918405285,3.107803632313153,8391.069807245512,16.255392601973853,5.712789558049311,9.884245316431432,2.6049859257361576,2468,92,812,1244,85.39732408604331,47.94946082792053,0.0008966208475855,False
0.25,0.696701088746073,1.2,375.0,24.15504,0.3,68900.0,0.33,276.0,2700.0,17.228187194293834,2.1207984758118377,5726.155884691962,11.352623333677808,3.2464237669502727,5.875563860616028,1.125625291138435,1676,72,550,845,69.99247945861411,39.90306134232514,0.0005431656947129,False
0.26,0.6430504610238716,1.2,376.0,24.15504,0.2,68900.0,0.33,276.0,2700.0,14.776821649369694,1.8841757260983985,5087.274460465676,10.044855114249255,2.672753123785954,4.731966535120439,0.7885773976875559,3275,98,1094,1628,63.86257230177709,36.53987534969295,0.0004640525261796,False
0.27,0.7802605805430314,1.2,377.0,24.15504,0.3,68900.0,0.33,276.0,2700.0,20.65264324599904,2.746882859409467,7416.583720405561,13.533515214206492,4.2849383828428245,7.119128031792549,1.5380555234333575,1919,80,634,962,69.96060300548166,39.73922722117903,0.0006187892868602,False
0.28,0.688542909263014,1.2,378.0,24.15504,0.3,68900.0,0.33,276.0,2700.0,16.326858751360273,2.239784063902704,6047.4169725373,11.1490986860761,3.154638360696752,5.177760065284172,0.914854296794048,1583,70,522,794,61.91192179593652,35.276134862632986,0.0004781292973823,False
0.29,0.6711013325406748,1.2,379.0,24.15504,0.3,68900.0,0.33,276.0,2700.0,15.418142841376076,2.184550509847252,5898.286376587581,10.71958911850743,2.9639372752205797,4.698553722868645,0.7793867653733271,1537,66,510,766,58.7368193245103,33.4915637805218,0.0004443227864613,False
0.3,0.8428914022531924,1.2,380.0,24.15504,0.3,68900.0,0.33,276.0,2700.0,23.08023411219013,3.405486449063906,9194.813412472546,15.283229458252384,5.186832037264225,7.797004653937746,1.7813455882003195,2208,84,732,1104,67.71705179867485,38.4137354041918,0.0006369320867572,False
0.31,0.8693577200360494,1.2,381.0,24.15504,0.3,68900.0,0.33,276.0,2700.0,24.20148731769546,3.688836409747268,9959.858306317625,16.052250122955556,5.601460590023638,8.149237194739904,1.91262418027637,2271,86,752,1137,66.30209792980533,37.33887897433088,0.0006495171319418,False
0.32,1.018974858139606,1.2,382.0,24.15504,0.3,68900.0,0.33,276.0,2700.0,32.14032054439764,5.073822148388403,13699.319800648687,20.730674704232943,8.346123966205543,11.409645840164696,3.27230181781714,2967,102,986,1482,70.69052268086104,39.69813759716965,0.0008480434752469,False
0.33,1.017706460314441,1.2,383.0,24.15504,0.3,68900.0,0.33,276.0,2700.0,31.816974303328795,5.174534483254546,13971.243104787274,20.688648226323927,8.319855880916982,11.128326077004868,3.1453213976624363,2966,102,986,1481,68.60470506623716,38.578062812180384,0.0008154397028904,False
0.34,0.8481983456750466,1.2,384.0,24.15504,0.2,68900.0,0.33,276.0,2700.0,22.51320596342855,3.7449269086783934,10111.302653431663,15.4360199833902,5.268344383604192,7.077185980038349,1.5234174749257976,4879,120,1530,2506,63.09150685460949,36.07814017968127,0.0005520522518213,False
0.3500000000000001,0.8711002543599098,1.2,385.0,24.15504,0.3,68900.0,0.33,276.0,2700.0,23.444844341335237,4.013050569718502,10835.236538239957,16.103499908538005,5.629476828011614,7.341344432797229,1.616426258293112,2124,84,708,1056,59.267845752702335,33.31262366399076,0.0005623314921247,False
0.36,1.0015749631143738,1.2,386.0,24.15504,0.3,68900.0,0.33,276.0,2700.0,30.167593279008443,5.332450692324267,14397.61686927552,20.157682236485545,7.990408440068146,10.009911042522898,2.657957747743879,2779,98,920,1393,63.246757871228645,35.66778169266798,0.0007133832876823,False
0.37,0.7089034533013565,1.2,387.0,24.15504,0.3,68900.0,0.33,276.0,2700.0,15.658750856444565,2.7907815133207228,7535.110085965952,11.66016160173731,3.3868251572425168,3.9985892547072552,0.596043643921794,1469,66,488,731,48.54641914806749,27.633230268312293,0.0003890627468887,False
0.38,1.0699150689630794,1.2,388.0,24.15504,0.3,68900.0,0.33,276.0,2700.0,33.63513677846424,6.2757523398496895,16944.531317594163,22.451923408253865,9.445712444441964,11.183213370210378,3.169960104592275,3066,104,1020,1530,61.933598305934254,34.84053245516522,0.0007558410449009,False
0.39,1.014384470784002,1.2,389.0,24.15504,0.3,68900.0,0.33,276.0,2700.0,30.1855932363697,5.761953258013228,15557.273796635714,20.57877066491858,8.251310990945443,9.606822571451122,2.4893577329322154,2942,100,976,1472,60.1625723392154,34.24306014675654,0.0006620076173118,False
0.4,0.8296150367809401,1.2,390.0,24.15504,0.3,68900.0,0.33,276.0,2700.0,20.462678715272386,3.958494456501312,10687.935032553542,14.904094189984358,4.986447967702524,5.558584525288024,1.027953511201213,1983,78,660,985,50.90021764203001,28.851963978622063,0.0004541742494004,False
0.4100000000000001,0.897160074640923,1.2,391.0,24.15504,0.3,68900.0,0.33,276.0,2700.0,23.53446510727109,4.680217542138533,12636.58736377404,16.879051548385867,6.0591994439439,6.655413558885222,1.3789819018053668,2149,84,716,1069,52.40398177418191,29.58279288569425,0.0004965114675986,False
0.42,0.7548803280796561,1.2,392.0,24.15504,0.3,68900.0,0.33,276.0,2700.0,16.786730108415963,3.370043778421247,9099.118201737369,12.85253837172872,3.950130273080241,3.934191736687243,0.5800864946589943,1588,68,528,790,44.97897565435989,25.52328881285531,0.0003800767456877,False
0.43,0.7549019013457596,1.2,393.0,24.15504,0.3,68900.0,0.33,276.0,2700.0,16.629334685563173,3.4087878859901077,9203.72729217329,12.85311032874836,3.950407550480109,3.776224356814812,0.541619664490002,1483,66,498,730,45.0051923783743,25.531759749944527,0.0003711502643444,False
0.44,0.9519005136665318,1.2,394.0,24.15504,0.3,68900.0,0.33,276.0,2700.0,25.71629005614862,5.4791748599504375,14793.77212186618,18.563732516502057,7.028932679095057,7.152557539646562,1.5497578191446193,2193,86,732,1089,50.67086962618656,28.59442797501184,0.0005094382245409,False
0.45,1.1147932061301866,1.2,395.0,24.15504,0.3,68900.0,0.33,276.0,2700.0,34.588504676450235,7.591561798495726,20497.21685593846,24.022374410430476,10.488363095134796,10.566130266019762,2.8968012966390715,3104,104,1028,1550,54.65730348188413,31.547230637843267,0.0006648690752908,False
0.46,0.8691248419773339,1.2,396.0,24.15504,0.3,68900.0,0.33,276.0,2700.0,21.233533873494245,4.679852749217133,12635.60242288626,16.04540671276891,5.597723170043324,5.188127160725337,0.9178704208261904,2217,80,668,1159,46.6122158290766,26.39789615686584,0.0004329397684729,False
0.4700000000000001,0.90820973500852,1.2,397.0,24.15504,0.3,68900.0,0.33,276.0,2700.0,22.930162785796984,5.171141871946523,13962.083054255614,17.21304707423958,6.247549673877571,5.717115711557405,1.0764078019310477,2310,84,724,1184,47.07013278691716,26.5545064909666,0.0004520562292969,False
0.4800000000000001,1.045361716347996,1.2,398.0,24.15504,0.3,68900.0,0.33,276.0,2700.0,29.893498771973903,6.94281636210987,18745.60417769665,21.614134181452428,8.904758721356751,8.279364590521478,1.9619423592468817,2707,94,892,1353,49.71427324387759,28.03116901373579,0.0005435088215192,False
0.49,1.059069264047392,1.2,399.0,24.15504,0.3,68900.0,0.33,276.0,2700.0,30.4401560282239,7.2114347375134,19470.87379128618,22.07998357253404,9.204222928669678,8.36017245568986,1.9927881911562773,2781,96,912,1389,49.52310711712139,28.246218651402277,0.0005424885399175,False
0.5,1.140733660089198,1.2,400.0,24.15504,0.3,68900.0,0.33,276.0,2700.0,34.943222554303894,8.474006250776824,22879.816877097423,24.95321151498857,11.123551002292482,9.990011039315323,2.6495447515156574,3319,104,1022,1716,52.11564054846736,29.98238498988437,0.0006117559757247,False
0.02,0.4892388562650904,1.2,402.0,27.17442,0.1,68900.0,0.33,276.0,2700.0,13.00149866698471,0.1299982315090282,350.9952250743761,6.696593418791085,1.392859836366663,6.304905248193625,1.262861604857635,10533,178,3494,5286,620.7349549174518,356.56521348463104,0.0044440034916952,True
0.03,0.5645041579049191,1.2,403.0,27.17442,0.1,68900.0,0.33,276.0,2700.0,15.880934692248914,0.2381574717159696,643.025173633118,8.260722868724628,1.9548503147427672,7.620211823524286,1.7166928430267976,12637,200,4166,6382,559.1616406398958,318.90149100472644,0.0038178959620319,True
0.04,0.4852685408869458,1.2,404.0,27.17442,0.1,68900.0,0.33,276.0,2700.0,12.466742911901292,0.2492008169514727,672.8422057689766,6.618037380122456,1.3664283257381955,5.848705531778836,1.1172275087867227,9950,172,3268,5042,353.6821824338288,201.95234121974056,0.0021656848956854,True
0.05,0.3632993412051686,1.2,405.0,27.17442,0.1,68900.0,0.33,276.0,2700.0,7.993494711610963,0.1995755684024749,538.8540346866823,4.397802660029754,0.6984319524504907,3.595692051581209,0.4988563840480158,6522,132,2136,3312,197.47553884815304,113.15882588426948,0.0010794100412983,False
0.06,0.3832697113275152,1.2,406.0,27.17442,0.1,68900.0,0.33,276.0,2700.0,8.486354471390083,0.2541382447995856,686.1732609588811,4.73573099391566,0.7896152954445063,3.750623477474423,0.5354770506449207,7489,142,2458,3796,175.10373674805112,100.60509323998302,0.0009790850873406,False
0.0699999999999999,0.7471002724185644,1.2,407.0,27.17442,0.2,68900.0,0.33,276.0,2700.0,23.513488007457923,0.8222537027409054,2220.0849974004445,12.64703390227635,3.8509372135621054,10.866454105181573,3.028683510821201,5085,128,1670,2574,294.2047320643314,168.0642052833906,0.0027470509242159,True
0.08,0.6214221811674628,1.2,408.0,27.17442,0.2,68900.0,0.33,276.0,2700.0,17.304019544186392,0.6910884514750314,1865.9388189825847,9.538111995794573,2.461001366936165,7.765907548391821,1.7699129154611335,3584,106,1180,1808,216.28786937894856,123.90924385959062,0.0016686381728283,False
0.09,0.7691056059283552,1.2,409.0,27.17442,0.3,68900.0,0.33,276.0,2700.0,24.147972370273465,1.0851319426326596,2929.8562451081807,13.232222338447205,4.13565572850082,10.915750031826262,3.05052378586816,2347,90,770,1186,235.0354425015917,134.78310698141703,0.0022880778072626,False
0.0999999999999999,0.7756305032756579,1.2,410.0,27.17442,0.3,68900.0,0.33,276.0,2700.0,24.23846625216355,1.2098289175057868,3266.5380772656245,13.40807842783714,4.222567760593488,10.830387824326412,3.0127388430877016,2441,90,798,1238,213.4665172573895,122.3129745147158,0.0020825618659452,False
0.11,0.7920333433406799,1.2,411.0,27.17442,0.3,68900.0,0.33,276.0,2700.0,24.842788693772818,1.3635657382762223,3681.6274933458008,13.854886333391777,4.446153542872035,10.98790236038104,3.0825878045958124,2355,90,770,1194,196.92954954277133,112.03737659175113,0.001972596303519,False
0.12,0.4236161416764292,1.2,412.0,27.17442,0.3,68900.0,0.33,276.0,2700.0,8.896648174832256,0.5301797757530005,1431.4853945331013,5.44903365325338,0.9949371899388892,3.447614521578876,0.4647574141858888,1687,66,554,850,103.01315072761328,59.46920943322262,0.0005913038260376,False
0.13,0.7913515721410889,1.2,413.0,27.17442,0.3,68900.0,0.33,276.0,2700.0,24.31900714708644,1.5761340785206623,4255.562012005788,13.836180424243384,4.436714057635084,10.482826722843058,2.860579979114421,2239,88,736,1129,167.21070417014226,95.06352712184776,0.0016450095906358,False
0.14,0.7047208341079587,1.2,414.0,27.17442,0.3,68900.0,0.33,276.0,2700.0,19.819756079084325,1.3816359053749356,3730.416944512326,11.55432481867306,3.338276632260172,8.265431260411265,1.9566407268852368,1858,76,606,943,140.25426796396934,80.38480714014156,0.001202448780932,False
0.15,0.760575772676332,1.2,415.0,27.17442,0.3,68900.0,0.33,276.0,2700.0,22.29235451831133,1.6648580054027713,4495.116614587482,13.003943823353294,4.023761967045643,9.288410694958037,2.358903961642872,2161,82,702,1102,140.70007419060468,80.0734607124951,0.0012973967988013,False
0.16,0.6545898899392695,1.2,416.0,27.17442,0.3,68900.0,0.33,276.0,2700.0,17.1231244810436,1.3612713161440857,3675.432553589031,10.320029551329553,2.790249475081196,6.803094929714048,1.4289781589371104,1652,72,540,836,117.38403635669545,67.13774958187635,0.0008973111803187,False
0.17,0.4915413911266958,1.2,417.0,27.17442,0.3,68900.0,0.33,276.0,2700.0,10.4659202984303,0.8793134622285179,2374.146348016998,6.742332515013253,1.4083316085323707,3.723587783417047,0.5290181463038528,1389,60,456,699,84.07125229397744,48.401160729745406,0.0005261659788483,False
0.18,0.5840888559150033,1.2,418.0,27.17442,0.3,68900.0,0.33,276.0,2700.0,13.789759851105469,1.2288638743623357,3317.9324607783064,8.691066601101607,2.1208324205743074,5.098693250003862,0.8919685462119717,1573,68,516,793,93.76091337367257,53.68829168486528,0.0006348394447893,False
0.19,0.8483762130832682,1.2,419.0,27.17442,0.3,68900.0,0.33,276.0,2700.0,25.852202295613846,2.441593762075998,6592.303157605194,15.44115316689828,5.271090404973132,10.411049128715566,2.8294966428971344,2422,90,792,1228,120.37619259459828,68.28868385499004,0.0012413040151969,False
0.2,0.5662925416608968,1.2,420.0,27.17442,0.3,68900.0,0.33,276.0,2700.0,12.747433401732543,1.25798817935411,3396.568084256097,8.299619916372293,1.969658426778356,4.447813485360252,0.7116702474242458,1618,68,532,814,84.87436803169739,48.76696034765431,0.0005513324933839,False
0.21,0.6419596653474149,1.2,421.0,27.17442,0.3,68900.0,0.33,276.0,2700.0,15.620664224285893,1.6207735505067558,4376.088586368241,10.019016634388333,2.6618103342260024,5.601647589897562,1.041036783719247,1620,70,526,825,87.61740354459685,49.97841791249808,0.0006348494573574,False
0.22,0.7062343681423358,1.2,422.0,27.17442,0.3,68900.0,0.33,276.0,2700.0,18.22968306352096,1.982964017937024,5354.002848429965,11.592572441789054,3.3557934333954926,6.637110621731905,1.3728294154584686,1745,74,574,878,90.2072972264286,51.217452055296384,0.0007286404607829,False
0.23,0.7650330283051883,1.2,423.0,27.17442,0.3,68900.0,0.33,276.0,2700.0,20.754309953010274,2.361263139385363,6375.41047634048,13.12300241630508,4.081989020676724,7.6313075367051955,1.7207258812913606,2022,80,662,1023,91.0646956664409,51.5976751742803,0.0008102160449275,False
0.24,0.6672740322453867,1.2,424.0,27.17442,0.3,68900.0,0.33,276.0,2700.0,16.14208828805301,1.9080976766708768,5151.863727011368,10.626362424294832,2.923088709317505,5.515725863758178,1.0149910326466285,1502,68,494,755,82.21385030693403,46.97542658000652,0.0005926237138441,False
0.25,0.5831385469476658,1.2,425.0,27.17442,0.3,68900.0,0.33,276.0,2700.0,12.576399994789725,1.5393250758738224,4156.17770485932,8.669962486888888,2.11258325155948,3.906437507900837,0.5732581756856574,1451,64,478,728,68.79849021688752,39.48729920372191,0.000470165499398,False
0.26,0.7829055617774099,1.2,426.0,27.17442,0.3,68900.0,0.33,276.0,2700.0,20.98405474429372,2.6911160284385227,7266.013276784011,13.605414129089418,4.320829323505015,7.378640615204301,1.629713295066492,1933,80,638,970,164.52024493925606,91.70275273709348,0.0007536207626293,False
0.27,0.6757910023676514,1.2,427.0,27.17442,0.3,68900.0,0.33,276.0,2700.0,15.963173931598591,2.1138045019654044,5707.272155306592,10.834323628941316,3.0144774263373217,5.128850302657275,0.9006729243719174,1584,70,522,795,71.77022277032769,40.933027571835886,0.0005407378998406,False
0.28,0.5966578194415966,1.2,428.0,27.17442,0.2,68900.0,0.33,276.0,2700.0,12.619929886366986,1.7208140228036428,4646.197861569835,8.972328867643162,2.231833548581093,3.647601018723824,0.5110195257774501,2683,86,888,1343,61.72262812716233,35.311795051851185,0.0004408644529647,False
0.29,0.820387230562145,1.2,429.0,27.17442,0.3,68900.0,0.33,276.0,2700.0,22.17726279564422,3.1646229032161446,8544.48183868359,14.643183853031733,4.850121335378283,7.53407894261249,1.6854984321621385,2215,84,734,1108,76.6285886075229,43.35556563765883,0.0007075136345103,False
0.3,0.9820962070258266,1.2,430.0,27.17442,0.3,68900.0,0.33,276.0,2700.0,30.514712226342176,4.520658166186712,12205.777048704122,19.52525826575014,7.6039367595860625,10.989453960592035,3.083278593399351,2864,100,948,1436,82.4793097767875,46.51134691596386,0.0009627954427982,False
0.31,0.9488998729569648,1.2,431.0,27.17442,0.3,68900.0,0.33,276.0,2700.0,28.41613110068472,4.342106196110656,11723.686729498771,18.469434428101454,6.973371121511385,9.94669667258326,2.631264925400729,2541,94,836,1281,78.53059547878006,44.41584780481308,0.0008675229389111,False
0.32,0.9326350078126991,1.2,432.0,27.17442,0.3,68900.0,0.33,276.0,2700.0,27.297822835655523,4.299022514989667,11607.3607904721,17.962232711303102,6.677102056777531,9.335590124352422,2.378079541787864,2556,92,844,1284,74.8531571827209,42.30910421628991,0.0008044197016812,False
0.33,0.8538459180284563,1.2,433.0,27.17442,0.3,68900.0,0.33,276.0,2700.0,22.9974949398386,3.719320388278664,10042.165048352394,15.599394884445095,5.355981381833454,7.398100055393499,1.6366609935547896,2069,82,690,1028,69.37903584234849,39.13297948630501,0.0006548262474794,False
0.34,0.6859117929798118,1.2,434.0,27.17442,0.3,68900.0,0.33,276.0,2700.0,15.195558295024007,2.50092680504962,6752.502373633973,11.083816140443613,3.125389706733812,4.111742154580396,0.6244629016841925,1495,66,494,748,58.17585198546193,33.02088949432939,0.0004488751696458,False
0.3500000000000001,0.671103743362166,1.2,435.0,27.17442,0.3,68900.0,0.33,276.0,2700.0,14.436401635696424,2.436573096231778,6578.747359825802,10.71964795814691,2.9639631183073223,3.716753677549514,0.5273900220755436,1460,64,486,725,55.73506767000679,31.808965642661708,0.0004257623198284,False
0.36,0.9481202202273752,1.2,436.0,27.17442,0.3,68900.0,0.33,276.0,2700.0,27.22581614654834,4.802930808481445,12967.913182899902,18.4449701105787,6.958980914373577,8.780846035969638,2.156050105892132,2555,92,846,1280,68.24490561093441,38.43137835547541,0.0007221937602153,False
0.37,1.0521582464326755,1.2,437.0,27.17442,0.3,68900.0,0.33,276.0,2700.0,32.83550851352297,5.968481679880226,16114.900535676608,21.84452320016455,9.052442099986497,10.99098531335842,3.083960420106271,3050,104,1016,1520,70.77760178550132,40.17216670578511,0.0008517273061426,False
0.38,0.7298540861550071,1.2,438.0,27.17442,0.3,68900.0,0.33,276.0,2700.0,16.372847072808042,2.995917295774985,8088.976698592459,12.196912265674952,3.636716295298137,4.175934807133091,0.640798999523152,1555,68,518,772,54.28173632744871,30.55644115599973,0.0004424355388849,False
0.39,1.0594109112399024,1.2,439.0,27.17442,0.3,68900.0,0.33,276.0,2700.0,32.770022592680306,6.265916982493797,16917.975852733252,22.091654728977428,9.211768486693307,10.678367863702878,2.945851504199512,3150,104,1046,1575,68.61255742904318,38.49960585994971,0.0008095434640196,False
0.4,0.8915729861574063,1.2,440.0,27.17442,0.2,68900.0,0.33,276.0,2700.0,23.454301041426792,4.556818921732194,12303.411088676923,16.71133997480972,5.965363564396924,6.74296106661707,1.4085446426647297,6334,122,1584,3558,64.27505936263982,36.44947255320452,0.0005780329863434,False
0.4100000000000001,0.9070167268449488,1.2,441.0,27.17442,0.3,68900.0,0.33,276.0,2700.0,24.02847193567938,4.781488941962236,12910.020143298036,17.176838523881187,6.227035970302371,6.851633411798193,1.445547028340135,2161,84,720,1075,60.99836062719698,34.58472078496482,0.0005676028524938,False
0.42,0.8341783456931222,1.2,442.0,27.17442,0.3,68900.0,0.33,276.0,2700.0,20.312422572547348,4.110439195888838,11098.185828899865,15.033909680686628,5.054755948619824,5.278512891860721,0.9443167527309856,2024,78,652,1022,55.14161983122338,31.358355883185222,0.000495493840688,False
0.43,0.8887570585087645,1.2,443.0,27.17442,0.3,68900.0,0.33,276.0,2700.0,22.73075008354416,4.7205921965560185,12745.59893070125,16.627109638566907,5.918424280147578,6.103640444977252,1.1978320835915597,2089,82,692,1041,55.5990117950883,31.184589724995057,0.0005282122561401,False
0.44,1.1185469495454692,1.2,444.0,27.17442,0.3,68900.0,0.33,276.0,2700.0,35.05803245983588,7.534358188761633,20342.767109656408,24.156025703265065,10.578787660449914,10.902006756570817,3.0444294716882805,3175,106,1060,1579,63.11083824990048,35.615188216319176,0.0007755258363439,False
0.45,0.762663831636151,1.2,445.0,27.17442,0.3,68900.0,0.33,276.0,2700.0,16.64555764250302,3.5543987158576003,9596.87653281552,13.059656192614328,4.050973114747684,3.585901449888695,0.4965743988900839,1514,66,494,757,47.64578971756136,27.06827248564852,0.0004106887633214,False
0.46,0.9029091314541192,1.2,446.0,27.17442,0.3,68900.0,0.33,276.0,2700.0,22.857026251247383,5.053255996100354,13643.791189470956,17.052444016799196,6.156736093856144,5.804582234448187,1.1034800977557897,2175,82,698,1102,54.042641140954615,30.168225926902807,0.000511274050266,False
0.4700000000000001,0.9374603059320888,1.2,447.0,27.17442,0.3,68900.0,0.33,276.0,2700.0,24.382570748287616,5.512457743131823,14883.635906455922,18.112010607491268,6.76413631069487,6.2705601407963485,1.2516785675630473,2166,84,716,1078,53.60112133009707,30.29568008582754,0.0005279210897993,False
0.4800000000000001,0.9718261205305644,1.2,448.0,27.17442,0.3,68900.0,0.33,276.0,2700.0,25.94365271867502,5.994853309318137,16186.103935158972,19.195654890615995,7.405105464660447,6.747997828059024,1.4102521553423095,2638,90,830,1347,53.978549391801,30.51830666731654,0.0005512667910878,False
0.49,1.0536125009234092,1.2,449.0,27.17442,0.3,68900.0,0.33,276.0,2700.0,30.13532985931407,7.136752326130489,19269.23128055232,21.89397035127146,9.084245543877657,8.24135950804261,1.9474932177471656,2899,96,934,1466,55.4884626637746,31.695035264105776,0.0006073550508576,False
0.5,0.936686135229889,1.2,450.0,27.17442,0.3,68900.0,0.33,276.0,2700.0,23.776818013340627,5.6824051155360085,15342.493811947224,18.087940834344565,6.750123840752993,5.688877178996062,1.0677187252169844,2446,84,724,1288,55.05768144510648,31.06951329886603,0.0005054168337158,False
0.02,0.6023490872802201,1.2,452.0,30.1938,0.1,68900.0,0.33,276.0,2700.0,17.753439003449046,0.177517634873669,479.2976141589064,9.100991288687483,2.283263215365076,8.65244771476156,2.1057455804914067,14142,214,4686,7107,882.6815809022809,503.1299060590832,0.0072302286696756,True
0.03,0.6960373229282095,1.2,453.0,30.1938,0.1,68900.0,0.33,276.0,2700.0,21.932318582760672,0.3289282300736429,888.106221198836,11.33600164897337,3.238893800703866,10.596316933787302,2.9099655706302228,17130,240,5654,8643,755.9217131596565,430.287653441103,0.0062833027941998,True
0.04,0.3502419609034548,1.2,454.0,30.1938,0.1,68900.0,0.33,276.0,2700.0,7.730955088358699,0.1544850604806208,417.1096632976764,4.18227170647668,0.6424199680253826,3.548683381882019,0.4879349075447617,6414,130,2098,3261,267.1943155299364,152.67781309319142,0.0014023009626368,False
0.05,0.4134023036888553,1.2,455.0,30.1938,0.1,68900.0,0.33,276.0,2700.0,9.664110312982269,0.2413409584367573,651.6205877792449,5.264591080487772,0.9402258079408848,4.399519232494496,0.6988848495041273,7814,148,2570,3953,259.92351708842915,148.8257197135882,0.0014482609150094,False
0.06,0.6422057293427509,1.2,456.0,30.1938,0.2,68900.0,0.33,276.0,2700.0,18.67411161001073,0.5597709589582048,1511.381589187153,10.024842721293137,2.6642763702523045,8.649268888717593,2.1045054112941,4120,114,1362,2071,312.0516030299049,179.9246911553086,0.0026533709013441,True
0.0699999999999999,0.635957807318848,1.2,457.0,30.1938,0.2,68900.0,0.33,276.0,2700.0,18.169714531614854,0.6352216310863965,1715.098403933271,9.877381145834258,2.6021031096573557,8.2923333857806,1.9668814785709587,3833,108,1256,1943,272.89637156099803,156.26236267787465,0.0022245419280267,False
0.08,0.6529465561236358,1.2,458.0,30.1938,0.2,68900.0,0.33,276.0,2700.0,18.72568705347234,0.7479551518464681,2019.478909985464,10.280637508764366,2.773322597973684,8.445049544707972,2.025367446127216,4046,112,1332,2042,258.0935984066312,147.84554919507124,0.0020393479695846,False
0.09,0.6980445473194762,1.2,459.0,30.1938,0.3,68900.0,0.33,276.0,2700.0,20.61686286933025,0.9262320150900188,2500.826440743051,11.38629942408988,3.2616981622363403,9.230563445240376,2.3354661471463216,2052,80,672,1038,241.0098591051153,138.33152842498458,0.0020897539513739,False
0.0999999999999999,0.5457388416402156,1.2,460.0,30.1938,0.2,68900.0,0.33,276.0,2700.0,13.714944531250335,0.6836528314601238,1845.8626449423343,7.857427185254349,1.803633062747663,5.857517345995986,1.119980231287539,3037,94,994,1540,167.05545110516476,96.3887125988182,0.0011515148575993,False
0.11,0.502312042503158,1.2,461.0,30.1938,0.3,68900.0,0.33,276.0,2700.0,11.850094749441736,0.6489675713380102,1752.2124426126277,6.958057384694394,1.4821100533137552,4.892037364747342,0.833142481975745,1730,68,562,881,145.10143032966812,83.72879256034668,0.0009048018189348,False
0.12,0.7656297763504052,1.2,462.0,30.1938,0.3,68900.0,0.33,276.0,2700.0,23.24505237763273,1.391084027921028,3755.926875386776,13.138980165270883,4.089824913616187,10.106072212361848,2.698740885695159,2195,86,716,1115,195.35053122490632,111.82074496794483,0.0018649910137491,False
0.13,0.7440096618846423,1.2,463.0,30.1938,0.3,68900.0,0.33,276.0,2700.0,21.93296421989517,1.4210412882531749,3836.811478283571,12.565819881964051,3.811975719643169,9.36714433793112,2.3909344313899936,2173,82,706,1108,175.89922624886646,100.5016844237022,0.0016120904416576,False
0.14,0.4615568591121924,1.2,464.0,30.1938,0.1,68900.0,0.33,276.0,2700.0,9.88095956675671,0.6859201495120032,1851.9844036824088,6.157130154329193,1.214995894086434,3.723829412427517,0.5290757445744309,8312,152,2756,4172,102.73469148148617,59.25066573240956,0.000639336199794,False
0.15,0.5681694356631699,1.2,465.0,30.1938,0.3,68900.0,0.33,276.0,2700.0,13.690878664213914,1.0197473163453763,2753.3177541325167,8.340528495385675,1.9852743103061896,5.350350168828239,0.9655269939608132,1700,70,556,860,122.585137271878,70.43285231122206,0.000807062241863,False
0.16,0.5189503150569126,1.2,466.0,30.1938,0.3,68900.0,0.33,276.0,2700.0,11.622575061478178,0.9212273625788524,2487.313878962902,7.297035294675512,1.6006904651520235,4.325539766802667,0.679463102573171,1749,68,574,882,103.422274497286,59.600401279820645,0.0006651014413313,False
0.17,0.5912750616949244,1.2,467.0,30.1938,0.3,68900.0,0.33,276.0,2700.0,14.257916570862523,1.2016331453852571,3244.4094925401946,8.851389996634794,2.1838634948283144,5.40652657422773,0.9822303494430572,1691,70,552,857,113.40760205624665,65.12804505042615,0.0007604606990172,False
0.18,0.6902202174219928,1.2,468.0,30.1938,0.3,68900.0,0.33,276.0,2700.0,18.30911250892583,1.6356056135661676,4416.135156628653,11.19080641406239,3.173373803361198,7.118306094863439,1.5377681897950302,1699,74,558,856,119.99258060286128,68.23460079014014,0.0009726367747545,False
0.19,0.7096979424409775,1.2,469.0,30.1938,0.3,68900.0,0.33,276.0,2700.0,18.992745339224108,1.789945351218972,4832.852448291224,11.680315005144031,3.3960970337811323,7.3124303340800765,1.6061516825621602,1696,74,558,853,116.77293353683764,66.35533680947267,0.0009706045327392,False
0.2,0.772570178450195,1.2,470.0,30.1938,0.3,68900.0,0.33,276.0,2700.0,21.762258468106303,2.1594706859914843,5830.570852177008,13.325464696228869,4.181661157774919,8.436793771877435,2.0221904717834343,2007,82,660,1011,116.81277122765346,66.06759673900606,0.0010818228677574,False
0.21,0.7949740337830378,1.2,471.0,30.1938,0.3,68900.0,0.33,276.0,2700.0,22.64644930429591,2.358480983907735,6367.898656550885,13.935704579640957,4.487015252154175,8.710744724654955,2.1285342682464403,2282,86,748,1154,113.48981396249584,64.064725635483,0.0010790531731295,False
0.22,0.7108980904484745,1.2,472.0,30.1938,0.3,68900.0,0.33,276.0,2700.0,18.440328779485352,2.0061350466931045,5416.564626071382,11.710788633618357,3.41013342337322,6.729540145866997,1.4039983766801152,1731,74,570,870,102.11770215176944,58.00640254303567,0.0008209118396502,False
0.23,0.5489148523201293,1.2,473.0,30.1938,0.3,68900.0,0.33,276.0,2700.0,11.607707595720823,1.3094038682970763,3535.390444402106,7.925062385597019,1.828695673366776,3.682645210123805,0.5192918050696997,1549,64,508,781,76.82821761510647,44.08545515230586,0.0005185552087258,False
0.24,0.608194118556658,1.2,474.0,30.1938,0.3,68900.0,0.33,276.0,2700.0,13.713679460455117,1.6166886173591295,4365.05926686965,9.233977188589426,2.336847029232365,4.479702271865689,0.720158411873236,1439,64,472,725,82.52834597667403,47.10624811883556,0.0005755208786871,False
0.25,0.6474351307387617,1.2,475.0,30.1938,0.3,68900.0,0.33,276.0,2700.0,15.130527084557686,1.858590962094785,5018.195597655919,10.149019707061864,2.717024682912985,4.981507377495822,0.8584337208182002,1507,68,496,757,83.09423019619594,47.34170850447178,0.0006078118224405,False
0.26,0.818512190636882,1.2,476.0,30.1938,0.3,68900.0,0.33,276.0,2700.0,22.721414326810557,2.9169727741657088,7875.826490247414,14.59042990493761,4.822714252707036,8.130984421872943,1.9057414785413276,2228,84,736,1118,94.12535794113514,53.40484021823224,0.000892868007715,False
0.27,0.8560546227958112,1.2,477.0,30.1938,0.3,68900.0,0.33,276.0,2700.0,24.39830077215193,3.2525466254401016,8781.875888688275,15.663507104116318,5.390506619598311,8.734793668035612,2.137959994158209,2425,88,798,1222,93.00162853611276,52.64890525385098,0.0009294664227636,False
0.28,0.7251459920472108,1.2,478.0,30.1938,0.3,68900.0,0.33,276.0,2700.0,17.921741251241176,2.4630676138860306,6650.282557492283,12.075330949106952,3.579578511238601,5.846410302134224,1.1165108973525704,1782,74,586,897,81.0269674614881,45.85595739119061,0.0006424720249818,False
0.29,0.6681736806772529,1.2,479.0,30.1938,0.3,68900.0,0.33,276.0,2700.0,15.296789323302637,2.1669542497266163,5850.776474261864,10.648243271550507,2.9326585406189,4.648546051752129,0.7657042908922835,1374,64,456,684,72.6523765014588,41.38717897443664,0.000554328641283,False
0.3,0.7821747461028443,1.2,480.0,30.1938,0.3,68900.0,0.33,276.0,2700.0,20.142629357335164,2.964845735835409,8005.083486755606,13.585530679729745,4.31089353998647,6.557098677605419,1.3460478041510604,1974,80,650,993,80.58794038402412,45.830363163555496,0.0006859069541453,False
0.31,0.976101290211961,1.2,481.0,30.1938,0.3,68900.0,0.33,276.0,2700.0,29.930408186626213,4.576819144431671,12357.411689965513,19.332538129115427,7.487462582347918,10.597870057510786,2.910643437916248,2779,98,920,1393,88.66859464719126,50.05642301552461,0.0010145969756469,False
0.32,0.7664623332655817,1.2,482.0,30.1938,0.3,68900.0,0.33,276.0,2700.0,19.032370516875137,2.976550143984802,8036.685388758965,13.161286579324624,4.100773146882137,5.871083937550512,1.124223002897335,1894,78,626,949,74.07126560471309,41.911926388135385,0.0006179601261618,False
0.33,0.6532161310322732,1.2,483.0,30.1938,0.3,68900.0,0.33,276.0,2700.0,14.03687899023046,2.2408187565933173,6050.210642801957,10.287094783948614,2.7760948702095,3.749784206281845,0.5352761136161828,1291,62,428,643,61.91421163727989,35.434561190816,0.0004811712019615,False
0.34,0.8957591707691235,1.2,484.0,30.1938,0.3,68900.0,0.33,276.0,2700.0,24.908604336460066,4.152144632093751,11210.790506653126,16.836925934557296,6.035583028003378,8.07167840190277,1.883438395909628,2285,86,756,1145,77.85726324141176,44.159684989698086,0.0007681184834665,False
0.3500000000000001,0.7054038821267081,1.2,485.0,30.1938,0.3,68900.0,0.33,276.0,2700.0,15.83854312554366,2.6819478569550323,7241.259213778588,11.571578592614223,3.346174682846167,4.266964532929434,0.6642268258911348,1451,66,482,722,63.2012470789233,35.891392841091594,0.000505213322446,False
0.36,0.8599558364298618,1.2,486.0,30.1938,0.3,68900.0,0.33,276.0,2700.0,22.68766332520951,3.986063300640456,10762.370911729233,15.777047424066268,5.451834655238597,6.910615901143242,1.4657713545981408,2192,84,728,1094,72.9486631543958,41.370414594666265,0.0006615857035222,False
0.37,0.9154509986926984,1.2,487.0,30.1938,0.3,68900.0,0.33,276.0,2700.0,25.28490139639303,4.571619363211188,12343.372280670208,17.43359148351484,6.37299160141475,7.85130991287819,1.8013722382035615,2333,88,774,1166,72.28913326972578,40.71337816105315,0.00072219880224,False
0.38,0.7783135783324027,1.2,488.0,30.1938,0.3,68900.0,0.33,276.0,2700.0,18.477616822123224,3.3958235481448944,9168.723579991214,13.480701916956782,4.258640028064602,4.996914905166442,0.8628164799197076,1832,76,606,915,62.83100074314409,35.487442029586475,0.0005390692617417,False
0.39,0.7638796667223116,1.2,489.0,30.1938,0.3,68900.0,0.33,276.0,2700.0,17.667735895267278,3.3209710764982603,8966.621906545302,13.092146873045888,4.066871250850193,4.57558902222139,0.7459001743519327,1526,68,510,755,61.23622183814632,34.821526286909524,0.0005124571275426,False
0.4,1.0020564136859376,1.2,490.0,30.1938,0.3,68900.0,0.33,276.0,2700.0,29.267789396246823,5.719516592696198,15442.694800279736,20.17343443104702,8.000117159420114,9.094354965199804,2.2806005667239155,2806,96,932,1402,71.24786417320067,40.01676880088476,0.0007831596076062,False
0.4100000000000001,0.940659486373999,1.2,491.0,30.1938,0.3,68900.0,0.33,276.0,2700.0,25.751398022864983,5.134688789835279,13863.659732555252,18.211636195214037,6.822239192333485,7.539761827650953,1.6875504024982062,2331,88,776,1161,68.10545046610808,38.31209620789596,0.0006712326410574,False
0.42,1.0922503696871049,1.2,492.0,30.1938,0.3,68900.0,0.33,276.0,2700.0,33.97484012406109,6.979546881706724,18844.776580608155,23.22719050990009,9.955817481117537,10.747649614161,2.976270599410811,3130,104,1042,1561,71.64361930083716,40.51841553439202,0.0008701279237135,False
0.43,0.9591160137232164,1.2,493.0,30.1938,0.3,68900.0,0.33,276.0,2700.0,26.298982105987765,5.487762081381171,14816.957619729164,18.791413033912104,7.1636999197253,7.507569072075661,1.6759378383441286,2584,92,862,1283,64.6519044148199,36.82146186401767,0.0006592105934381,False
0.44,1.0797492607708752,1.2,494.0,30.1938,0.3,68900.0,0.33,276.0,2700.0,32.75847604949503,7.028455778486504,18976.83060191356,22.79172719820091,9.668177821584244,9.96674885129412,2.6397220430977404,2972,102,992,1476,68.63242746978376,38.57987620484411,0.000805806793003,False
0.45,0.9100745031358884,1.2,495.0,30.1938,0.3,68900.0,0.33,276.0,2700.0,23.398501074286177,5.073810988008811,13699.289667623789,17.26971561726567,6.279700838701889,6.128785457020506,1.2058898506930786,2161,84,716,1075,61.08982526195703,34.60144655417014,0.0005839122805665,False
0.46,1.1084182954603998,1.2,496.0,30.1938,0.3,68900.0,0.33,276.0,2700.0,33.96865099679384,7.608929687576036,20544.110156455296,23.79620837656545,10.335944040924764,10.172442620228397,2.727014353348729,3125,104,1022,1570,66.65370972682213,37.66324216775392,0.0008007597062927,False
0.4700000000000001,0.8488442916950272,1.2,497.0,30.1938,0.3,68900.0,0.33,276.0,2700.0,20.114647372315048,4.509495749778268,12175.638524401324,15.454665531187969,5.278321240721022,4.659981841127081,0.7688254909427537,1908,74,626,953,55.68785569034487,31.757854585564743,0.0005086342624547,False
0.4800000000000001,1.125333800559678,1.2,498.0,30.1938,0.3,68900.0,0.33,276.0,2700.0,34.49760823216677,8.047802632556152,21729.06710790161,24.39856915907209,10.743553406410893,10.09903907309468,2.6957507738547406,3200,104,1028,1622,66.18619532670738,36.88711119145563,0.000783626036294,False
0.49,0.9243438003408712,1.2,499.0,30.1938,0.3,68900.0,0.33,276.0,2700.0,23.35181707123277,5.4747916930505705,14781.93757123654,17.706239141055978,6.529235900358137,5.645577930176788,1.0544442073075668,2412,84,724,1264,58.23602264308578,32.58798121262866,0.0005616335221921,False
0.5,1.164240490235414,1.2,500.0,30.1938,0.3,68900.0,0.33,276.0,2700.0,36.36405982795562,8.829215569189753,23838.88203681233,25.8113279216075,11.72018050078138,10.552731906348122,2.8909649315916277,3736,108,1126,1953,67.1539821237847,37.70876253100891,0.0007954872981669,False
0.02,0.5544445803928402,1.2,502.0,33.21318,0.1,68900.0,0.33,276.0,2700.0,15.662388795427225,0.1566071327934541,422.8392585423263,8.043426468923682,1.872846019779696,7.618962326503542,1.716238886986242,12266,198,4070,6155,896.0430877702588,510.8382045892202,0.0068236812027966,True
0.03,0.5967990932484648,1.2,503.0,33.21318,0.1,68900.0,0.33,276.0,2700.0,17.286164727078535,0.2592359222383548,699.9369900435581,8.975512789934177,2.233101328533244,8.310651937144359,1.9738654062948893,13821,210,4566,6966,724.7398797565546,412.7763275807951,0.0051741759560146,True
0.04,0.3434774778293407,1.2,504.0,33.21318,0.08,68900.0,0.33,276.0,2700.0,7.517810243260196,0.1502221635786505,405.5998416623565,4.072299083874474,0.6145016641074306,3.445511159385722,0.46427950052878,9258,158,3034,4701,302.04521185230266,173.01509472768765,0.0015026519621384,True
0.05,0.3928431901881213,1.2,505.0,33.21318,0.1,68900.0,0.33,276.0,2700.0,8.963328935997298,0.2238214240121328,604.3178448327586,4.901282720007643,0.8357433313074689,4.062046215989655,0.6119219072953361,7550,144,2480,3824,266.2581000423048,152.6233760064221,0.0014653879338987,False
0.06,0.6754023244820011,1.2,506.0,33.21318,0.2,68900.0,0.33,276.0,2700.0,20.22395382771992,0.6062662254894816,1636.9188088216004,10.82479347320701,3.0102682165401413,9.399160354512908,2.40400199105066,4379,118,1446,2204,361.2565188194247,206.9696353955476,0.0032141153357183,True
0.0699999999999999,0.5518447538035518,1.2,507.0,33.21318,0.2,68900.0,0.33,276.0,2700.0,14.538294333276092,0.508121924144513,1371.929195190185,7.987681340386367,1.8520070064145016,6.550612992889724,1.3438850822699888,3286,98,1076,1666,256.3607102428668,147.83096364259816,0.0018774890489161,False
0.08,0.6201745109052006,1.2,508.0,33.21318,0.2,68900.0,0.33,276.0,2700.0,17.248780498157405,0.6888788896338716,1859.9730020114528,9.509238177826468,2.449118964810689,7.739542320330937,1.760240075176818,3605,106,1182,1826,254.65139609840324,146.9291647919687,0.0020317555760395,False
0.09,0.7338262551512909,1.2,509.0,33.21318,0.2,68900.0,0.33,276.0,2700.0,22.36317253088033,1.0048159498597744,2713.003064621391,12.299922413029602,3.685368947644711,10.063250117850728,2.680552997784937,4920,126,1620,2484,270.8883660370679,155.0452481877825,0.0025139671320892,False
0.0999999999999999,0.7277978379635419,1.2,510.0,33.21318,0.3,68900.0,0.33,276.0,2700.0,21.83001281775227,1.0894062457852196,2941.396863620093,12.143743410653032,3.6116910989003137,9.686269407099235,2.522284853115094,2230,84,726,1135,246.93690722777268,141.60155814266037,0.0022472562105129,False
0.11,0.8048296588222097,1.2,511.0,33.21318,0.3,68900.0,0.33,276.0,2700.0,25.51393736999056,1.400478915468195,3781.293071764126,14.208149028212953,4.625700881327255,11.305788341777603,3.22522196585906,2352,90,768,1194,244.40263508082865,139.8399390199335,0.0024919109162185,False
0.12,0.4379843170875596,1.2,512.0,33.21318,0.2,68900.0,0.33,276.0,2700.0,9.381115709391803,0.5592478278265735,1509.9691351317483,5.71293411860536,1.0751195329204422,3.668181590786444,0.5158717050938687,2075,74,678,1052,128.84793477871713,74.3833977121201,0.0007536951745592,False
0.13,0.6236248357845162,1.2,513.0,33.21318,0.3,68900.0,0.33,276.0,2700.0,16.373016030041526,1.059644655912742,2861.0405709644037,9.58918174269176,2.4820667554866267,6.783834287349766,1.4224220995738848,1753,72,572,889,165.61628728532878,94.81110068178484,0.0012483557958342,False
0.14,0.7253710893145754,1.2,514.0,33.21318,0.3,68900.0,0.33,276.0,2700.0,20.80070910069682,1.450302616887813,3915.8170655970953,12.081131155908352,3.582297288019231,8.719577944788469,2.131994671131418,2178,82,706,1113,176.16750776540812,100.53490507897996,0.0015551756362189,False
0.15,0.5226334326342154,1.2,515.0,33.21318,0.3,68900.0,0.33,276.0,2700.0,11.927515171637468,0.8874950544022322,2396.236646886027,7.373013405543794,1.6277061176240164,4.554501766093674,0.7402110632217842,1735,68,570,874,122.86900136760532,70.5909187226506,0.0007852061788113,False
0.16,0.5254837429399075,1.2,516.0,33.21318,0.3,68900.0,0.33,276.0,2700.0,11.866323516325338,0.940727238966628,2539.9635452098955,7.432045758284681,1.6488055754802906,4.434277758040657,0.7080783365136626,1748,68,574,881,115.12274851535456,66.33257002601299,0.0007446974730687,False
0.17,0.8150697894368037,1.2,517.0,33.21318,0.3,68900.0,0.33,276.0,2700.0,24.5865758764535,2.079569186360489,5614.836803173321,14.493808522788775,4.772654529509977,10.092767353664726,2.6930853431494883,2410,90,790,1219,158.96007811910758,90.26723890019151,0.0015901404765507,False
0.18,0.7757504374820232,1.2,518.0,33.21318,0.3,68900.0,0.33,276.0,2700.0,22.3632117912224,2.000474548972855,5401.281282226708,13.411320855131036,4.224176042273977,8.951890936091361,2.2237014933011223,2285,86,748,1157,143.97371526786952,81.45911399449193,0.0013474353823675,False
0.19,0.8406620026810279,1.2,519.0,33.21318,0.3,68900.0,0.33,276.0,2700.0,25.445242332594677,2.402932565589179,6487.917927090783,15.219254656275472,5.152830947953962,10.2259876763192,2.749898382364784,2402,90,788,1214,145.4896956880495,82.04521581005093,0.0014868865394121,False
0.2,0.649624822490837,1.2,520.0,33.21318,0.3,68900.0,0.33,276.0,2700.0,16.131760070360563,1.5964208462169105,4310.336284785658,10.201220115696078,2.739305037070186,5.930539954664486,1.1428841908532756,1579,70,510,808,113.87321203509194,65.18267079778197,0.0008419400454836,False
0.21,0.7790153812876455,1.2,521.0,33.21318,0.3,68900.0,0.33,276.0,2700.0,21.85872323130394,2.27576974624365,6144.578314857855,13.499727651374824,4.268107499943047,8.358995579929118,1.9923377536993967,2004,82,660,1008,122.9419552740345,69.49439320554697,0.0011428114449133,False
0.22,0.8613064169148177,1.2,522.0,33.21318,0.3,68900.0,0.33,276.0,2700.0,25.82000061796605,2.817898948925984,7608.327162100157,15.816443643108258,5.473169426322424,10.00355697485779,2.65527047739644,2464,92,810,1243,126.50963926575088,71.66932228364499,0.0013179073288626,False
0.23,0.7394293282747537,1.2,523.0,33.21318,0.3,68900.0,0.33,276.0,2700.0,19.5481099829994,2.222550142834,6000.885385651801,12.445900947052928,3.7546949081229535,7.102209035946469,1.5321447652889533,1800,76,594,903,109.47417062918724,61.95426400744035,0.0009262947971493,False
0.24,0.5916370633864585,1.2,524.0,33.21318,0.3,68900.0,0.33,276.0,2700.0,13.064595984091644,1.5387986001955136,4154.756220527886,8.859500548435422,2.187069180896905,4.2050954356562205,0.6482705807013915,1431,64,474,714,87.56427742856528,50.13105539080669,0.0006086031036913,False
0.25,0.8592588596652311,1.2,525.0,33.21318,0.3,68900.0,0.33,276.0,2700.0,25.01502924031289,3.0941537315642176,8354.215075223388,15.756734655590892,5.44084549924248,9.258294584722004,2.346691767678262,2432,88,798,1229,110.89990687739356,62.3254694676077,0.0011277856270493,False
0.26,0.8760587794072044,1.2,526.0,33.21318,0.3,68900.0,0.33,276.0,2700.0,25.664021490938914,3.2995117055023995,8908.681604856478,16.249752945142593,5.709688779991366,9.414268545796322,2.410177074488966,2384,90,788,1196,109.30835115261026,61.439096762464814,0.0011199436130707,False
0.27,0.9316924876153152,1.2,527.0,33.21318,0.3,68900.0,0.33,276.0,2700.0,28.424110251828168,3.7960309051964,10249.28344403028,17.933045073240624,6.660186046379809,10.491065178587544,2.864155141183409,2556,94,840,1290,109.6375183661647,61.412424960658086,0.0012066534943524,False
0.28,0.7958218557664735,1.2,528.0,33.21318,0.3,68900.0,0.33,276.0,2700.0,21.19181229511691,2.920877560028633,7886.36941207731,13.959045418200954,4.498840142013037,7.232766876915955,1.577962581984404,1929,80,638,966,94.37406216142764,53.46582671089392,0.0008512633713046,False
0.29,0.5999045428114694,1.2,529.0,33.21318,0.3,68900.0,0.33,276.0,2700.0,12.589137579425929,1.7743447468644924,4790.730816534129,9.04562776610833,2.2610831373417533,3.5435098133175984,0.4867383904772608,1400,62,464,698,73.1809429344441,41.84332391972429,0.0005254945284653,False
0.3,0.7968279438616742,1.2,530.0,33.21318,0.3,68900.0,0.33,276.0,2700.0,20.834619124551462,3.0686442009181034,8285.33934247888,13.98676681745497,4.512898114380661,6.847852307096492,1.4442539134625578,1970,80,650,989,89.80191016094959,51.02520717191505,0.0007828247216082,False
0.31,0.9919312570451608,1.2,531.0,33.21318,0.3,68900.0,0.33,276.0,2700.0,30.82876747442357,4.716064834040259,12733.3750519087,19.8433845943262,7.797531052993008,10.98538288009738,3.081466218952749,2843,100,940,1427,98.70668969694772,55.428565307129055,0.001151569619284,False
0.32,0.8528173682306052,1.2,532.0,33.21318,0.3,68900.0,0.33,276.0,2700.0,23.154450845510933,3.6360829965665262,9817.42409072962,15.56958094325418,5.339951962218997,7.584869902256754,1.7038689656524708,2197,84,730,1096,88.56713705304544,50.26974338879904,0.0008279031917935,False
0.33,0.7510272777765779,1.2,533.0,33.21318,0.3,68900.0,0.33,276.0,2700.0,18.152608343358533,2.919914099859454,7883.768069620525,12.750572730180108,3.90080535538913,5.402035613178427,0.9808912555296768,1685,72,558,842,77.36020381161677,43.80975066003928,0.0006396210138965,False
0.34,0.7010778973872701,1.2,534.0,33.21318,0.3,68900.0,0.33,276.0,2700.0,15.823334400920825,2.6076487430520783,7040.651606240612,11.462502375570484,3.2963523110246498,4.360832025350339,0.6887035679725715,1456,66,482,727,71.5619823502272,40.65481322661989,0.000565229442549,False
0.3500000000000001,0.8696968798073346,1.2,535.0,33.21318,0.3,68900.0,0.33,276.0,2700.0,23.374627633436237,4.000762645836232,10802.059143757828,16.062219190930094,5.606906557975495,7.31240844250614,1.6061439121392622,2124,84,708,1056,81.40876042660537,45.761275600932166,0.0007707539186543,False
0.36,0.8253774485999399,1.2,536.0,33.21318,0.3,68900.0,0.33,276.0,2700.0,21.014453062600108,3.6848854533706143,9949.19072410066,14.78401335154303,4.923545140258545,6.230439711057079,1.2386596868879307,2024,80,672,1010,75.1740775859747,42.45749832114965,0.0006811220596541,False
0.37,1.0213636300149087,1.2,537.0,33.21318,0.3,68900.0,0.33,276.0,2700.0,31.052690557207796,5.63866035796192,15224.382966497182,20.809932893758862,8.395739455213617,10.242757663448929,2.7570790972516974,2843,100,946,1418,84.74371717030454,47.760610079276205,0.0009856170930949,False
0.38,0.9511720630327012,1.2,538.0,33.21318,0.3,68900.0,0.33,276.0,2700.0,26.94697699064248,5.005001980163553,13513.505346441592,18.540819438596998,7.015418262709791,8.406157552045482,2.010416282546238,2280,88,760,1134,79.30830740416512,44.74125017605096,0.0008301465601669,False
0.39,0.7961213332690784,1.2,539.0,33.21318,0.3,68900.0,0.33,276.0,2700.0,19.10200569350322,3.6006536871542663,9721.76495531652,13.967294457273844,4.503021797218186,5.134711236229377,0.9023681100639198,1812,76,600,904,69.20325025640015,39.01936562852403,0.0005982001790476,False
0.4,0.8251056933747274,1.2,540.0,33.21318,0.3,68900.0,0.33,276.0,2700.0,20.252479206985992,3.916454554843632,10574.427298077804,14.776328003652932,4.919528551689663,5.47615120333306,1.003073996846032,1986,78,652,994,70.34656494868156,39.96239200774246,0.0006180077297651,False
0.4100000000000001,0.844556947169135,1.2,541.0,33.21318,0.3,68900.0,0.33,276.0,2700.0,20.98061777425996,4.156678838871232,11223.032864952324,15.331105419813492,5.212326802493095,5.64951235444647,1.0556479636218636,2081,80,684,1045,68.9962246690274,38.9902139560008,0.0006247085509271,False
0.42,0.8886824268408896,1.2,542.0,33.21318,0.3,68900.0,0.33,276.0,2700.0,22.9190316025724,4.657827092193993,12576.133148923782,16.62487995885222,5.917183454426618,6.294151643720177,1.2593563622326247,2082,82,692,1036,68.66082713197041,38.91230952932404,0.0006594400293419,False
0.43,0.8428766991815937,1.2,543.0,33.21318,0.3,68900.0,0.33,276.0,2700.0,20.53797772180597,4.249146138782132,11472.694574711755,15.282807130030854,5.186607329952149,5.255170591775112,0.9374611911700166,2057,78,652,1047,66.69378075265713,37.93891237332347,0.0006015696517895,False
0.44,1.006831095446137,1.2,544.0,33.21318,0.3,68900.0,0.33,276.0,2700.0,28.641317897883933,6.122680985132204,16531.23865985695,20.329968778799863,8.096812361708688,8.31134911908407,1.974131376576484,2670,94,894,1323,71.90418151243131,40.75653386957784,0.0007702817260256,False
0.45,0.9680006298320748,1.2,545.0,33.21318,0.3,68900.0,0.33,276.0,2700.0,26.35105874719128,5.738136464412461,15492.968453913643,19.073558983061595,7.331906321056269,7.277499764129686,1.5937698566438074,2452,90,818,1213,68.91673815261552,39.016896040907184,0.0007014863468485,False
0.46,1.0936788822260397,1.2,546.0,33.21318,0.3,68900.0,0.33,276.0,2700.0,33.10104016508073,7.409379196281665,20005.323829960496,23.277201333211973,9.989033528445145,9.82383883186876,2.5796543321634777,3019,102,992,1513,73.45114888559743,41.38506527746003,0.0008587215477522,False
0.4700000000000001,0.9348647268787972,1.2,547.0,33.21318,0.3,68900.0,0.33,276.0,2700.0,24.251951043688315,5.481762112550989,14800.75770388767,18.031370761270622,6.717229845520556,6.220580282417689,1.2354677329695676,2185,84,716,1093,65.38295229157664,36.96332456262837,0.0006436093823853,False
0.4800000000000001,0.919723990723584,1.2,548.0,33.21318,0.3,68900.0,0.33,276.0,2700.0,23.309589510238062,5.36267813929327,14479.230976091829,17.564350643380575,6.447764401916502,5.745238866857491,1.085086262623232,2375,84,720,1237,90.59837525012908,49.39251624506655,0.0006230078965896,False
0.49,0.8144713125778023,1.2,549.0,33.21318,0.2,68900.0,0.33,276.0,2700.0,18.246504928887425,4.2239902181759605,11404.773589075094,14.477040853122649,4.76398533849038,3.769464075764775,0.5399951203144191,5263,106,1318,2948,66.58899587412391,37.92144887919183,0.0005216644818098,False
0.5,1.1719316457750664,1.2,550.0,33.21318,0.3,68900.0,0.33,276.0,2700.0,36.83497146803217,8.946943479208892,24156.74739386401,26.09510869712775,11.919789786683843,10.739862770904423,2.972846307474951,4000,110,1182,2111,75.10984186266003,42.46373890226565,0.0008882186624007,False
0.02,0.4637152570009545,1.2,552.0,36.23256,0.1,68900.0,0.33,276.0,2700.0,12.018142304506677,0.1201646678842476,324.44460328746857,6.198500457396756,1.2283300565400244,5.819641847109919,1.1081653886557767,9785,170,3242,4916,810.8528378318026,462.3891339350751,0.0053862123882557,True
0.03,0.5034672264067176,1.2,553.0,36.23256,0.1,68900.0,0.33,276.0,2700.0,13.368244976479058,0.2004671259793747,541.2612401443118,6.981367629768541,1.4901613497859756,6.386877346710517,1.2896942238066007,10738,180,3532,5434,627.2681647412634,357.87467390583527,0.004135989450059,True
0.04,0.6917700602893662,1.2,554.0,36.23256,0.1,68900.0,0.33,276.0,2700.0,21.48188509812797,0.4295036606760063,1159.659883825217,11.229407458245362,3.190747699841795,10.252477639882612,2.761244039165789,17022,238,5598,8619,737.0936450040524,419.91175351062265,0.0055546065666255,True
0.05,0.4652056787812289,1.2,555.0,36.23256,0.08,68900.0,0.33,276.0,2700.0,11.524101934684545,0.287840748979314,777.1700222441478,6.227135911863183,1.2375897691452444,5.296966022821362,0.9497490201659304,14537,208,4784,7355,367.0668055658467,210.290874785769,0.0021294685533411,True
0.06,0.3709309036313806,1.2,556.0,36.23256,0.1,68900.0,0.33,276.0,2700.0,8.08501242827235,0.2420979835060541,653.6645554663462,4.525756730529858,0.7324813718356693,3.559255697742492,0.4903833883296151,6716,134,2198,3413,227.5682584843431,130.848414896661,0.0012500632799917,False
0.0699999999999999,0.3852330444711124,1.2,557.0,36.23256,0.1,68900.0,0.33,276.0,2700.0,8.395039591809805,0.2931080081932244,791.391622121706,4.769494655481806,0.7989462418715199,3.625544936328,0.5058382336782954,7009,138,2304,3547,195.1130835177985,112.39769798262536,0.0011392803371632,False
0.08,0.7227491595914499,1.2,558.0,36.23256,0.2,68900.0,0.33,276.0,2700.0,22.051364378198343,0.8809822448355072,2378.6520610558696,12.013649401929262,3.550709915111259,10.03771497626908,2.669727670275752,4795,124,1578,2422,323.95115362682736,185.25642404061747,0.0029898303365885,True
0.09,0.4213618122252512,1.2,559.0,36.23256,0.1,68900.0,0.33,276.0,2700.0,9.286304122474764,0.4163568714817197,1124.163553000643,5.408099249401372,0.9826994367044336,3.878204873073393,0.5663425652227138,7620,146,2510,3849,167.4449299920616,96.59003236561298,0.0010190406392781,False
0.0999999999999999,0.7129288970846273,1.2,560.0,36.23256,0.3,68900.0,0.33,276.0,2700.0,21.104768586565587,1.0531440342258866,2843.488892409894,11.762436432886949,3.4339681964503,9.34233215367864,2.380824162224413,2037,80,668,1029,263.64845012762567,151.062559189944,0.0023496828320979,False
0.11,0.7057410200798224,1.2,561.0,36.23256,0.3,68900.0,0.33,276.0,2700.0,20.531777936440918,1.1264601466229625,3041.4423958819984,11.58009901004612,3.3500773373649717,8.951678926394795,2.223617190742009,2055,80,672,1041,239.2696939726192,136.94890501844267,0.0020802340974961,False
0.12,0.7102617685711201,1.2,562.0,36.23256,0.3,68900.0,0.33,276.0,2700.0,20.52333186626603,1.2277807972390269,3315.008152545372,11.694626920875548,3.402686734929893,8.828704945390482,2.174905937690867,2039,80,668,1031,221.02204421302056,126.38230367005704,0.0019214467259752,False
0.13,0.4628883588290147,1.2,563.0,36.23256,0.08,68900.0,0.33,276.0,2700.0,10.085094527220866,0.6509297582293988,1757.5103472193769,6.18263735299443,1.2232110876132225,3.902457174226436,0.5722813293838237,12726,192,4190,6407,131.87594055020222,76.07755266246721,0.0008249164670965,False
0.14,0.6530949651554703,1.2,564.0,36.23256,0.3,68900.0,0.33,276.0,2700.0,17.461140797412536,1.2165328356579117,3284.6386562763614,10.284192205480824,2.774848601200697,7.176948591931714,1.5583157655427855,1613,72,528,815,179.02226126570653,102.2506983059454,0.001378893039941,False
0.15,0.5762623684218485,1.2,565.0,36.23256,0.3,68900.0,0.33,276.0,2700.0,14.015182242301009,1.0440700847020004,2818.989228695401,8.51793510328973,2.0534904063289137,5.497247139011279,1.0094203216269133,1714,70,560,868,149.09799636713052,85.63610672473997,0.0009967472115421,False
0.16,0.5583235385788519,1.2,566.0,36.23256,0.3,68900.0,0.33,276.0,2700.0,13.12400408209519,1.0413416842282124,2811.6225474161733,8.126914368033422,1.90420793552246,4.997089714061769,0.8628662512942478,1658,68,544,836,134.11235122446922,77.04705578655451,0.0008866709479517,False
0.17,0.529840741892894,1.2,567.0,36.23256,0.3,68900.0,0.33,276.0,2700.0,11.862973819443823,0.9980630115146684,2694.7701310896045,7.522677527642974,1.6813842591006285,4.340296291800851,0.6833212475859599,1741,68,572,877,120.45617032744724,69.41492201695145,0.0007771639762131,False
0.18,0.7606297921701045,1.2,568.0,36.23256,0.3,68900.0,0.33,276.0,2700.0,21.61974178713361,1.9335622486048671,5220.618071233142,13.005383759161434,4.024464472399997,8.614358027972171,2.0909022237951302,2156,82,702,1097,155.73374653122235,88.39870131470373,0.0014144531041225,False
0.19,0.7923823752076857,1.2,569.0,36.23256,0.3,68900.0,0.33,276.0,2700.0,22.96621354317101,2.1674248305939323,5852.047042603617,13.864467320092537,4.450991011661915,9.101746223078475,2.283566181067983,2284,86,748,1156,150.5129165955965,85.09743107357639,0.0014423725473455,False
0.2,0.717737630928436,1.2,570.0,36.23256,0.3,68900.0,0.33,276.0,2700.0,19.15723996789778,1.8989688359706312,5127.215857120704,11.885146223347029,3.4908254290819523,7.272093744550752,1.591856593111321,1912,76,630,961,132.4001960385768,75.19472163903647,0.0011215737771297,False
0.21,0.7874254113746477,1.2,571.0,36.23256,0.3,68900.0,0.33,276.0,2700.0,22.272250467344065,2.319190106027863,6261.81328627523,13.728684815934631,4.382602138170315,8.543565651409434,2.063412032142452,2283,86,748,1155,135.17838143302868,76.34774975072698,0.0012708190791835,False
0.22,0.5389295767415672,1.2,572.0,36.23256,0.3,68900.0,0.33,276.0,2700.0,11.396148157002626,1.231275178220007,3324.442981194019,7.713273905383864,1.7506212097960314,3.682874251618762,0.5193460315760243,1549,64,512,775,94.38294663317926,54.24026154613691,0.0006310470055218,False
0.23,0.6798905343135013,1.2,573.0,36.23256,0.3,68900.0,0.33,276.0,2700.0,16.870619870286053,1.9146387798720768,5169.524705654609,10.93507298400098,3.0590994504672637,5.935546886285072,1.144460670595186,1643,72,540,827,112.13782055525242,63.98111447769238,0.0008555073531034,False
0.24,0.7818421539410426,1.2,574.0,36.23256,0.2,68900.0,0.33,276.0,2700.0,21.35127725457885,2.53320035265398,6839.640952165746,13.576486222234225,4.306376603103134,7.774791032344627,1.7731762504491535,4775,122,1582,2396,118.94660731695312,67.60272156861355,0.0010730763442192,False
0.25,0.7522348935528835,1.2,575.0,36.23256,0.3,68900.0,0.33,276.0,2700.0,19.738992269152742,2.4346491101689547,6573.552597456178,12.782490464314042,3.916222416666511,6.956501804838704,1.4815733064975565,1801,76,594,904,111.5051387180222,63.00575063539215,0.0009478846512957,False
0.26,0.6171825638698127,1.2,576.0,36.23256,0.3,68900.0,0.33,276.0,2700.0,13.736460288137518,1.7489287491382148,4722.10762267318,9.440157382143637,2.420771226971172,4.2963029059938815,0.671842477832957,1308,62,430,657,92.52758694709712,52.9433961534936,0.0006549151770897,False
0.27,0.8125855098189254,1.2,577.0,36.23256,0.3,68900.0,0.33,276.0,2700.0,22.214790488726937,2.957772737177729,7985.986390379868,14.42426473673867,4.736734271627958,7.790525751988268,1.7789615344502288,2221,84,734,1114,109.10351523186594,61.952737015875165,0.0010082136647447,False
0.28,0.9377663742011068,1.2,578.0,36.23256,0.3,68900.0,0.33,276.0,2700.0,28.517895587358016,3.946529220942389,10655.62889654445,18.12153074341288,6.769681279275654,10.396364843945136,2.8231520583332657,2539,94,836,1279,115.22491312369304,64.92041790339219,0.0012780096574177,False
0.29,0.8842132240268974,1.2,579.0,36.23256,0.3,68900.0,0.33,276.0,2700.0,25.40892806348183,3.633214367052599,9809.678791042015,16.491614202675784,5.843181476938457,8.917313860806047,2.209967109885858,2492,90,818,1259,106.93328876971786,60.5008896806468,0.0010908457132234,False
0.3,0.6615655073548226,1.2,580.0,36.23256,0.3,68900.0,0.33,276.0,2700.0,14.856932778688996,2.171991249038733,5864.376372404579,10.48799627231984,2.862823177843736,4.368936506369158,0.6908319288050029,1393,64,460,697,85.51858408990387,48.78547390944589,0.0006348181957427,False
0.31,0.6137956521395215,1.2,581.0,36.23256,0.3,68900.0,0.33,276.0,2700.0,12.81256696906958,1.9235537557103888,5193.59514041805,9.36222877399316,2.388930297227441,3.450338195076421,0.4653765415170523,1374,62,458,681,77.78673189732942,44.50127503560771,0.0005581937469553,False
0.32,0.8940356326077965,1.2,582.0,36.23256,0.3,68900.0,0.33,276.0,2700.0,25.2541245652024,3.972030791717165,10724.483137636344,16.78516627869813,6.006608559229901,8.468958286504268,2.034577767512736,2394,88,788,1206,97.84361313033637,55.15383021879007,0.0009900696867847,False
0.33,0.9341057737003892,1.2,583.0,36.23256,0.3,68900.0,0.33,276.0,2700.0,27.14869257276665,4.404267997711783,11891.523593821812,18.00782348121252,6.703553815927362,9.14086909155413,2.29928581821558,2557,92,844,1285,98.29460213670028,55.2993089859518,0.0010375488698919,False
0.34,0.9112939789699211,1.2,584.0,36.23256,0.3,68900.0,0.33,276.0,2700.0,25.715648682007476,4.289342170836776,11581.223861259296,17.306821600804216,6.300783460684715,8.408827081203256,2.011441289847939,2283,88,758,1140,105.32712023169437,60.31958909152098,0.001086949237121,False
0.3500000000000001,0.7034888622277913,1.2,585.0,36.23256,0.3,68900.0,0.33,276.0,2700.0,15.758701116143463,2.6679755053099976,7203.533864336993,11.523234890489846,3.3240611838640506,4.235466225653617,0.656085678554053,1451,66,482,722,75.65920067904102,42.671389729491736,0.0006039427310721,False
0.36,0.8350841686154529,1.2,586.0,36.23256,0.3,68900.0,0.33,276.0,2700.0,21.47808299353761,3.768338840939514,10174.514870536688,15.059740483831204,5.068385706130994,6.418342509706408,1.3000468651914798,2051,80,680,1025,107.55877624933544,60.26451087186965,0.0007552701364925,False
0.37,0.99393548097323,1.2,587.0,36.23256,0.3,68900.0,0.33,276.0,2700.0,29.504905801976594,5.352320178244146,14451.264481259195,19.90851177027753,7.837366887071499,9.596394031699065,2.485046708827353,2844,98,942,1425,92.53456890468073,52.17923619212432,0.001019607371365,False
0.38,0.7458197538749313,1.2,588.0,36.23256,0.3,68900.0,0.33,276.0,2700.0,17.053254845644833,3.1251947726139986,8438.025886057796,12.61335574120959,3.8347640192807697,4.439899104435243,0.7095692466667711,1539,68,514,762,73.93832221015076,42.13133251477053,0.0006087952915175,False
0.39,0.8929268793364373,1.2,589.0,36.23256,0.2,68900.0,0.33,276.0,2700.0,23.72236860924052,4.501624455723043,12154.386030452217,16.75190871921156,5.988016391276745,6.9704598900289625,1.4863919355537023,6723,126,1730,3736,87.22983827956162,49.56577075271813,0.0007891006274577,False
0.4,1.0789773023624838,1.2,590.0,36.23256,0.3,68900.0,0.33,276.0,2700.0,33.677558571642145,6.601470427775265,17823.970154993214,22.764965576782817,9.65059388652415,10.912592994859327,3.049123458748886,3064,104,1020,1528,89.10119847221752,50.596347258964286,0.0010833440967527,False
0.4100000000000001,0.8434640696453892,1.2,591.0,36.23256,0.3,68900.0,0.33,276.0,2700.0,20.92903415596877,4.146104197121558,11194.481332228208,15.29968287402812,5.195588955196443,5.629351281940648,1.0494847580748845,2086,80,688,1044,77.24493865565088,43.87568884495997,0.0006812918727611,False
0.42,1.0093285539610115,1.2,592.0,36.23256,0.3,68900.0,0.33,276.0,2700.0,29.21990978018735,5.981011509493236,16148.731075631737,20.412074305222752,8.147688110290254,8.807835474964598,2.166676600797018,2925,98,960,1471,82.91068393896832,46.58936586675792,0.0008981026119926,False
0.43,0.8894566774088325,1.2,593.0,36.23256,0.3,68900.0,0.33,276.0,2700.0,22.7650061895637,4.727957259350216,12765.484600245583,16.648018109843118,5.930064233567872,6.116988079720581,1.2021069742176564,2089,82,692,1041,74.24561287165137,41.60605691494298,0.0007052995916919,False
0.44,0.7801911275232551,1.2,594.0,36.23256,0.1,68900.0,0.33,276.0,2700.0,17.55091641650154,3.682792659228079,9943.540179915812,13.531629631612688,4.283998504823414,4.019286784888852,0.6012058455953349,29582,206,4738,18769,75.74635238847705,43.34532914033893,0.0005914160284774,False
0.45,1.0477696177348232,1.2,595.0,36.23256,0.3,68900.0,0.33,276.0,2700.0,30.693023811475708,6.7150786038764565,18130.712230466437,21.69562451468703,8.956901506130725,8.997399296788679,2.2418229022542686,2979,98,966,1504,78.78772300594612,44.50316994353915,0.0008852539969421,False
0.46,0.7686731595637601,1.2,596.0,36.23256,0.2,68900.0,0.33,276.0,2700.0,16.745258567004292,3.6475494287244414,9848.383457555994,13.220605047303293,4.129936014152082,3.5246535197009994,0.4823865854276397,4912,102,1246,2737,69.84138134674122,39.97965446361838,0.0005533096470933,False
0.4700000000000001,0.872555109917257,1.2,597.0,36.23256,0.3,68900.0,0.33,276.0,2700.0,21.21792933932319,4.768767012025184,12875.670932467996,16.146347211486653,5.652936256215254,5.071582127836539,0.8841692441900699,2257,80,672,1185,68.91205780575434,39.094130227714935,0.0006408411537635,False
0.4800000000000001,0.8018101200495569,1.2,598.0,36.23256,0.1,68900.0,0.33,276.0,2700.0,17.85220538477898,4.052905949183088,10942.846062794337,14.12441886890858,4.582925295340937,3.7277865158704007,0.5300193461578493,31619,206,4758,20334,73.99359826670278,42.011202423507,0.0005711150787602,False
0.49,1.0435988617327854,1.2,599.0,36.23256,0.3,68900.0,0.33,276.0,2700.0,29.579840528635277,7.000657440114185,18901.7750883083,21.55456648631081,8.866708661228165,8.025274042324458,1.86605122111398,2758,94,884,1400,72.75519476400811,41.1065408858877,0.0007999486282618,False
0.5,1.0611236134614823,1.2,600.0,36.23256,0.3,68900.0,0.33,276.0,2700.0,30.33762347411933,7.322606480730684,19771.037497972848,22.15020729962114,9.249655043862782,8.187416174498189,1.9270485631320984,2940,96,936,1496,73.18943479328394,41.85646334681457,0.0008061823616088,False
0.02,0.4583575510680961,1.2,602.0,39.25194,0.1,68900.0,0.33,276.0,2700.0,11.815882437762188,0.1181420692168126,318.98358688539423,6.096023985656628,1.1953951553682771,5.71985845210556,1.0772530861514646,9611,168,3184,4829,876.256468557247,500.0235047747677,0.005716942268066,True
0.03,0.385164069178826,1.2,603.0,39.25194,0.1,68900.0,0.33,276.0,2700.0,9.031321871312242,0.1354132794019186,365.61585438518034,4.768306837627966,0.7986173055493174,4.263015033684276,0.6632040261473988,7760,146,2550,3929,516.8750617071663,294.46772710230823,0.0028015317582795,True
0.04,0.5234360181911065,1.2,604.0,39.25194,0.1,68900.0,0.33,276.0,2700.0,13.9715279846709,0.2792965184068643,754.1005996985338,7.389614983116028,1.6336302527045012,6.581913001554872,1.354333734297637,11292,186,3716,5712,562.5822255801829,320.9513263313155,0.003584849956093,True
0.05,0.6434049718221404,1.2,605.0,39.25194,0.2,68900.0,0.33,276.0,2700.0,18.95241649722979,0.4735486130429446,1278.5812552159505,10.053259111114253,2.6763156229515053,8.899157386115538,2.202767009908561,4123,114,1364,2071,484.1675717098067,279.13233830040645,0.0041853615877723,True
0.06,0.4930272542515809,1.2,606.0,39.25194,0.08,68900.0,0.33,276.0,2700.0,12.393220873975284,0.3713442368771428,1002.6294395682856,6.771919432934578,1.4183717659766952,5.621301441040706,1.0470275290995523,15361,214,5062,7762,346.1150649514708,198.383256575733,0.0021197402173615,True
0.0699999999999999,0.6733263302912991,1.2,607.0,39.25194,0.2,68900.0,0.33,276.0,2700.0,19.89712130174488,0.6956808680409485,1878.338343710561,10.773955600528083,2.987848796476983,9.1231657012168,2.292167928436035,4223,116,1398,2120,374.465195689257,214.11365331138228,0.0032204351390146,True
0.08,0.4372009091759909,1.2,608.0,39.25194,0.1,68900.0,0.33,276.0,2700.0,9.995017434707115,0.39872836709586,1076.566591158822,5.698411518743454,1.0706496647004538,4.296605915963662,0.6719212976045937,8245,152,2714,4168,210.07785554852285,121.26369321921176,0.0012973416308025,False
0.09,0.5161375634853193,1.2,609.0,39.25194,0.2,68900.0,0.33,276.0,2700.0,12.734210624561523,0.5715126640756243,1543.0841930041856,7.239241349847703,1.5802470442706944,5.494969274713822,1.00873438019507,2861,92,940,1445,229.65896485962685,132.4720550074488,0.0015099775280728,False
0.0999999999999999,0.7252135880458539,1.2,610.0,39.25194,0.3,68900.0,0.33,276.0,2700.0,21.70316612310717,1.0830639110529672,2924.2725598430115,12.077072599107906,3.5803948141566897,9.626093523999264,2.4973309031037223,2225,84,724,1133,290.6576151542114,166.63220493976462,0.0026375589313044,True
0.11,0.5364776927386453,1.2,611.0,39.25194,0.2,68900.0,0.33,276.0,2700.0,13.162830486407591,0.7211680368711328,1947.1536995520587,7.661652457722689,1.7317724726696753,5.501178028684904,1.0106044357985424,2857,92,940,1441,199.48015324226128,115.11735640496724,0.0013119141186133,False
0.12,0.6237951099491369,1.2,612.0,39.25194,0.3,68900.0,0.33,276.0,2700.0,16.58112476195249,0.9912483709802152,2676.370601646581,9.593134719355286,2.48369988193182,6.987990042597206,1.4924515109516043,1699,72,554,862,212.3812453174888,121.83256253633064,0.0016087608589746,False
0.13,0.6738925966554727,1.2,613.0,39.25194,0.3,68900.0,0.33,276.0,2700.0,18.60603856526594,1.2047911207023292,3252.936025896289,10.787811841001565,2.9939536479238247,7.818226724264376,1.7891625272214955,1914,76,626,969,210.0072666471768,120.37542585777744,0.0017206294501298,False
0.14,0.6670711610211111,1.2,614.0,39.25194,0.3,68900.0,0.33,276.0,2700.0,18.08644215392668,1.260303930613898,3402.820612657524,10.6214310917216,2.920933426393117,7.465011062205081,1.6606294957792191,1746,74,574,879,193.90637842685268,110.95220368905358,0.0015566473243175,False
0.15,0.5843245785601185,1.2,615.0,39.25194,0.3,68900.0,0.33,276.0,2700.0,14.341528132922232,1.0685460264985902,2885.0742715461934,8.69630495668559,2.1228817191544773,5.645223176236641,1.0543356926558871,1653,70,540,837,165.46630967302772,95.23319566669082,0.0011081444713635,False
0.16,0.6774711342205766,1.2,616.0,39.25194,0.3,68900.0,0.33,276.0,2700.0,18.142180763870403,1.44279581877023,3895.548710679621,10.87556316406401,3.032715152566295,7.266617599806393,1.589919333796065,1693,74,558,850,172.90719200068932,98.65741234615128,0.00139261955667,False
0.17,0.736881762467926,1.2,617.0,39.25194,0.3,68900.0,0.33,276.0,2700.0,20.69188361290602,1.7485203439589545,4721.004928689177,12.379430637850646,3.7230728598066247,8.312452975055376,1.9745525158476704,1967,78,642,998,173.97253131074535,98.86498477110746,0.0015331582555695,False
0.18,0.8251721642175489,1.2,618.0,39.25194,0.3,68900.0,0.33,276.0,2700.0,24.873406765617244,2.226392096668393,6011.258661004662,14.7782076545493,4.920510809135894,10.095199111067943,2.6941187124675,2407,90,790,1216,178.6747757315725,101.33628708271392,0.0018061660918575,False
0.19,0.8795124517234353,1.2,619.0,39.25194,0.3,68900.0,0.33,276.0,2700.0,27.525183614581604,2.600526987377938,7021.422865920433,16.351985034097165,5.765986553672933,11.173198580484438,3.165459566294995,2541,94,838,1278,177.43721024865633,100.4493065005967,0.0019219690041894,False
0.2,0.6202618462061091,1.2,620.0,39.25194,0.3,68900.0,0.33,276.0,2700.0,14.899430324301209,1.4731878716109748,3977.607253349632,9.511258034199496,2.4499495451893485,5.388172290101714,0.9767616735783736,1428,66,470,717,129.877188320125,74.1654085620265,0.0009077553679625,False
0.21,0.7858663908870406,1.2,621.0,39.25194,0.3,68900.0,0.33,276.0,2700.0,22.195323867807407,2.3111128130765164,6240.004595306595,13.68610735802535,4.361232034775194,8.509216509782057,2.050119221698677,2283,86,748,1155,146.21680558798604,82.59100896775229,0.001371363551033,False
0.22,0.753661155067531,1.2,622.0,39.25194,0.3,68900.0,0.33,276.0,2700.0,20.42277443093168,2.224204068352201,6005.350984550944,12.820234293435467,3.9344805010857193,7.602540137496213,1.710276432733517,1966,78,640,1000,162.11499891243562,92.79575797485256,0.0014042696590128,False
0.23,0.8632188834639947,1.2,623.0,39.25194,0.3,68900.0,0.33,276.0,2700.0,25.685355611240254,2.9283333900817787,7906.500153220802,15.872308409773115,5.503471250815514,9.81304720146714,2.575137860733736,2477,92,816,1247,142.98295361680658,80.59705787779473,0.0014859528310441,False
0.24,0.6453216488762074,1.2,624.0,39.25194,0.3,68900.0,0.33,276.0,2700.0,15.21927782674262,1.7973604213136316,4852.873137546805,10.098750365171092,2.695628055282713,5.120527461571527,0.8982676339690816,1497,68,492,753,111.81506849695884,63.92640043926579,0.000816449716968,False
0.25,0.7377222126823653,1.2,625.0,39.25194,0.3,68900.0,0.33,276.0,2700.0,19.06787996112017,2.350760071665126,6347.052193495841,12.401341378691216,3.733486361140908,6.666538582428949,1.3827262894757817,1857,76,610,936,119.16494448001518,67.52559679242522,0.0009895084069728,False
0.26,0.7571826033650643,1.2,626.0,39.25194,0.3,68900.0,0.33,276.0,2700.0,19.76859944660751,2.533106839739295,6839.388467296097,12.913642980782404,3.979790668785673,6.854956465825106,1.446683829046378,1836,76,606,921,117.80667830621049,66.69471129257964,0.0009951038502734,False
0.27,0.5824827419781803,1.2,627.0,39.25194,0.3,68900.0,0.33,276.0,2700.0,12.238525303585524,1.6109769371836402,4349.637730395829,8.65541184594727,2.1069022188573663,3.583113457638253,0.495925281673726,1421,62,472,707,91.49685925795906,52.54145198828824,0.0006342679351712,False
0.28,0.7294135242505669,1.2,628.0,39.25194,0.3,68900.0,0.33,276.0,2700.0,18.112071246287588,2.489713813192527,6722.227295619823,12.18551161618746,3.631345311927076,5.926559630100128,1.1416314987345486,1763,74,580,887,104.3752111287206,59.33746742358039,0.0008416883810037,False
0.29,0.7739776960993344,1.2,629.0,39.25194,0.3,68900.0,0.33,276.0,2700.0,19.95601379195945,2.8425417976816307,7674.862853740403,13.363431522260337,4.200443698166971,6.592582269699115,1.3579019004853403,1968,80,650,987,106.97309818393512,60.85558510696404,0.0009108996347962,False
0.3,0.8270599576750572,1.2,630.0,39.25194,0.3,68900.0,0.33,276.0,2700.0,22.29641489374918,3.287913566297761,8877.366629003955,14.831636709053049,4.94845943027926,7.464778184696133,1.6605458639814987,2217,84,734,1110,107.50050010956346,61.00176141681007,0.000996124368063,False
0.31,0.7454437531052645,1.2,631.0,39.25194,0.3,68900.0,0.33,276.0,2700.0,18.269368536658565,2.769357998686682,7477.266596454042,12.603474594285403,3.830023245584752,5.66589394237316,1.0606652468980702,1798,74,590,907,96.798082908004,54.99376272257661,0.0007928651540214,False
0.32,0.8926627941763603,1.2,632.0,39.25194,0.3,68900.0,0.33,276.0,2700.0,25.182816870414943,3.960621560551172,10693.678213488163,16.743991920417024,5.983593506174149,8.438824949997919,2.022971945622977,2219,86,736,1109,106.01363380915448,59.721439707001686,0.0010706044936329,False
0.33,1.0041597349881024,1.2,633.0,39.25194,0.3,68900.0,0.33,276.0,2700.0,31.03667100317804,5.045784438729639,13623.617984570024,20.242319629798164,8.042620798161392,10.794351373379872,2.9968363594317537,3057,102,1014,1530,112.15242182239344,62.99884154876978,0.0012920210415825,False
0.34,1.028902596556977,1.2,634.0,39.25194,0.3,68900.0,0.33,276.0,2700.0,32.21904901983017,5.394920228266617,14566.284616319866,21.06101235156963,8.553570385441814,11.158036668260545,3.158650157175197,2978,102,990,1487,109.24820287332444,61.7359717081659,0.0013049695542042,False
0.3500000000000001,1.009427327884899,1.2,635.0,39.25194,0.3,68900.0,0.33,276.0,2700.0,30.85170559970084,5.309251289932539,14334.978482817856,20.415324782891,8.149704451493278,10.436380816809836,2.840453161560739,2860,100,950,1429,104.63815645925118,59.78252434500746,0.001217730155325,False
0.36,0.908457801032696,1.2,636.0,39.25194,0.3,68900.0,0.33,276.0,2700.0,25.135894093532247,4.426744838938549,11952.211065134084,17.220580526808188,6.251820580394072,7.915313566724059,1.8250757414555228,2341,88,776,1171,96.67732918651495,54.40399493685261,0.0009580678862799,False
0.37,0.9532460862745278,1.2,637.0,39.25194,0.3,68900.0,0.33,276.0,2700.0,27.27844149243119,4.940424280978165,13339.145558641048,18.6060919503774,7.0539400228160885,8.67234954205379,2.113515741837923,2547,92,844,1275,96.9061822072636,54.50388018037929,0.0010191251394848,False
0.38,0.9799874940598444,1.2,638.0,39.25194,0.3,68900.0,0.33,276.0,2700.0,28.504869912887692,5.301001635390038,14312.704415553102,19.45736594628539,7.562835196662844,9.047503966602306,2.261833561272806,2807,96,930,1406,96.00826181903668,53.93410559950116,0.0010393379185236,False
0.39,0.92884446089288,1.2,639.0,39.25194,0.3,68900.0,0.33,276.0,2700.0,25.5564633950894,4.85927293896357,13120.03693520164,17.84498403228579,6.609237703278288,7.711479362803612,1.7499647643147185,2328,88,772,1164,90.27021975703092,51.08015889945884,0.0009045557702314,False
0.4,0.734302536358789,1.2,640.0,39.25194,0.3,68900.0,0.33,276.0,2700.0,16.237276948455843,3.113414103138004,8406.218078472612,12.312300424781686,3.6912301170241215,3.924976523674157,0.5778160138861175,1511,66,506,746,76.3212898137213,43.04928226465469,0.0006110933597252,False
0.4100000000000001,0.7699469920734253,1.2,641.0,39.25194,0.3,68900.0,0.33,276.0,2700.0,17.596897350341113,3.4630161519678886,9350.1436103133,13.254838905480195,4.146798650430441,4.342058444860916,0.683782498462552,1670,72,558,825,77.47250154233919,44.0703440478048,0.0006484415941966,False
0.42,0.844238272198558,1.2,642.0,39.25194,0.3,68900.0,0.33,276.0,2700.0,20.782292605592477,4.2091119028283135,11364.602137636446,15.32193973843381,5.20744262342891,5.460352867158663,0.9983307206005962,2009,78,652,1011,80.46864607820862,45.75000742861045,0.0007277989305506,False
0.43,0.8487173268582839,1.2,643.0,39.25194,0.3,68900.0,0.33,276.0,2700.0,20.811242940717595,4.307898160848309,11631.325034290434,15.450999801049273,5.276359274348635,5.360243139668322,0.968461113500326,2073,78,660,1053,165.776282859099,91.39708212930545,0.0007161491988157,False
0.44,0.7505993176518736,1.2,644.0,39.25194,0.3,68900.0,0.33,276.0,2700.0,16.29343616702964,3.4061470043442594,9196.5969117295,12.739270380879622,3.8953510373350393,3.5541657861500173,0.4892040329907798,1525,66,504,759,70.59678177187025,39.93860169013333,0.0005908444300309,False
0.45,0.850978945230102,1.2,645.0,39.25194,0.3,68900.0,0.33,276.0,2700.0,20.56014073121453,4.435179910817691,11974.985759207766,15.51635793869195,5.311377422716119,5.043782792522581,0.876197511898428,2146,78,654,1113,73.73716160711894,42.29626100387896,0.0006938308411044,False
0.46,0.8880070374116367,1.2,646.0,39.25194,0.3,68900.0,0.33,276.0,2700.0,22.13383930455046,4.886922998360062,13194.692095572167,16.604708534583512,5.905961998668337,5.529130769966947,1.0190390003082743,2168,80,676,1114,75.69297236905606,42.66104960610774,0.0007215079726318,False
0.4700000000000001,0.8648102711588572,1.2,647.0,39.25194,0.3,68900.0,0.33,276.0,2700.0,20.854448482278976,4.68334901062013,12645.042328674352,15.918864261297257,5.528767282871733,4.935584220981719,0.845418272251603,2276,80,680,1192,72.38605991034306,41.53383799347956,0.0006842552089875,False
0.4800000000000001,0.8700982922402525,1.2,648.0,39.25194,0.3,68900.0,0.33,276.0,2700.0,20.927602173121244,4.79100117838523,12935.70318164012,16.07402181363593,5.613356501183269,4.8535803594853135,0.8223553227980389,2319,80,680,1225,73.17730307946755,41.34912329546344,0.0006806460877293,False
0.49,0.817843792234767,1.2,649.0,39.25194,0.2,68900.0,0.33,276.0,2700.0,18.39418296220141,4.260171336337889,11502.4626081123,14.571645986116454,4.812968310868477,3.8225369760849546,0.5527969745305885,5360,106,1328,3018,79.28423611798813,45.19235381018444,0.0006196844023034,False
0.5,0.9034316747496296,1.2,650.0,39.25194,0.3,68900.0,0.33,276.0,2700.0,22.155314595711697,5.277029261128776,14247.979005047697,17.068245188042347,6.165650862248401,5.08706940766935,0.8886216011196248,2334,80,674,1241,72.14850243316141,41.20893898093359,0.0006960468112292,False
0.03,0.3713582331303807,1.2,653.0,42.27132,0.1,68900.0,0.33,276.0,2700.0,8.571047146204574,0.1285091585253035,346.97472801831947,4.532964797501355,0.7344169011383107,4.0380823487032185,0.6059077426130072,7280,140,2376,3710,522.4465550840009,298.8264715948548,0.0028369791181009,True
0.04,0.4973017646762773,1.2,654.0,42.27132,0.1,68900.0,0.33,276.0,2700.0,12.933259209466796,0.2585311429027825,698.0340858375127,6.857344086898097,1.4475008168996135,6.0759151225686985,1.1889696739968312,10745,178,3532,5441,581.6542460469966,332.3692397730235,0.0035220532452533,True
0.05,0.7225518251396144,1.2,655.0,42.27132,0.2,68900.0,0.33,276.0,2700.0,22.76359442550041,0.5688280612497099,1535.8357653742166,12.008577509836943,3.5483397086376014,10.755016915663466,2.9795116473878918,4887,126,1618,2454,601.9881674582924,343.5179497552543,0.0056125882006878,True
0.06,0.7302533787419685,1.2,656.0,42.27132,0.2,68900.0,0.33,276.0,2700.0,22.90615180349082,0.6867321647626058,1854.176844859036,12.2072491816776,3.6415884955432514,10.698902621813218,2.954856330780645,4933,126,1626,2488,506.699739534953,289.2790579008127,0.0047473825436549,True
0.0699999999999999,0.6997993017677695,1.2,657.0,42.27132,0.2,68900.0,0.33,276.0,2700.0,21.163343753775145,0.7399986538620094,1997.9963654274247,11.430353668501784,3.281716962674569,9.73299008527336,2.54171830881256,4418,118,1454,2231,423.494879455269,241.87856094579277,0.0037395971159471,True
0.08,0.3836918525436997,1.2,658.0,42.27132,0.08,68900.0,0.33,276.0,2700.0,8.191745595810849,0.3265974935400084,881.8132325580228,4.742982428346029,0.7916159730929201,3.44876316746482,0.4650184795529116,10286,168,3392,5192,200.0431309445728,115.23214551480945,0.0011665614920475,False
0.09,0.7409987280641459,1.2,659.0,42.27132,0.2,68900.0,0.33,276.0,2700.0,22.720964834460936,1.0209166035210977,2756.474829506963,12.486930440576064,3.7742596901910144,10.23403439388487,2.7533430866699167,4927,126,1622,2488,348.68905682161625,199.5557107939468,0.0032626822580355,True
0.0999999999999999,0.7157464466450993,1.2,660.0,42.27132,0.3,68900.0,0.33,276.0,2700.0,21.2413433799473,1.059972773894602,2861.9264895154256,11.834264466777569,3.4672105867288137,9.40707891316973,2.407237812834212,1942,80,638,979,321.2746637191957,184.1986619009468,0.0038180119000245,True
0.11,0.8098409323883803,1.2,661.0,42.27132,0.3,68900.0,0.33,276.0,2700.0,25.779014404843075,1.4150581523850825,3820.6570114397214,14.347614632936278,4.697250989551489,11.431399771906795,3.282192837166406,2357,90,770,1196,313.6718486058584,179.245769481281,0.0032107059256805,True
0.12,0.7647293599717577,1.2,662.0,42.27132,0.3,68900.0,0.33,276.0,2700.0,23.199558087398792,1.3883543705069483,3748.556800368761,13.114875224243317,4.078005214447489,10.084682863155477,2.689650843940541,2206,86,720,1120,275.4766559651386,157.52589009512724,0.0025997478402123,False
0.13,0.5714320261397501,1.2,663.0,42.27132,0.3,68900.0,0.33,276.0,2700.0,14.188880390799788,0.9176758393620276,2477.724766277475,8.411850278448782,2.0126023132944386,5.777030112351007,1.094926473932411,1665,70,544,843,198.08686634960432,114.13119805222524,0.0013347684768715,False
0.14,0.4718386709287661,1.2,664.0,42.27132,0.1,68900.0,0.33,276.0,2700.0,10.241027066957791,0.711124874526079,1920.0371612204133,6.355252612532117,1.2793186000798007,3.8857744544256745,0.5681937255537217,8327,154,2764,4175,147.1814628664717,84.86416483041435,0.000923326348457,False
0.15,0.7109261824095113,1.2,665.0,42.27132,0.3,68900.0,0.33,276.0,2700.0,19.894646149006768,1.4850298777049304,4009.580669803312,11.71150236587942,3.410462412416248,8.183143783127347,1.9254325347113177,1837,76,602,928,207.35914262897865,118.04020374418288,0.0017698132248313,False
0.16,0.4863231685817405,1.2,666.0,42.27132,0.2,68900.0,0.33,276.0,2700.0,10.437436887789575,0.8264163086837639,2231.3240334461625,6.638865437479852,1.373418871710796,3.798571450309725,0.5470025630270321,2394,80,788,1206,135.43339163805786,78.07837639212634,0.0008513576787551,False
0.17,0.6776325706628838,1.2,667.0,42.27132,0.3,68900.0,0.33,276.0,2700.0,17.945227269402686,1.5150545547611716,4090.6472978551633,10.879529424618996,3.0344711849322747,7.06569784478369,1.5194166301711032,1688,74,554,851,192.11661828727205,108.73785337870348,0.0015581610190134,False
0.18,0.5992866805432496,1.2,668.0,42.27132,0.3,68900.0,0.33,276.0,2700.0,14.40218997091,1.2839825851447426,3466.752979890805,9.031658330429773,2.255498501340328,5.370531640480229,0.9715159161955852,1584,68,520,798,148.5505363694507,85.16153750323853,0.001025507717163,False
0.19,0.8347490544864167,1.2,669.0,42.27132,0.3,68900.0,0.33,276.0,2700.0,25.135332321483528,2.373491114533623,6408.426009240782,15.050181834016875,5.063340576013366,10.08515048746665,2.689849461479743,2407,90,790,1216,183.5401994018359,104.1511102774935,0.0018714745151457,False
0.2,0.6167619873175821,1.2,670.0,42.27132,0.3,68900.0,0.33,276.0,2700.0,14.755435992659736,1.4587884384468286,3938.728783806437,9.430464763600522,2.4168029565267304,5.324971229059214,0.9580145180799018,1428,66,470,717,139.12300596259897,79.46221969748864,0.0009696111203354,False
0.21,0.5615401596877542,1.2,671.0,42.27132,0.3,68900.0,0.33,276.0,2700.0,12.3999419342068,1.2825977100484502,3463.013817130816,8.196433413672786,1.9304608783396,4.2035085205340135,0.64786316829115,1445,64,476,725,121.05103494605076,69.39149480512833,0.000812996618718,False
0.22,0.871094661463943,1.2,672.0,42.27132,0.3,68900.0,0.33,276.0,2700.0,26.339662726834867,2.8750617809015515,7762.666808434189,16.10333529344969,5.629386763272204,10.236327433385178,2.7543249823706524,2444,92,804,1232,163.48338674953948,92.32665179611487,0.0017122768240229,False
0.23,0.590576295733121,1.2,673.0,42.27132,0.3,68900.0,0.33,276.0,2700.0,13.1882448715432,1.4911656550166503,4026.147268544956,8.835743645307273,2.177683912067472,4.352501226235928,0.6865182570508215,1439,64,472,725,117.00679616470228,66.88994124478009,0.0008037169762272,False
0.24,0.814082087178886,1.2,674.0,42.27132,0.3,68900.0,0.33,276.0,2700.0,22.936119439859294,2.7233814148876325,7353.129820196607,14.466140662790188,4.758352627928159,8.469978777069105,2.034971213040526,2340,86,768,1182,141.73868277696883,80.14001143276198,0.0013556165488374,False
0.25,0.5934259492578179,1.2,675.0,42.27132,0.3,68900.0,0.33,276.0,2700.0,12.971094192023491,1.588661850528044,4289.386996425718,8.899628413027871,2.2029536963506597,4.071465778995622,0.6142918458226154,1453,64,480,727,107.1280150383314,61.426111805901,0.0007493137122675,False
0.26,0.718405696449028,1.2,676.0,42.27132,0.3,68900.0,0.33,276.0,2700.0,17.999181616861808,2.303082521872371,6218.322809055401,11.902239970177355,3.498771194727925,6.096941646684453,1.195688672855554,1854,74,610,933,119.28798447960058,67.87195359201782,0.0009632259117953,False
0.27,0.9567965853034492,1.2,677.0,42.27132,0.3,68900.0,0.33,276.0,2700.0,29.823832191333477,3.984993367029613,10759.482090979956,18.71808223977508,7.120199651184233,11.10574995155839,3.13520628415462,2726,98,902,1367,141.4347104498397,79.3603105481808,0.0016148961843155,False
0.28,0.7388081639627826,1.2,678.0,42.27132,0.3,68900.0,0.33,276.0,2700.0,18.53429372106513,2.5488249596613826,6881.827391085733,12.429678680411612,3.746968997472343,6.104615040653513,1.1981440378109602,1760,74,578,887,119.873540068478,67.08468254205454,0.0010027989155588,False
0.29,0.9457274063237208,1.2,679.0,42.27132,0.3,68900.0,0.33,276.0,2700.0,28.717319131518224,4.112931071917875,11104.913894178262,18.369982640400508,6.914935277664735,10.347336491117716,2.80200420574686,2523,94,830,1272,130.256388769916,74.09860489508853,0.0014535265090396,False
0.3,0.8632694625926798,1.2,680.0,42.27132,0.3,68900.0,0.33,276.0,2700.0,24.107702473783963,3.559606703302981,9610.93809891805,15.873787116637631,5.504274095740658,8.233915357146332,1.9446673924376765,2288,86,756,1148,119.1356910111453,67.16590864915196,0.0011663007199461,False
0.31,0.7679544092989028,1.2,681.0,42.27132,0.3,68900.0,0.33,276.0,2700.0,19.289649156926306,2.927501494828183,7904.254036036094,13.201306851454795,4.120440636842113,6.0883423054715085,1.19293914201393,1868,78,618,935,107.28342626994548,60.793517050488745,0.0008924251833158,False
0.32,0.6510473395356252,1.2,682.0,42.27132,0.3,68900.0,0.33,276.0,2700.0,14.108412405696514,2.188716846196204,5909.535484729749,10.23519629632266,2.7538406063817056,3.873216109373853,0.5651237601855019,1296,62,428,648,89.14375624603804,50.7033333171553,0.0006886420614645,False
0.33,0.893823595284083,1.2,683.0,42.27132,0.3,68900.0,0.33,276.0,2700.0,25.02474559369109,4.053816746164328,10945.305214643686,16.778803733240842,6.003050152062601,8.245941860450252,1.9492334058982728,2288,86,756,1148,110.97742565545953,62.429339428607946,0.0011114674601705,False
0.34,0.7416633886115729,1.2,684.0,42.27132,0.3,68900.0,0.33,276.0,2700.0,17.560172482795846,2.9029112169708324,7837.860285821248,12.504325606766734,3.782565040538696,5.055846876029111,0.879653823567863,1698,72,562,849,93.7352631944878,53.27666651539112,0.0007787775804165,False
0.3500000000000001,0.7945534222163685,1.2,685.0,42.27132,0.3,68900.0,0.33,276.0,2700.0,19.7594490258687,3.368106389511913,9093.887251682168,13.924131699079965,4.481156167617766,5.835317326788738,1.1130497781058528,1893,78,626,948,97.71929914119976,55.16963632283017,0.0008397578702248,False
0.36,0.9150813914166182,1.2,686.0,42.27132,0.3,68900.0,0.33,276.0,2700.0,25.47940936453981,4.4885775877196,12119.159486842918,17.422302579274287,6.366550105491615,8.057106785265521,1.8779725177720152,2326,88,770,1165,103.59415732590038,58.8567279114833,0.0010452545066853,False
0.37,0.8982370748468802,1.2,687.0,42.27132,0.3,68900.0,0.33,276.0,2700.0,24.400734302890843,4.408048450913282,11901.73081746586,16.911470814457402,6.077395641099582,7.489263488433441,1.6693471901863006,2254,86,750,1123,100.82261960265366,56.699425852681344,0.0009746121172594,False
0.38,0.8345373283838986,1.2,688.0,42.27132,0.3,68900.0,0.33,276.0,2700.0,21.0675395542466,3.8879088672483353,10497.353941570504,15.044144105599422,5.060154698863694,6.023395448647175,1.1722458316153586,2022,80,672,1008,91.5835467931488,52.076847148824434,0.0008387415913562,False
0.39,0.7772356251100966,1.2,689.0,42.27132,0.3,68900.0,0.33,276.0,2700.0,18.255535997873544,3.4355920965064803,9276.098660567495,13.451502934323257,4.244124202186342,4.804033063550287,0.8085321056798613,1909,76,618,964,86.3453183222705,49.0530268389976,0.0007402916875886,False
0.4,1.0071448029509045,1.2,690.0,42.27132,0.3,68900.0,0.33,276.0,2700.0,29.550313470875054,5.776021407621851,15595.257800578998,20.340273502494615,8.103191641756204,9.210039968380435,2.3271702341343534,2887,98,960,1441,101.5435384214589,56.9190387880636,0.0011082282090711,False
0.4100000000000001,0.8147595546175542,1.2,691.0,42.27132,0.3,68900.0,0.33,276.0,2700.0,19.59568285020824,3.872767179440649,10456.471384489752,14.485115475748314,4.768159393948147,5.110567374459928,0.8953922145074977,2044,78,656,1036,84.43250718631161,47.58884526071963,0.0007609393842229,False
0.42,1.0279551743130504,1.2,692.0,42.27132,0.3,68900.0,0.33,276.0,2700.0,30.25790461508148,6.198990424821008,16737.27414701672,21.02938070881723,8.533631699902335,9.22852390626425,2.334641275081327,2893,98,962,1444,97.1288651330355,54.46797210588031,0.0010857848906376,False
0.43,0.9810925421198622,1.2,693.0,42.27132,0.3,68900.0,0.33,276.0,2700.0,27.46451444445952,5.7383515341527085,15493.549142212312,19.4929302394272,7.584356168455329,7.971584205032322,1.8460046343026209,2583,92,862,1284,91.61312660960982,52.17629203406733,0.0009613262049236,False
0.44,0.9422902617403088,1.2,694.0,42.27132,0.3,68900.0,0.33,276.0,2700.0,25.22013730153932,5.370021253936386,14499.057385628244,18.2625191047404,6.8519797602353005,6.957618196798919,1.4819585062989145,2189,86,732,1085,88.83702897311402,50.12817696802257,0.0008778003543368,False
0.45,0.9028170949235244,1.2,695.0,42.27132,0.3,68900.0,0.33,276.0,2700.0,23.040472468275222,4.993254551656344,13481.78728947213,17.049661637676877,6.155166774112568,5.990810830598349,1.1619122224562242,2138,82,692,1078,84.25854078303851,47.602583801303325,0.000809175016779,False
0.46,1.0517052277196357,1.2,696.0,42.27132,0.3,68900.0,0.33,276.0,2700.0,30.69015876405396,6.854876474045865,18508.166479923835,21.82913064335796,9.042549608952248,8.861028120695998,2.187673134906383,3213,100,1006,1656,91.4842192493875,51.08742288072941,0.001016066064855,False
0.4700000000000001,1.032882522958119,1.2,697.0,42.27132,0.3,68900.0,0.33,276.0,2700.0,29.4196588928062,6.696173457093682,18079.668334152942,21.194136823427225,8.637656445301257,8.225522069378975,1.941482988207575,2723,94,900,1361,87.93833701513775,49.84276544454595,0.0009509459670025,False
0.4800000000000001,0.8422244135031514,1.2,698.0,42.27132,0.3,68900.0,0.33,276.0,2700.0,19.643974032771528,4.482930424701299,12103.912146693508,15.264076467939416,5.176644683187272,4.379897564832113,0.693714258485973,1952,74,614,995,82.69679904543614,47.121133498683534,0.0006934367654171,False
0.49,1.0106086208161864,1.2,699.0,42.27132,0.3,68900.0,0.33,276.0,2700.0,27.785419950656188,6.561024398509314,17714.765875975147,20.454218076253937,8.173843899083009,7.33120187440225,1.6128195005736945,2720,92,850,1395,85.66129285251097,48.4717104171917,0.0008936591240526,False
0.5,1.0999831670441071,1.2,700.0,42.27132,0.3,68900.0,0.33,276.0,2700.0,32.54592686416507,7.87468232824212,21261.64228625372,23.49852077075792,10.1364767410345,9.047406093407153,2.2617944127923817,3525,102,1038,1868,90.55886411734376,51.62900519401831,0.0009988254795568,False
0.02,0.4477380860363845,1.2,702.0,45.2907,0.1,68900.0,0.33,276.0,2700.0,11.419249060364628,0.1141757354428268,308.2744856956324,5.895038334291538,1.131728330093601,5.52421072607309,1.0175525946507742,9557,166,3162,4808,962.1727495246552,547.2920099833785,0.0063352063082507,True
0.04,0.7291071559778604,1.2,704.0,45.2907,0.1,68900.0,0.33,276.0,2700.0,23.34070772051359,0.4666801131237191,1260.0363054340417,12.177586440721583,3.6276132718525647,11.163121279792003,3.1609331587288456,18330,250,6036,9270,986.928802073174,561.7696960423233,0.0076708384970418,True
0.05,0.6611489316050867,1.2,705.0,45.2907,0.2,68900.0,0.33,276.0,2700.0,19.77946287702632,0.494224772537858,1334.4068858522166,10.477931159752456,2.85845622952568,9.301531717273866,2.3642314569878216,4242,116,1404,2130,574.2093723254181,330.89352414002303,0.0050853361159416,True
0.06,0.471809341042663,1.2,706.0,45.2907,0.1,68900.0,0.33,276.0,2700.0,11.590745207124758,0.347269966871626,937.6289105533904,6.354683669846519,1.2791322095880835,5.236061537278239,0.9318622427164576,9481,166,3120,4795,386.1557848664616,221.28712617309623,0.0022667014512096,True
0.0699999999999999,0.5738344717340048,1.2,707.0,45.2907,0.2,68900.0,0.33,276.0,2700.0,15.453325144020052,0.5401480025205815,1458.39960680557,8.464539911923707,2.032874588882813,6.988785232096346,1.4927265863622314,3366,100,1102,1707,365.4621714229474,210.92552866895684,0.0027508239775567,True
0.08,0.5034484080974857,1.2,708.0,45.2907,0.2,68900.0,0.33,276.0,2700.0,12.426971157058938,0.4960065159899314,1339.217593172815,6.980987629817111,1.4900299758265372,5.445983527241827,0.9940234598366058,2733,88,894,1386,291.89217980374593,168.51970511665823,0.00188785344943,True
0.09,0.434969210922358,1.2,709.0,45.2907,0.2,68900.0,0.33,276.0,2700.0,9.753577350010282,0.4373841667208175,1180.9372501462071,5.657125468530397,1.0579786219477108,4.096451881479885,0.6205944552268933,2126,76,694,1079,224.54994680171765,129.40013608887654,0.0013329676381059,False
0.0999999999999999,0.7312853575923862,1.2,710.0,45.2907,0.3,68900.0,0.33,276.0,2700.0,22.001728278580774,1.0979920188266472,2964.5784508319475,12.23398368748538,3.6541999109409873,9.7677445910954,2.5562078921143403,2229,84,726,1134,338.10533919556667,193.79069401136147,0.0030941339662769,True
0.11,0.630811444135323,1.2,711.0,45.2907,0.3,68900.0,0.33,276.0,2700.0,17.09204056039228,0.9372745909402882,2530.641395538778,9.756655111679311,2.551581454457152,7.335385448712968,1.6143068635168638,1720,72,560,874,273.9809328333673,157.759046433622,0.0020781606169103,False
0.12,0.5786196524094969,1.2,712.0,45.2907,0.3,68900.0,0.33,276.0,2700.0,14.670939500107082,0.8766372552694893,2366.9205892276213,8.569919103378616,2.0736308414469105,6.101020396728465,1.1969935861774212,1771,72,580,895,264.4149894265216,150.45058138292777,0.0024568455393819,False
0.13,0.4407941772514524,1.2,713.0,45.2907,0.2,68900.0,0.33,276.0,2700.0,9.322305994424523,0.6013485035976357,1623.6409597136164,5.76514940896006,1.0912453912878253,3.5571565854644653,0.4898968876901896,2079,74,680,1053,165.6591214405771,95.6330366551962,0.0009625090638725,False
0.14,0.6157684246031301,1.2,714.0,45.2907,0.3,68900.0,0.33,276.0,2700.0,15.839262439791684,1.1030013506244527,2978.1036466860223,9.407584746743831,2.4074445667776976,6.431677693047854,1.3044432161532449,1558,70,508,790,213.79664061195604,122.44536432427982,0.001531553194827,False
0.15,0.6315876627984627,1.2,715.0,45.2907,0.3,68900.0,0.33,276.0,2700.0,16.320383431222538,1.2169601738711129,3285.7924694520048,9.774821420773248,2.5591618017792244,6.54556201044929,1.3422016279081117,1762,72,576,892,199.04178184948884,114.0949359130196,0.001494173719025,False
0.16,0.694339804619567,1.2,716.0,45.2907,0.3,68900.0,0.33,276.0,2700.0,18.91030875182571,1.5042460578066557,4061.4643560779705,11.293543632282493,3.2196867772330373,7.616765119543217,1.7154407194263817,1843,76,602,934,200.59158241478568,114.5452507606798,0.001682455107727,False
0.17,0.5519939170793071,1.2,717.0,45.2907,0.3,68900.0,0.33,276.0,2700.0,12.704718031780711,1.069611269563303,2887.9504278209183,7.9908750854565564,1.8531987133164332,4.7138429463241565,0.7835874437531303,1674,68,550,843,155.93782767713293,89.60719427512308,0.0010304499516651,False
0.18,0.7414850533583754,1.2,718.0,45.2907,0.3,68900.0,0.33,276.0,2700.0,20.69489745697561,1.850326258890647,4995.880899004747,12.499657215102244,3.780335494746834,8.195240241873366,1.930009235856187,1964,78,642,995,190.3939400490173,108.07367648668824,0.0016806604644948,False
0.19,0.7876302892200812,1.2,719.0,45.2907,0.3,68900.0,0.33,276.0,2700.0,22.728540465250816,2.1448458881910835,5791.083898115925,13.734284651126847,4.385415415159331,8.994255814123969,2.2405695269682475,2284,86,748,1156,187.24586988521824,105.89956766589404,0.001781842954187,False
0.2,0.6456455620979706,1.2,720.0,45.2907,0.3,68900.0,0.33,276.0,2700.0,15.962216550931227,1.5794664942739782,4264.559534539741,10.10644738380785,2.698900420561153,5.855769167123377,1.1194339262871749,1600,70,518,817,154.92673956892335,88.73593140533677,0.0011361100996034,False
0.21,0.7382542930758955,1.2,721.0,45.2907,0.3,68900.0,0.33,276.0,2700.0,19.90484392526341,2.0706124191093966,5590.653531595371,12.41522202072074,3.740088564235228,7.489621904542675,1.669476145125831,1955,78,638,992,161.9343207495695,91.75354976358848,0.0013984167148722,False
0.22,0.6006649280312004,1.2,722.0,45.2907,0.3,68900.0,0.33,276.0,2700.0,13.753918484394244,1.4906299142330846,4024.700768429329,9.062832716028572,2.2679678392723144,4.691085768365671,0.7773379250392298,1597,68,528,799,131.74431378825977,75.25435097156453,0.0009167124975367,False
0.23,0.8415599939078235,1.2,723.0,45.2907,0.3,68900.0,0.33,276.0,2700.0,24.5559554007163,2.798452365871556,7555.821387853201,15.24500836886175,5.166509266901033,9.31094703185455,2.3680569010294774,2427,88,796,1227,162.03276612859884,91.0653910934612,0.0016304517711947,False
0.24,0.8838032984767235,1.2,724.0,45.2907,0.3,68900.0,0.33,276.0,2700.0,26.542121465625883,3.1561016579795944,8521.474476544905,16.479415895077626,5.836423643256464,10.062705570548257,2.6803219852768696,2450,92,806,1235,161.1575951083792,91.1398091790198,0.0017056521431581,False
0.25,0.7644479751976689,1.2,725.0,45.2907,0.3,68900.0,0.33,276.0,2700.0,20.311967254108463,2.5062709832885868,6766.931654879184,13.107346484364976,4.074315947528395,7.204620769743489,1.568044964239808,1883,78,622,944,139.2212691503694,79.00577487506183,0.0012258213612863,False
0.26,0.8528740505793283,1.2,726.0,45.2907,0.3,68900.0,0.33,276.0,2700.0,24.4584630409288,3.14278910700108,8485.530588902915,15.571223267425951,5.34083452918051,8.887239773502845,2.1980454221794306,2428,88,798,1225,144.4787097013432,81.5997306202227,0.0014484200449558,False
0.27,0.6486951481518607,1.2,727.0,45.2907,0.3,68900.0,0.33,276.0,2700.0,14.836480291662136,1.9617008605739827,5296.592323549753,10.179042741502254,2.7298315350530933,4.657437550159882,0.7681306744791105,1367,64,452,683,116.38616122185324,66.10514603934533,0.0008479752772476,False
0.28,0.8571605564259872,1.2,728.0,45.2907,0.3,68900.0,0.33,276.0,2700.0,24.233381101888625,3.346697192976671,9036.082421037012,15.695655178324202,5.407847192856464,8.537725923564423,2.0611499998797926,2425,88,798,1222,134.94858954648797,76.45607414924497,0.0013385173949254,False
0.29,0.6861151794319411,1.2,729.0,45.2907,0.3,68900.0,0.33,276.0,2700.0,16.04724886746771,2.275770883630552,6144.58138580249,11.088856305224304,3.127644517307667,4.958392562243409,0.8518736336771151,1609,70,530,808,110.98171357875889,63.438877024152944,0.0008639243384595,False
0.3,0.6459670088574535,1.2,730.0,45.2907,0.3,68900.0,0.33,276.0,2700.0,14.226726941497477,2.07746037345998,5609.143008341946,10.114088399780426,2.702150333342957,4.112638541717049,0.6246899598829767,1404,64,462,705,105.97984528473503,60.63520613769068,0.0007689557684979,False
0.31,0.7673925910909325,1.2,731.0,45.2907,0.3,68900.0,0.33,276.0,2700.0,19.26387519952956,2.923506531431689,7893.46763486556,13.186231267852458,4.113028137524047,6.077643931677104,1.189521606092358,1869,78,618,936,114.89330082829976,65.1075488717723,0.0009551887014921,False
0.32,0.9493686039580488,1.2,732.0,45.2907,0.3,68900.0,0.33,276.0,2700.0,28.20707754308286,4.444503268178038,12000.158824080703,18.48414984769628,6.982031766570809,9.722927695386584,2.5375284983927706,2622,94,864,1320,128.5322027127714,72.4210456594528,0.0013905066056775,False
0.33,0.7136494797446927,1.2,733.0,45.2907,0.2,68900.0,0.33,276.0,2700.0,16.52304167747627,2.6510355999888797,7157.796119969974,11.780787320509257,3.4424506150660408,4.742254356967017,0.7914150150771615,4255,104,1214,2278,109.75484191707508,62.81133549695079,0.0008223963911937,False
0.34,0.9508443177219296,1.2,734.0,45.2907,0.3,68900.0,0.33,276.0,2700.0,27.8250720371917,4.6479441412181295,12549.44918128895,18.530514711387955,7.009343284817675,9.294557325803744,2.361399143599545,2556,92,846,1281,120.05455744542358,67.59209910312097,0.0012973240854551,False
0.3500000000000001,0.6714630830265453,1.2,735.0,45.2907,0.3,68900.0,0.33,276.0,2700.0,14.450784410564228,2.439090081833632,6585.543220950805,10.728419803970455,2.9678166889457533,3.722364606593773,0.5287266071121217,1460,64,486,725,92.93304828490858,53.03790546247858,0.0007101307507853,False
0.36,0.7757708891153636,1.2,736.0,45.2907,0.3,68900.0,0.33,276.0,2700.0,18.7190035400027,3.2717045393032285,8833.602256118716,13.411873802145315,4.224450331345032,5.307129737857382,0.952745792041803,1794,76,598,891,100.26648338054376,56.68005452708518,0.0008486847577071,False
0.37,0.9846956747991212,1.2,737.0,45.2907,0.3,68900.0,0.33,276.0,2700.0,28.992013814006047,5.2574351604696,14195.07493326792,19.60910476964044,7.65480098056703,9.382909044365604,2.3973658200974297,2815,96,932,1411,112.92108259471289,63.75951908801169,0.0012489387947934,False
0.38,1.0000593891057077,1.2,738.0,45.2907,0.3,68900.0,0.33,276.0,2700.0,29.61470940079752,5.511871138093007,14882.05207285112,20.108133421630317,7.959895535534605,9.506575979167206,2.448024397441597,2709,96,902,1350,111.32867338775786,62.35775885595529,0.0012464314945736,False
0.39,0.7052059445760979,1.2,739.0,45.2907,0.3,68900.0,0.33,276.0,2700.0,15.191703402575069,2.8381447404232767,7662.990799142847,11.566577488952609,3.343884727892197,3.62512591362246,0.5057399874689201,1393,64,466,688,84.70128785299113,48.0597408164966,0.000689276129503,False
0.4,1.0195364464069565,1.2,740.0,45.2907,0.3,68900.0,0.33,276.0,2700.0,30.24378210204128,5.9147151338550925,15969.73086140875,20.749295011753627,8.357771297995864,9.494487090287652,2.4430561641407715,2778,98,930,1377,108.18465122381916,60.898047181187046,0.001216014354516,False
0.4100000000000001,0.9395018174817334,1.2,741.0,45.2907,0.3,68900.0,0.33,276.0,2700.0,25.6911658667814,5.122341197838148,13830.321234163,18.17555556166918,6.801177035596024,7.515610305112219,1.6788358377578758,2340,88,778,1167,102.07895569684771,57.42701067695465,0.0010043121236921,False
0.42,0.9896332669173736,1.2,742.0,45.2907,0.3,68900.0,0.33,276.0,2700.0,28.14133119040621,5.754510005638711,15537.17701522452,19.76883573426647,7.75201683278233,8.372495456139735,1.99750682714362,2532,92,850,1251,102.02297949617969,57.36147052274481,0.0010783774055408,False
0.43,1.053971169653413,1.2,743.0,45.2907,0.3,68900.0,0.33,276.0,2700.0,31.5033966510964,6.606711208579751,17838.120263165325,21.906173875430227,9.092100414832904,9.597222775666172,2.4853892062531537,3050,102,1016,1518,104.7202008575366,59.177255322799134,0.0011860364657758,False
0.44,0.7880879876687527,1.2,744.0,45.2907,0.2,68900.0,0.33,276.0,2700.0,17.89392752755891,3.7582551036606993,10147.288779883887,13.746798530503726,4.391704439528319,4.147128997055182,0.6334493358676192,5002,104,1268,2786,92.74985982811826,52.75947937635274,0.0007442499276893,False
0.45,1.1256525124268784,1.2,745.0,45.2907,0.3,68900.0,0.33,276.0,2700.0,35.24091500663868,7.738354122788125,20893.556131527937,24.40998750591728,10.751331339458115,10.8309275007214,3.0129772166699924,3287,106,1092,1641,103.20521513882426,58.50130220090613,0.0012705746711771,False
0.46,0.9262586992440828,1.2,746.0,45.2907,0.3,68900.0,0.33,276.0,2700.0,24.01261003292495,5.319040265886193,14361.408717892722,17.76520879600352,6.563198004027081,6.24740123692143,1.2441577381408877,2151,84,712,1071,91.02853719955682,51.56661312801478,0.0008815133888664,False
0.4700000000000001,0.9810240891023172,1.2,747.0,45.2907,0.3,68900.0,0.33,276.0,2700.0,26.625409790021894,6.03952491793938,16306.717278436325,19.490726291358325,7.583021893993529,7.134683498663573,1.5434969760541497,2485,90,814,1242,90.93501198463322,51.60207012999463,0.0009468428122319,False
0.4800000000000001,0.8924936169142345,1.2,748.0,45.2907,0.3,68900.0,0.33,276.0,2700.0,21.98723013603741,5.045311889485114,13622.342101609807,16.738921211037454,5.980761232398501,5.248308924999957,0.9354493429133868,2254,80,672,1182,92.66984657300104,52.45284796396227,0.0008112748254338,False
0.49,1.0481308498877533,1.2,749.0,45.2907,0.3,68900.0,0.33,276.0,2700.0,29.830620373223415,7.062098502038284,19067.66595550337,21.707862223564742,8.964740873511568,8.122758149658672,1.9026423714732843,2803,94,900,1421,97.88912005145306,55.14514144099434,0.0010063636608404,False
0.5,1.1188689888085046,1.2,750.0,45.2907,0.3,68900.0,0.33,276.0,2700.0,33.64657577051126,8.149844554828665,22004.5802980374,24.167508341755084,10.586568698025523,9.479067428756178,2.4367241431968587,3333,102,1008,1739,96.99149976343288,52.97176491832983,0.0011076962379574,False
0.04,0.5463048761784132,1.2,754.0,48.31008,0.1,68900.0,0.33,276.0,2700.0,14.908233118558522,0.2980306210846166,804.682676928465,7.869462691859664,1.8080840437922727,7.038770426698858,1.510053422707656,11838,192,3898,5985,744.6198694893095,425.0696479233059,0.0047718260072665,True
0.05,0.6558670492802762,1.2,755.0,48.31008,0.2,68900.0,0.33,276.0,2700.0,19.531619900416462,0.4880286981225049,1317.677484930763,10.350690966905669,2.8034493726159897,9.180928933510796,2.3154206744934847,4210,116,1392,2116,607.7269451526897,350.7369191381472,0.0053425043965073,True
0.06,0.3786055232935676,1.2,756.0,48.31008,0.1,68900.0,0.33,276.0,2700.0,8.333743669034886,0.2495599207289298,673.8117859681106,4.655908877811085,0.7677133208036979,3.677834791223801,0.5181534000747681,6946,136,2282,3517,312.2300207637463,179.50340253048557,0.0017123103480795,True
0.0699999999999999,0.3964715202687895,1.2,757.0,48.31008,0.1,68900.0,0.33,276.0,2700.0,8.765535404711263,0.3060753616447733,826.4034764408879,4.964628441573515,0.8536416223866311,3.800906963137749,0.5475662607418579,7383,142,2420,3747,268.944177955113,154.60445561827274,0.0015800631227036,False
0.08,0.4515305367943023,1.2,758.0,48.31008,0.2,68900.0,0.33,276.0,2700.0,10.50236195427517,0.4190221478785818,1131.359799272171,5.966489491440876,1.1542203459499103,4.535872462834294,0.7351981980713287,2329,80,766,1174,277.2623424667899,160.0454936052041,0.001672118433459,True
0.09,0.3979337788592471,1.2,759.0,48.31008,0.2,68900.0,0.33,276.0,2700.0,8.50360065486765,0.3811352154393998,1029.0650816863797,4.990251034093966,0.8609199198534243,3.5133496207736847,0.4797847044140245,1992,72,652,1008,229.7029628860899,132.60920003282894,0.0012566929045156,False
0.0999999999999999,0.636265268247455,1.2,760.0,48.31008,0.3,68900.0,0.33,276.0,2700.0,17.54180202367276,0.874995706081246,2362.4884064193643,9.884614794179576,2.6051411304079046,7.657187229493182,1.7301454243266583,1756,74,576,886,318.78936443656005,183.5562940471091,0.0024954807990044,True
0.11,0.7874565337992744,1.2,761.0,48.31008,0.3,68900.0,0.33,276.0,2700.0,24.60473988846321,1.3504730539841887,3646.2772457573096,13.729535403394818,4.383029421364831,10.875204485068393,3.032556367380642,2354,90,770,1193,348.25351877003743,199.02711788960312,0.0034653266704453,True
0.12,0.6078111265469432,1.2,762.0,48.31008,0.3,68900.0,0.33,276.0,2700.0,15.89353604761522,0.9499930481199788,2564.9812299239425,9.225237083067562,2.333312163564197,6.66829896454766,1.3833191154442184,1705,72,560,859,260.9354426849017,150.13726344123924,0.0018795889359522,False
0.13,0.4365562171715085,1.2,763.0,48.31008,0.3,68900.0,0.33,276.0,2700.0,9.17879761009582,0.5920204586162705,1598.4552382639304,5.686471965783963,1.0669797935844316,3.4923256443118555,0.4749593349681611,1395,60,456,705,173.78913382050587,100.22074640259004,0.00101371413121,False
0.14,0.638159644122898,1.2,764.0,48.31008,0.3,68900.0,0.33,276.0,2700.0,16.803780132610765,1.1705175891217852,3160.39749062882,9.92923628397237,2.6239085569106764,6.874543848638394,1.4533909677888912,1677,72,548,849,232.65361713781607,133.6371097460264,0.0017587298116041,False
0.15,0.5668213801880775,1.2,765.0,48.31008,0.3,68900.0,0.33,276.0,2700.0,13.637178653248704,1.0157198155230762,2742.4435019123057,8.31113746519687,1.9740506307031052,5.326041188051836,0.9583308151800292,1698,70,556,858,196.7505599100737,113.18903011295508,0.0012853916158136,False
0.16,0.6436692431254653,1.2,766.0,48.31008,0.3,68900.0,0.33,276.0,2700.0,16.646031814129476,1.323103902790954,3572.380537535576,10.059525954638763,2.678973238874259,6.586505859490712,1.355869336083305,1660,72,542,841,205.43671532193315,117.57178672737668,0.001542778918054,False
0.17,0.4931089996740292,1.2,767.0,48.31008,0.1,68900.0,0.33,276.0,2700.0,10.521655118876993,0.8840509219664869,2386.9374893095146,6.7735487807338846,1.4189254059862448,3.7481063381431055,0.5348744840197579,9025,156,2824,4663,151.35721654242536,87.30807475013005,0.000940837009159,False
0.18,0.5596063206805512,1.2,768.0,48.31008,0.3,68900.0,0.33,276.0,2700.0,12.827597532720205,1.1422692657076616,3084.127017410686,8.154607251868631,1.914650753362661,4.672990280851572,0.7723814876549995,1633,68,536,823,160.07773835556648,91.93129855862767,0.001060660890572,False
0.19,0.53459137410717,1.2,769.0,48.31008,0.3,68900.0,0.33,276.0,2700.0,11.712370136933888,1.0983097070014036,2965.43620890379,7.622041137407576,1.7173575287339082,4.090328999526312,0.6190478217325046,1557,64,512,783,144.75113898605392,83.30467504131616,0.0009508616611954,False
0.2,0.7880456187782401,1.2,770.0,48.31008,0.3,68900.0,0.33,276.0,2700.0,22.52482084127023,2.235726923307877,6036.462692931268,13.745639906527355,4.391122027471447,8.779180934742875,2.1553951041635697,2283,86,748,1155,189.59231965942809,107.14443663020516,0.0017949564216325,False
0.21,0.7083477875997917,1.2,771.0,48.31008,0.3,68900.0,0.33,276.0,2700.0,18.524394179472317,1.9256651958013284,5199.296028663587,11.646075739190636,3.380349919240409,6.878318440281676,1.4546847234390805,1760,74,578,887,168.42708557109927,95.66399485816602,0.0013749244910903,False
0.22,0.8183260938830325,1.2,772.0,48.31008,0.3,68900.0,0.33,276.0,2700.0,23.59515811113331,2.573166273174329,6947.548937570688,14.58519892265654,4.819999507812407,9.009959188476769,2.246833234638079,2441,88,800,1235,177.2615471715758,99.83131105482852,0.0017319575068286,False
0.23,0.9215535693321116,1.2,773.0,48.31008,0.3,68900.0,0.33,276.0,2700.0,28.84449026855464,3.291633875672967,8887.41146431701,17.620478453357265,6.479951094419937,11.224011815197375,3.1883172187469704,2613,96,862,1314,186.50858727564125,104.90107681102924,0.0020781588643376,False
0.24,0.9335478417109258,1.2,774.0,48.31008,0.3,68900.0,0.33,276.0,2700.0,29.26428229393411,3.4827609573766103,9403.454584916848,17.990522317149274,6.693511501946768,11.273759976784834,3.2107505445701574,2620,96,864,1318,179.90511392226708,101.07947045253358,0.0020270960736926,False
0.25,0.8191792592654606,1.2,775.0,48.31008,0.3,68900.0,0.33,276.0,2700.0,22.971762781527207,2.8387454242160066,7664.612645383218,14.609187648023315,4.832453326503392,8.362575133503892,1.9937079022873856,2150,84,714,1073,156.08120832769302,87.88591358999355,0.0014958728683364,False
0.26,0.6739967089497028,1.2,776.0,48.31008,0.3,68900.0,0.33,276.0,2700.0,16.065613352614264,2.0517186475201914,5539.640348304517,10.790360291217096,2.995076924424449,5.275253061397168,0.9433582769042576,1660,70,546,835,129.02422105207503,73.68046653658585,0.000990999541424,False
0.27,0.8943884365210907,1.2,777.0,48.31008,0.3,68900.0,0.33,276.0,2700.0,26.402669977470453,3.5231364681581065,9512.468464026888,16.795755272565675,6.012532299405583,9.606914704904778,2.4893958312474767,2552,92,838,1289,154.40594914223564,87.34715732635819,0.0016200543301263,False
0.28,0.6360983852333841,1.2,778.0,48.31008,0.3,68900.0,0.33,276.0,2700.0,14.159098750603372,1.9362976637967373,5228.003692251191,9.880688234515652,2.6034918837459124,4.278410516087721,0.6671942199491749,1378,64,456,688,118.14339080127672,67.47786230814606,0.0008515875965108,False
0.29,0.8031001939312561,1.2,779.0,48.31008,0.3,68900.0,0.33,276.0,2700.0,21.337219318935325,3.042816599093355,8215.60481755206,14.160163875030236,4.601169891570507,7.17705544390509,1.5583532924771517,1922,80,634,965,134.3527456179293,75.69016356158475,0.0012057800804773,False
0.3,0.8186270309906305,1.2,780.0,48.31008,0.3,68900.0,0.33,276.0,2700.0,21.884041004317748,3.226057482883045,8710.355203784224,14.59365837971326,4.824390008215082,7.2903826246044865,1.5983325253320366,2074,82,692,1030,131.46881898557038,74.31005558981613,0.001200755470356,False
0.31,0.7470681414888662,1.2,781.0,48.31008,0.3,68900.0,0.33,276.0,2700.0,18.342140178153574,2.7806376031184072,7507.721528419699,12.646188341632408,3.850530866189295,5.69595183652117,1.0698932630708875,1782,74,586,897,119.81603216351712,67.95739574133688,0.0009791405415742,False
0.32,0.9490898235073446,1.2,782.0,48.31008,0.3,68900.0,0.33,276.0,2700.0,28.191814137235685,4.442061123242491,11993.565032754725,18.475397102064345,6.976879967037951,9.71641703517134,2.5348188437954606,2623,94,864,1321,136.77588165979736,77.07951027283019,0.0014823773140064,False
0.33,0.7157005203653337,1.2,783.0,48.31008,0.3,68900.0,0.33,276.0,2700.0,16.61064023549025,2.6654893620611864,7196.821277565203,11.83309206458899,3.4666671099099493,4.777548170901261,0.8011777478487629,1629,70,538,816,108.97815549230634,62.00927567329124,0.0008728686284184,False
0.34,1.031207047374309,1.2,784.0,48.31008,0.3,68900.0,0.33,276.0,2700.0,32.353423195369494,5.417763838108354,14627.962362892556,21.138045357570583,8.602193186325243,11.215377837798908,3.184429348216889,2978,102,990,1487,134.62605484710596,76.17100896308992,0.0016128527856568,False
0.3500000000000001,0.8758929756044942,1.2,785.0,48.31008,0.3,68900.0,0.33,276.0,2700.0,23.685390608830147,4.055146166530168,10948.894649631451,16.24485253127926,5.706994915423129,7.440538077550887,1.6518487488929612,2259,86,750,1128,118.63220661352612,66.61903918003657,0.0011347194930206,False
0.36,0.9743229544816578,1.2,786.0,48.31008,0.3,68900.0,0.33,276.0,2700.0,28.64988561611351,5.059263313003178,13660.01094510858,19.275543222470883,7.453133528853695,9.374342393642628,2.3938702158505176,2806,96,928,1408,122.79325742823828,69.30414393126745,0.0013503387910076,False
0.37,0.9784073525445518,1.2,787.0,48.31008,0.3,68900.0,0.33,276.0,2700.0,28.645409723539437,5.193313403733271,14021.94619007983,19.40656481084956,7.532129949707486,9.238844912689874,2.338816545974216,2801,96,928,1403,121.48254270553238,68.19821805530033,0.0013177495995393,False
0.38,0.848840016991869,1.2,788.0,48.31008,0.3,68900.0,0.33,276.0,2700.0,21.751738560462407,4.017906678429005,10848.348031758314,15.454542105322364,5.2782551768776855,6.297196455140043,1.26034849844868,2052,80,680,1026,109.52372626269371,61.82750252921216,0.0009822833206505,False
0.39,0.9686662482856614,1.2,789.0,48.31008,0.3,68900.0,0.33,276.0,2700.0,27.66572476664568,5.270578906416638,14230.563047324924,19.094776700236228,7.344609094725793,8.570948066409454,2.0740301883091545,2802,96,928,1404,114.6880742433746,64.49512435342267,0.001210911373875,False
0.4,1.054125172303687,1.2,790.0,48.31008,0.3,68900.0,0.33,276.0,2700.0,32.22029774104576,6.310018261655987,17037.049306471166,21.91141473073459,9.095474427212238,10.30888301031117,2.7854561655562518,2951,102,986,1466,116.44425984594348,65.72050988982109,0.0013830701823399,False
0.4100000000000001,0.9174785595202504,1.2,791.0,48.31008,0.3,68900.0,0.33,276.0,2700.0,24.55815231384943,4.890073419487093,13203.198232615152,17.495580292314546,6.4084020941730735,7.062572021534884,1.5183286746859803,2180,86,728,1082,106.33291435674656,60.0299524510915,0.0010281984130671,False
0.42,0.9884020102809346,1.2,792.0,48.31008,0.3,68900.0,0.33,276.0,2700.0,28.07455110289552,5.740486187261954,15499.312705607275,19.72894727108104,7.72770088296572,8.345603831814476,1.9872146957037653,2566,92,858,1273,106.6975114268496,60.49261741756942,0.0011465755903323,False
0.43,0.988332456626474,1.2,793.0,48.31008,0.3,68900.0,0.33,276.0,2700.0,27.85380185918355,5.8220483283184885,15719.530486459918,19.72669510981899,7.726328740908082,8.127106749364561,1.9042804125895936,2593,92,866,1288,105.87736599091237,60.0758437438315,0.001111353776114,False
0.44,0.9738274413888612,1.2,794.0,48.31008,0.3,68900.0,0.33,276.0,2700.0,26.86570094419212,5.732045255320004,15476.52218936401,19.25967639660875,7.443586176180989,7.606024547583367,1.711540920860985,2574,92,858,1279,102.44385452286046,58.31871333769882,0.0010562047950706,False
0.45,0.7644253575864081,1.2,795.0,48.31008,0.3,68900.0,0.33,276.0,2700.0,16.71980569462931,3.571104527586016,9641.98222448224,13.106741413249456,4.074019497503522,3.613064281379854,0.5029149699175064,1621,68,522,816,85.52349891771544,48.66639263321165,0.0007323852098657,False
0.46,0.8036259031681017,1.2,796.0,48.31008,0.2,68900.0,0.33,276.0,2700.0,18.24944182266516,3.993511577526439,10782.481259321385,14.174742074989304,4.608617852157753,4.074699747675854,0.6151062746313141,5054,106,1298,2801,97.267417375874,55.26910412091815,0.0007872454541022,False
0.4700000000000001,0.8009785963163505,1.2,797.0,48.31008,0.08,68900.0,0.33,276.0,2700.0,17.97352731583375,4.006332536505164,10817.097848563944,14.10140141106136,4.571190076819088,3.872125904772389,0.5648575403139233,57622,254,7228,38106,126.3489079983282,71.10468606702221,0.0007755088870897,False
0.4800000000000001,1.0159902392569438,1.2,798.0,48.31008,0.3,68900.0,0.33,276.0,2700.0,28.283255879182835,6.556358067840016,17702.166783168042,20.631848159080583,8.28439833850268,7.651407720102252,1.728040270662664,2809,94,892,1433,98.28261417819972,55.58876497256166,0.0010430564082239,False
0.49,1.1335333196241963,1.2,799.0,48.31008,0.3,68900.0,0.33,276.0,2700.0,34.74944415791359,8.267210329287321,22321.467889075768,24.69314166809381,10.9448164612504,10.056302489819778,2.6776061319630795,3267,104,1022,1678,105.43453970962264,60.21114881691489,0.0012382264583221,False
0.5,0.9625999605680926,1.2,800.0,48.31008,0.3,68900.0,0.33,276.0,2700.0,25.07892399085195,6.007931609913838,16221.415346767362,18.901815189718043,7.229360432929154,6.177108801133908,1.221428823015316,2723,88,798,1440,92.0086598588959,51.93055567273547,0.0009373454065888,False
0.03,0.4695053355879026,1.2,803.0,51.32946,0.1,68900.0,0.33,276.0,2700.0,12.051232393172144,0.1807119372298155,487.922230520502,6.3100580069113406,1.2645424182508298,5.741174386260804,1.0838304810210142,9819,170,3242,4950,808.7341742461418,460.6010698754391,0.0051727300955008,True
0.04,0.491311860911581,1.2,804.0,51.32946,0.1,68900.0,0.33,276.0,2700.0,12.700126730996104,0.2538684933333692,685.444932000097,6.737766993636693,1.4067845634877016,5.962359737359413,1.1529160701543324,10524,176,3458,5331,702.8682813607043,401.1329110348321,0.0041817225141441,True
0.05,0.4326160501509005,1.2,805.0,51.32946,0.08,68900.0,0.33,276.0,2700.0,10.338239364482767,0.2581941847242698,697.1242987555285,5.613727959184643,1.0447175841648582,4.724511405298126,0.7865233994405884,12907,194,4248,6529,483.02261189229966,276.41085621383195,0.0026599536584617,True
0.06,0.5260384755041063,1.2,806.0,51.32946,0.2,68900.0,0.33,276.0,2700.0,13.68671921596466,0.4101491871368235,1107.4028052694234,7.443558478370776,1.6529315661638608,6.243160737593883,1.2427823790270374,2964,94,976,1494,445.5260479866413,256.70266013162023,0.0031269357178074,True
0.0699999999999999,0.7077683713417721,1.2,807.0,51.32946,0.2,68900.0,0.33,276.0,2700.0,21.55140864931365,0.7535809252058571,2034.668498055814,11.631396075991336,3.3736062468401635,9.920012573322316,2.6200253216343063,4573,122,1510,2302,507.7221169045615,290.8337212158004,0.0046343545245157,True
0.08,0.4301784071436379,1.2,808.0,51.32946,0.08,68900.0,0.33,276.0,2700.0,9.750152301919542,0.3889337617843565,1050.1211568177623,5.568919163295373,1.0310879637212005,4.181233138624169,0.6421542019368438,12107,186,3988,6119,273.0580852494025,157.36336840422402,0.0016587202705312,False
0.09,0.7585767323122206,1.2,809.0,51.32946,0.2,68900.0,0.33,276.0,2700.0,23.608761978378137,1.0608674749973726,2864.342182492906,12.950709266978452,3.997819784194655,10.658052711399684,2.9369523091972822,4964,126,1632,2510,429.7773750687716,246.14965344604707,0.004155009099268,True
0.0999999999999999,0.4138348900965836,1.2,810.0,51.32946,0.3,68900.0,0.33,276.0,2700.0,8.876300149989573,0.4417206123970859,1192.645653472132,5.272349600564393,0.9425048764301742,3.60395054942518,0.5007842640330883,1692,66,556,852,222.27058314238735,128.32526175133867,0.0012782182629594,False
0.11,0.5937432316197573,1.2,811.0,51.32946,0.2,68900.0,0.33,276.0,2700.0,15.494717201010356,0.8494218061742841,2293.438876670567,8.906754013375286,2.205778521820687,6.58796318763507,1.356356715646403,3362,100,1100,1706,278.20473845126344,160.36630472962435,0.0020751907444315,True
0.12,0.5320242951962939,1.2,812.0,51.32946,0.3,68900.0,0.33,276.0,2700.0,12.808185595067094,0.7648720209670902,2065.154456611144,7.568278007540674,1.6978601902010892,5.23990758752642,0.9329881692339992,1811,70,592,917,237.7624394593841,137.0038000403731,0.0015426210403038,False
0.13,0.5954420082318707,1.2,813.0,51.32946,0.3,68900.0,0.33,276.0,2700.0,15.176630202117364,0.9818795770976708,2651.0748581637117,8.944948567451354,2.220941538968479,6.23168163466601,1.2390619618708083,1652,70,538,839,670.4133463065903,364.1668402048008,0.0017539193808302,True
0.14,0.4521761328741974,1.2,814.0,51.32946,0.3,68900.0,0.33,276.0,2700.0,9.557083653848736,0.6632488356084445,1790.7718561428,5.978688762319816,1.1580762255134875,3.5783948915289194,0.494827389905043,1373,60,448,695,182.8729033264205,105.22452315558483,0.0010564789720233,False
0.15,0.5119640691312355,1.2,815.0,51.32946,0.3,68900.0,0.33,276.0,2700.0,11.529419828967384,0.8576379037019766,2315.622339995337,7.153854457809089,1.5502124444754557,4.375565371158295,0.6925745407734789,1753,68,576,883,183.99182466013025,106.01095706494776,0.0011774102077136,False
0.16,0.6837076561473778,1.2,816.0,51.32946,0.3,68900.0,0.33,276.0,2700.0,18.424499133680207,1.4653812883550164,3956.529478558544,11.029261620309196,3.101019604575496,7.395237513371011,1.6356383162204795,1695,74,558,852,228.7584255186385,130.6852031467515,0.0018566565137989,False
0.17,0.7017569889077906,1.2,817.0,51.32946,0.3,68900.0,0.33,276.0,2700.0,19.042283249067783,1.6083043130327055,4342.421645188305,11.479593999140173,3.304142201924288,7.562689249927613,1.6958378888915826,1848,76,604,936,215.7600879512368,123.29216027839962,0.0018200061570327,False
0.18,0.5583378879066199,1.2,818.0,51.32946,0.3,68900.0,0.33,276.0,2700.0,12.778569112973962,1.1378567079304982,3072.2131114123454,8.127223914654916,1.904324553501304,4.651345198319046,0.7664678455708056,1662,68,546,837,169.1887314908169,97.149570448163,0.0011256275757357,False
0.19,0.5844891204077403,1.2,819.0,51.32946,0.3,68900.0,0.33,276.0,2700.0,13.629939748187535,1.2804788200705006,3457.292814190352,8.699962321872906,2.1243129261250155,4.929977426314629,0.8438341060545149,1568,68,516,788,167.84317453361066,96.21207984229422,0.0011415300147981,False
0.2,0.6855002308753897,1.2,820.0,51.32946,0.3,68900.0,0.33,276.0,2700.0,17.696230986022673,1.7528679377831222,4732.74343201443,11.073620309067488,3.1208301262929354,6.622610676955185,1.3679621885098132,1747,74,574,880,185.27997502787863,105.54913936120406,0.0014477322711233,False
0.21,0.6827419254694873,1.2,821.0,51.32946,0.3,68900.0,0.33,276.0,2700.0,17.37818189731347,1.805312906174657,4874.344846671575,11.005397319891014,3.0903798334041648,6.372784577422458,1.2850669272295077,1644,72,538,831,174.87135911793877,99.85602885421534,0.0013655423398269,False
0.22,0.7732966305873779,1.2,822.0,51.32946,0.3,68900.0,0.33,276.0,2700.0,21.36384536948213,2.3277218715927512,6284.849053300429,13.345054028476438,4.191348584635655,8.018791341005693,1.863626713042904,2052,82,674,1035,180.711321014486,102.20505795277202,0.0016469156736047,False
0.23,0.8677838688813301,1.2,823.0,51.32946,0.3,68900.0,0.33,276.0,2700.0,25.926404911749746,2.956054059640402,7981.345961029085,16.006027078706666,5.576233119892286,9.920377833043077,2.620179060251884,2478,92,816,1248,187.65987145628097,105.45493716118295,0.0019631676403583,False
0.24,0.9037079390873596,1.2,824.0,51.32946,0.3,68900.0,0.33,276.0,2700.0,27.61643153254792,3.2850188660102693,8869.550938227727,17.076601910344795,6.170367363989503,10.539829622203126,2.885348497979234,2466,92,812,1242,185.99156024505308,104.639409288628,0.0020197242666378,False
0.25,0.721032732176957,1.2,825.0,51.32946,0.3,68900.0,0.33,276.0,2700.0,18.30919336792122,2.2559242475152583,6090.9954682911975,11.969566532743729,3.5301272010432214,6.3396268351774925,1.274202953527963,1762,74,578,889,152.8675898737054,86.99684628439904,0.001233485124815,False
0.26,0.6342367133093423,1.2,826.0,51.32946,0.3,68900.0,0.33,276.0,2700.0,14.418570479544917,1.8376030740211764,4961.5282998571765,9.83693275606348,2.5851380265558896,4.581637723481435,0.7475349525347132,1368,64,454,681,130.52782810778976,74.42064125218538,0.0009661222957157,False
0.27,0.8711232665640922,1.2,827.0,51.32946,0.3,68900.0,0.33,276.0,2700.0,25.177387621244637,3.357723350067621,9065.853045182575,16.104177232469624,5.629847412832835,9.07321038877501,2.272124062765214,2492,90,818,1259,160.10646755787968,90.6870619829774,0.0016351007237567,False
0.28,0.7440879745415716,1.2,828.0,51.32946,0.3,68900.0,0.33,276.0,2700.0,18.77353103081144,2.5823181830258664,6972.259094169839,12.567874791106638,3.8129598628462342,6.205656239704803,1.2306416798203683,1762,74,578,889,138.93394558384176,78.91188604916624,0.0011456765181943,False
0.29,0.612581434589317,1.2,829.0,51.32946,0.2,68900.0,0.33,276.0,2700.0,13.074209286125138,1.8446801443358776,4980.63638970687,9.334361350350315,2.377579437047745,3.739847935774822,0.5328992927118672,2887,90,964,1435,118.37067746078954,67.36667845381801,0.0008321158298969,False
0.3,0.7627181784494479,1.2,830.0,51.32946,0.3,68900.0,0.33,276.0,2700.0,19.24048247323492,2.829523703220622,7639.71399869568,13.061107705675033,4.051682904886724,6.179374767559885,1.222159201666102,1742,74,574,875,134.17503464467194,76.19050440719484,0.0011096603132801,False
0.31,0.9907760606873616,1.2,831.0,51.32946,0.3,68900.0,0.33,276.0,2700.0,30.762783392125293,4.705837301284025,12705.760713466869,19.80589239925207,7.774629706035517,10.956890992873223,3.068792404751492,2844,100,940,1428,152.464160077774,85.61574678743716,0.0017753048061527,False
0.32,0.7114684616594663,1.2,832.0,51.32946,0.3,68900.0,0.33,276.0,2700.0,16.60265219206698,2.587795212015497,6987.047072441841,11.725283937841851,3.416817053531332,4.877368254225129,0.8290218415158357,1609,70,530,808,120.5664241170236,68.67300015439723,0.0009443182629615,False
0.33,0.7324230477247498,1.2,833.0,51.32946,0.3,68900.0,0.33,276.0,2700.0,17.332738281987417,2.78463553973323,7518.51595727972,12.263487775051988,3.66813517363236,5.069250506935429,0.8834996338991297,1700,72,562,851,116.14911194568386,66.02840799246395,0.000953862082549,False
0.34,0.6577578459831585,1.2,834.0,51.32946,0.3,68900.0,0.33,276.0,2700.0,14.060824327271938,2.308022030531767,6231.659482435772,10.396159559613803,2.823063396743363,3.6646647676581328,0.5150413662115958,1315,62,436,655,103.6280412556525,58.94780217509496,0.0008043768895707,False
0.3500000000000001,0.8311343097528339,1.2,835.0,51.32946,0.3,68900.0,0.33,276.0,2700.0,21.483915024692887,3.669887939306148,9908.697436126598,14.947255845056954,5.009124134999348,6.536659179635933,1.3392361956932,2112,82,704,1050,122.64491069030562,69.4631327239031,0.0010847823616417,False
0.36,1.012996972561277,1.2,836.0,51.32946,0.3,68900.0,0.33,276.0,2700.0,30.81480514557653,5.448948828306517,14712.161836427596,20.53296012316296,8.222789769839068,10.281845022413568,2.7738409415325505,2847,100,946,1422,133.9274805756888,75.30264451591411,0.0015503798546743,False
0.37,0.7723053521096692,1.2,837.0,51.32946,0.3,68900.0,0.33,276.0,2700.0,18.385499656396565,3.2952300413118416,8897.121111541972,13.31832675220267,4.17813316892031,5.067172904193894,0.882903127608468,1813,76,602,904,108.46849515959627,61.52098585893833,0.0009324532448681,False
0.38,0.6927260070703155,1.2,838.0,51.32946,0.3,68900.0,0.33,276.0,2700.0,14.84010564688822,2.7046964248502423,7302.680347095654,11.25324677596362,3.201493808483375,3.5868588709245994,0.4967973836331327,1379,64,462,680,98.64887788630138,56.32542709574261,0.0007799570907482,False
0.39,1.077043574865511,1.2,839.0,51.32946,0.3,68900.0,0.33,276.0,2700.0,33.80987072714655,6.468687368714711,17465.45589552972,22.69799444476526,9.606637413724563,11.111876282381292,3.137950045009852,3077,104,1024,1535,129.04475055007043,73.42485809193765,0.0015749291657801,False
0.4,1.083746624258784,1.2,840.0,51.32946,0.3,68900.0,0.33,276.0,2700.0,33.960769152205536,6.658112543887943,17976.903868497444,22.930544093675746,9.759561956730543,11.03022505852979,3.1014494128426024,3039,104,1012,1515,126.82775208683074,71.18110185594985,0.0015475886346846,False
0.4100000000000001,0.7351373211749274,1.2,841.0,51.32946,0.3,68900.0,0.33,276.0,2700.0,16.113931733487803,3.159008200512959,8529.32214138499,12.334009294609038,3.7015172983695375,3.779922438878765,0.5425090978565792,1489,66,498,736,97.93651481199548,55.62216749389627,0.0007881336780054,False
0.42,1.0961951260865463,1.2,842.0,51.32946,0.3,68900.0,0.33,276.0,2700.0,34.2096538306209,7.028857760084284,18977.91595222757,23.36541729695747,10.047715596459971,10.84423653366343,3.0188578363756893,3070,104,1022,1531,121.72562522934729,68.59896394457333,0.0014890560670055,False
0.43,0.8134551725946417,1.2,843.0,51.32946,0.3,68900.0,0.33,276.0,2700.0,19.18750828169393,3.9587952091582217,10688.747064727198,14.448592032908255,4.749289094630971,4.738916248785673,0.790493885472749,1921,76,640,951,99.72805600811412,56.4777028729558,0.0008798551260736,False
0.44,1.0882298002017394,1.2,844.0,51.32946,0.3,68900.0,0.33,276.0,2700.0,33.254659651140315,7.137616170848607,19271.56366129124,23.08670962368264,9.86271349042467,10.167950027457676,2.7250973195760624,2941,102,984,1459,116.70452597006434,65.99907785098328,0.0013918377432172,False
0.45,0.9806774405741724,1.2,845.0,51.32946,0.3,68900.0,0.33,276.0,2700.0,27.01970388482347,5.888581620379702,15899.170375025196,19.479567227774663,7.576267396635891,7.540136657048805,1.6876857762561892,2585,92,858,1288,107.50199287083063,60.89912515577233,0.0011112407106233,False
0.46,1.0648232579317478,1.2,846.0,51.32946,0.3,68900.0,0.33,276.0,2700.0,31.434118286119805,7.025987164121014,18970.165343126737,22.276939577903736,9.331837261943509,9.157178708216067,2.3058500978224945,3144,100,1002,1605,111.94845239367984,62.5808267701705,0.0012602666018176,False
0.4700000000000001,1.0302348948611957,1.2,847.0,51.32946,0.3,68900.0,0.33,276.0,2700.0,29.273724140608927,6.661878790327328,17987.072733883786,21.105532041648573,8.581659588283724,8.168192098960354,1.9197807979563963,2714,94,898,1355,106.09754624722876,60.4307099089323,0.0011503301514989,False
0.4800000000000001,1.0413525879392016,1.2,848.0,51.32946,0.3,68900.0,0.33,276.0,2700.0,29.671149385004533,6.889452509237185,18601.5217749404,21.478776995123493,8.818376349110006,8.19237238988104,1.9289238398728203,2756,94,894,1389,105.49239619419733,59.47052987467747,0.0011475168398392,False
0.49,1.1514091933362964,1.2,849.0,51.32946,0.3,68900.0,0.33,276.0,2700.0,35.82541928197072,8.530824234681363,23033.22543363968,25.341200308642005,11.392008286911889,10.484218973328712,2.8611840522305254,3669,108,1124,1901,113.54873186854796,64.621726147633,0.0013566299121812,False
0.5,0.9744540924324856,1.2,850.0,51.32946,0.3,68900.0,0.33,276.0,2700.0,25.68581704462841,6.159654873357956,16631.06815806648,19.279743423766,7.455661559491156,6.406073620862415,1.2960066861332002,2689,88,806,1406,98.74942632602988,55.699210692222415,0.0010093437682439,False
0.04,0.457334350110873,1.2,854.0,54.34884,0.1,68900.0,0.33,276.0,2700.0,11.411821336676926,0.2281023854469857,615.8764407068616,6.076535336746099,1.1891676704365683,5.335285999930827,0.9610652849895824,9641,166,3170,4880,656.1578220530959,374.8921719084502,0.0038997503682928,True
0.05,0.404850685298422,1.2,855.0,54.34884,0.1,68900.0,0.33,276.0,2700.0,9.370037701825408,0.2339891431578361,631.7706865261574,5.112181634607005,0.8958580175446825,4.257856067218402,0.6618688743868464,7893,148,2592,3999,456.6584909221637,261.6279311267993,0.0025137137226422,True
0.06,0.7321449398946964,1.2,856.0,54.34884,0.2,68900.0,0.33,276.0,2700.0,23.001346053778946,0.6895879922712523,1861.8875791323808,12.256272510330758,3.66472560501412,10.745073543448184,2.9751376127428677,4922,126,1626,2477,661.3158227202424,377.6255291326482,0.0061477813642407,True
0.0699999999999999,0.7010083921687797,1.2,857.0,54.34884,0.2,68900.0,0.33,276.0,2700.0,21.22201666719103,0.7420522058315678,2003.540955745233,11.460753696675706,3.295555668064448,9.761262970515324,2.55350346223288,4507,120,1490,2266,545.187570323125,311.6204247377589,0.0048273609267465,True
0.08,0.7011556879144654,1.2,858.0,54.34884,0.2,68900.0,0.33,276.0,2700.0,20.99640112159033,0.8387837145711877,2264.716029342206,11.464459648189768,3.2972440612550704,9.531941473400568,2.4584603466838826,4496,120,1488,2258,477.8964638669713,273.4157408291958,0.0042178081698356,True
0.09,0.6833227772938117,1.2,859.0,54.34884,0.3,68900.0,0.33,276.0,2700.0,19.91705991640617,0.8947408822086341,2415.800381963312,11.019748017986284,3.096776505918984,8.89731189841989,2.20203562371035,2041,80,668,1033,429.8640552495625,246.70966943908064,0.0036074878306567,True
0.0999999999999999,0.5019978365997966,1.2,860.0,54.34884,0.2,68900.0,0.33,276.0,2700.0,12.013469062654972,0.5985790580303557,1616.1634566819605,6.951722882918422,1.4799247858414517,5.0617461797365495,0.881345727811096,2649,86,868,1341,280.5624218276687,161.9322439668764,0.0017784260395093,True
0.11,0.5022216017030817,1.2,861.0,54.34884,0.3,68900.0,0.33,276.0,2700.0,11.846697636769097,0.6487807301410138,1751.7079713807373,6.956233811970707,1.4814808435011442,4.890463824798388,0.8327001133601304,1728,68,562,879,262.0799714658541,150.62929767953236,0.0016282519171679,False
0.12,0.4323722371978009,1.2,862.0,54.34884,0.2,68900.0,0.33,276.0,2700.0,9.190652033804096,0.5478200072913102,1479.1140196865376,5.609239463714054,1.0433494317802543,3.581412570090043,0.4955294244889441,2097,74,682,1068,210.41216311475824,121.47740234541617,0.0012117982118071,False
0.13,0.4551688304471648,1.2,863.0,54.34884,0.1,68900.0,0.33,276.0,2700.0,9.815793513753473,0.6334251923540175,1710.2480193558472,6.0353760071608615,1.1760534006153065,3.7804175065926096,0.542628208261289,8358,152,2770,4197,194.7698313132063,112.39340115664004,0.0012079393680043,False
0.14,0.4606524484283958,1.2,864.0,54.34884,0.1,68900.0,0.33,276.0,2700.0,9.84954150733116,0.683720885352214,1846.0463904509777,6.139830002238792,1.2094351445638951,3.709711505092368,0.5257142592116811,8349,152,2772,4185,184.5786768395228,106.43368731676776,0.0011477800718641,False
0.15,0.7519539593112681,1.2,865.0,54.34884,0.3,68900.0,0.33,276.0,2700.0,21.86709433489833,1.6329634916467988,4409.0014274463565,12.77506199632981,3.9126324209036105,9.09203233856852,2.279668929256812,2177,82,706,1112,278.5432201630438,158.85599673573418,0.0025345350381874,True
0.16,0.5619172064857298,1.2,866.0,54.34884,0.3,68900.0,0.33,276.0,2700.0,13.264923037764556,1.0526152006817626,2842.061041840759,8.204599343913333,1.9335528566697064,5.060323693851224,0.8809376559879438,1578,68,516,798,203.2521031166556,116.78364999684707,0.0013405287019841,False
0.17,0.86408651464535,1.2,867.0,54.34884,0.3,68900.0,0.33,276.0,2700.0,27.184897561489063,2.300426529588513,6211.151629888985,15.897682962302934,5.51725356702046,11.287214599186132,3.216827037431947,2552,94,842,1283,270.7182277558797,153.75601421577755,0.0029092329224515,False
0.18,0.8481644741850664,1.2,868.0,54.34884,0.3,68900.0,0.33,276.0,2700.0,26.08306180796734,2.3352610504799074,6305.20483629575,15.435042555624124,5.267821559161542,10.648019252343216,2.932560508681634,2435,90,794,1238,252.03651279586452,142.7406508476472,0.0026305888829083,False
0.19,0.7733809899671028,1.2,869.0,54.34884,0.3,68900.0,0.33,276.0,2700.0,22.02267411884437,2.077788585282899,5610.029180263828,13.34732970259653,4.192474461101862,8.67534441624784,2.1146858758189637,2282,86,748,1154,224.32616703520537,127.24418090573852,0.0020624694288335,False
0.2,0.5874093975202885,1.2,870.0,54.34884,0.3,68900.0,0.33,276.0,2700.0,13.572021045968077,1.3404469437776614,3619.2067481996855,8.764986185877879,2.149814118665338,4.807034860090198,0.8093671748876767,1589,68,524,797,173.06547168923225,99.51649007705528,0.001160451625879,False
0.21,0.6591574559406559,1.2,871.0,54.34884,0.3,68900.0,0.33,276.0,2700.0,16.35161175392094,1.6975230411184343,4583.312211019773,10.42987429937784,2.837637553183255,5.921737454543097,1.1401145120648208,1593,70,514,816,179.90152015292256,102.86995018582073,0.0013445505110322,False
0.22,0.7003496242558986,1.2,872.0,54.34884,0.3,68900.0,0.33,276.0,2700.0,17.965447746097354,1.9538981330203864,5275.524959155043,11.444185811094762,3.2880111490661914,6.521261935002592,1.3341130160458052,1746,74,574,879,182.8074851778199,104.12400351962933,0.0015047653849088,False
0.23,0.6625829896604144,1.2,873.0,54.34884,0.3,68900.0,0.33,276.0,2700.0,16.125717791654562,1.8289750408294565,4938.232610239533,10.512598549962128,2.8735070424568554,5.613119241692434,1.044532001627399,1638,70,530,837,165.8997301134905,94.45085431581288,0.0012194161174914,False
0.24,0.5795948923596401,1.2,874.0,54.34884,0.3,68900.0,0.33,276.0,2700.0,12.601164393853754,1.4831868093669685,4004.604385290815,8.591466421126599,2.08199907388592,4.009697972727155,0.5988122645189513,1476,64,486,741,139.98433061105845,80.33323121057917,0.0009679585840335,False
0.25,0.8384727465454296,1.2,875.0,54.34884,0.3,68900.0,0.33,276.0,2700.0,23.94526967196292,2.960433785520472,7993.171220905274,15.156553371142053,5.1195807578810575,8.788716300820868,2.1591469723605856,2443,88,800,1237,178.81048635709004,101.22189305431864,0.0017905826764048,False
0.26,0.7302197882414636,1.2,876.0,54.34884,0.3,68900.0,0.33,276.0,2700.0,18.53026121132272,2.372122869152289,6404.73174671118,12.20637943395112,3.64117846254116,6.3238817773715965,1.2690555933888712,1761,74,578,888,156.98966011858712,89.2678297523258,0.0012774829808698,False
0.27,0.8323922413112028,1.2,877.0,54.34884,0.3,68900.0,0.33,276.0,2700.0,23.197929391230765,3.090496489015748,8344.340520342519,14.983036844710174,5.027949260693209,8.214892546520591,1.937452771677461,2234,84,738,1121,165.10341925038915,93.69235070741648,0.0015866646711955,False
0.28,0.9638652737310583,1.2,878.0,54.34884,0.3,68900.0,0.33,276.0,2700.0,29.975145737319465,4.150544241936989,11206.469453229867,18.941986982747284,7.253302559199101,11.033158754572176,3.1027583172621123,2854,100,944,1432,174.86197036460155,98.07637790953083,0.0020183883175276,False
0.29,0.9541151687659406,1.2,879.0,54.34884,0.3,68900.0,0.33,276.0,2700.0,29.183170438288005,4.180479511399477,11287.294680778588,18.633475375912884,7.070122149416649,10.549695062375122,2.8896426380171727,2537,94,836,1277,168.6300679736621,94.37657624323576,0.0018993619277739,False
0.3,0.6547650747013345,1.2,880.0,54.34884,0.3,68900.0,0.33,276.0,2700.0,14.58068003892459,2.130553338074072,5752.494012799995,10.32423287531912,2.792057755170545,4.256447163605472,0.6615044170964732,1359,64,448,681,126.6191852399998,72.26169361797707,0.0009388678308946,False
0.31,0.8417072905559841,1.2,881.0,54.34884,0.2,68900.0,0.33,276.0,2700.0,22.8108850307534,3.4732930552713843,9377.891249232738,15.249234660691872,5.168755116787565,7.561650370061525,1.695462061516181,4791,124,1594,2390,148.29563731075504,83.76455029602073,0.0013677776723179,False
0.32,0.6269101802806997,1.2,882.0,54.34884,0.3,68900.0,0.33,276.0,2700.0,13.163303996552942,2.03749950073325,5501.248651979775,9.6655808153428,2.5136959453163694,3.4977231812101426,0.4761964445831195,1405,62,462,706,112.63501459724236,64.49501302204239,0.0008412603629842,False
0.33,0.7684787410724221,1.2,883.0,54.34884,0.3,68900.0,0.33,276.0,2700.0,18.937491250516597,3.0494197795405333,8233.43340475944,13.215383697086828,4.127366191643115,5.722107553429765,1.0779464121025817,1892,78,626,947,129.98798465450017,73.47791259647667,0.001085351494284,False
0.34,1.009548499396392,1.2,884.0,54.34884,0.3,68900.0,0.33,276.0,2700.0,31.101032954083216,5.204857497089685,14053.115242142148,20.419312661035256,8.152178448859713,10.68172029304796,2.9473209517700285,3053,102,1012,1529,151.3631540652133,85.02924370605136,0.0017435004984444,False
0.3500000000000001,0.8538849272701738,1.2,885.0,54.34884,0.3,68900.0,0.33,276.0,2700.0,22.590330739969463,3.863510689479549,10431.478861594784,15.600526144695191,5.356589924463826,6.989804595274272,1.4930792349842767,2057,82,686,1022,131.02021760343496,73.87973242269719,0.0012136011371076,False
0.36,0.9239742533812698,1.2,886.0,54.34884,0.3,68900.0,0.33,276.0,2700.0,25.94408245622493,4.572218744223232,12344.990609402726,17.694869484854124,6.522694714434224,8.249212971370806,1.9504759702109924,2340,88,776,1170,135.2897632417067,75.98930395602525,0.001370108166516,False
0.37,0.9859265188969688,1.2,887.0,54.34884,0.3,68900.0,0.33,276.0,2700.0,29.060088930897383,5.270029057094495,14229.078454155137,19.648865208033865,7.678961196981861,9.411223722863522,2.4089321398873667,2711,96,902,1352,135.59166721409397,76.56591163164644,0.0015019911983221,False
0.38,0.6800484962069705,1.2,888.0,54.34884,0.3,68900.0,0.33,276.0,2700.0,14.332614879064622,2.608273178963759,7042.337583202149,10.938963478060804,3.0608270825676893,3.393651401003817,0.4525539036039303,1388,64,466,683,99.99852087051684,57.20101783715603,0.0008047430332542,False
0.39,0.9451665746880114,1.2,889.0,54.34884,0.3,68900.0,0.33,276.0,2700.0,26.411365281571687,5.025978806827618,13570.142778434569,18.35242777067909,6.904637733285169,8.058937510892598,1.8786589264575504,2293,88,762,1144,126.9557856499998,71.45886571519061,0.0012976510758539,False
0.4,1.0323098194961386,1.2,890.0,54.34884,0.3,68900.0,0.33,276.0,2700.0,30.96669203961711,6.059297121370264,16360.102227699714,21.174955956635205,8.625523982636604,9.791736082981906,2.5662268612663404,2880,100,958,1437,130.63952833325908,73.96072836364529,0.0014945489089788,False
0.4100000000000001,0.7606618072764861,1.2,891.0,54.34884,0.3,68900.0,0.33,276.0,2700.0,17.195372387186712,3.3807035345212344,9127.899543207332,13.00623718381672,4.024880854805752,4.189135203369991,0.6441773202845176,1535,68,514,758,104.19622722326709,59.18655515453308,0.0008752698103128,False
0.42,0.9553241792074988,1.2,892.0,54.34884,0.3,68900.0,0.33,276.0,2700.0,26.30901985950663,5.369724626150289,14498.25649060578,18.671600969943658,7.092673259128024,7.637418889562973,1.7229486329777348,2325,88,774,1158,119.2306118366714,67.28238220671605,0.0012058063905503,False
0.43,0.7478999266426167,1.2,893.0,54.34884,0.3,68900.0,0.33,276.0,2700.0,16.334956996616803,3.3454966828666377,9032.841043739922,12.668086038339789,3.861058883787618,3.6668709582770154,0.5155622009209804,1495,66,502,736,98.0127870552052,55.78772421981905,0.0008261962473258,False
0.44,1.0637302625089649,1.2,894.0,54.34884,0.3,68900.0,0.33,276.0,2700.0,31.83109211122756,6.824431312067806,18425.964542583075,22.239462934694007,9.307509152585716,9.591629176533552,2.48307784051791,3079,102,1016,1541,123.82785499466516,69.97089259771748,0.0014081405074331,False
0.45,0.8131931998994744,1.2,895.0,54.34884,0.3,68900.0,0.33,276.0,2700.0,18.83729517379558,4.047539660398426,10928.35708307575,14.44126180408847,4.745504918232293,4.396033369707112,0.6979652578338671,1848,74,608,918,100.98467573482614,57.080834473509135,0.0008990068754165,False
0.46,1.081525934618226,1.2,896.0,54.34884,0.3,68900.0,0.33,276.0,2700.0,32.393891212142044,7.246734937106126,19566.18433018654,22.853376372642145,9.708726040724946,9.540514839499902,2.46199110361882,3167,102,1022,1608,118.78176647408598,67.71148538020174,0.001375477327338,False
0.4700000000000001,1.0677470945788563,1.2,897.0,54.34884,0.3,68900.0,0.33,276.0,2700.0,31.374230822502422,7.155497860572303,19319.844223545217,22.377339718574955,9.397118118721991,8.99689110392747,2.2416202581496885,3234,100,1002,1675,118.10289901729762,65.01324695895454,0.0013080690349828,False
0.4800000000000001,1.0120600913404176,1.2,898.0,54.34884,0.3,68900.0,0.33,276.0,2700.0,28.07108136879982,6.505436185348089,17564.677700439843,20.50205481015068,8.20356730411703,7.569026558649142,1.6981311187689403,2773,94,890,1408,110.306107756535,62.41398294740773,0.0011654174240151,False
0.49,0.9321671749047364,1.2,899.0,54.34884,0.3,68900.0,0.33,276.0,2700.0,23.73847806069169,5.569523635468007,15037.71381576362,17.94774223365544,6.668702122990297,5.790735827036254,1.0991784875222894,2404,84,722,1259,105.12946625406693,59.17416350426553,0.0010231454662207,False
0.5,0.8121859985333526,1.2,900.0,54.34884,0.2,68900.0,0.33,276.0,2700.0,17.991642161025872,4.23611115245732,11437.500111634765,14.413095478553656,4.730973846335442,3.578546682472215,0.4948626938781224,5313,104,1298,3004,106.45252514730302,61.07079557109749,0.0008435818721134,False
0.03,0.4917490086446326,1.2,903.0,57.36822,0.1,68900.0,0.33,276.0,2700.0,12.907271680123444,0.193552526534086,522.5918216420323,6.746463317570656,1.409731863668986,6.160808362552787,1.2161793371349,10575,178,3490,5334,975.4022461837844,556.3608534939566,0.0062763506233957,True
0.05,0.5790064489962137,1.2,905.0,57.36822,0.1,68900.0,0.33,276.0,2700.0,16.083748389960466,0.4018319103611726,1084.946157975166,8.578462272237147,2.076947309017632,7.505286117723319,1.6751153986564589,13166,204,4330,6665,758.5612273257183,433.52072107832254,0.0050115281483096,True
0.06,0.3693815293675105,1.2,906.0,57.36822,0.1,68900.0,0.33,276.0,2700.0,8.0351570334008,0.2406023216599072,649.6262684817497,4.499660832420874,0.7254895047791343,3.5354962009799262,0.484887183119227,6716,134,2198,3413,357.87931469301213,205.8026423804396,0.0019680217497599,True
0.0699999999999999,0.6124644495338036,1.2,907.0,57.36822,0.2,68900.0,0.33,276.0,2700.0,17.11964069635857,0.5984690468524286,1615.8664265015573,9.331678391342937,2.3764876132033987,7.787962305015634,1.77801856635097,3840,108,1258,1947,517.1013221017827,296.3696280226724,0.0039333487658229,True
0.08,0.7722270028828607,1.2,908.0,57.36822,0.2,68900.0,0.33,276.0,2700.0,24.5570151073816,0.9812082740028388,2649.262339807665,13.31621531980082,4.177089771032446,11.240799787580782,3.195881497029608,5342,132,1762,2693,570.2708965541727,326.1474582934184,0.0054221204031099,True
0.09,0.7590816868263708,1.2,909.0,57.36822,0.3,68900.0,0.33,276.0,2700.0,23.63449477063725,1.062025450649032,2867.468716752386,12.964146753209148,4.004362695690468,10.670348017428102,2.942337245041436,2309,86,756,1169,490.8483159449014,281.5030017294813,0.0047043048673847,True
0.0999999999999999,0.63048715335308,1.2,910.0,57.36822,0.3,68900.0,0.33,276.0,2700.0,17.285234472992826,0.8621673285472472,2327.851787077567,9.749070025518105,2.5484186910970994,7.536164447474723,1.6862513625498523,1840,74,600,934,369.9365260421187,212.95520743923012,0.0029042462864915,True
0.11,0.6460294742451473,1.2,911.0,57.36822,0.3,68900.0,0.33,276.0,2700.0,17.76780564246477,0.9744416704542752,2630.992510226543,10.115573547417414,2.702782160180626,7.652232095047355,1.7283404897263508,1734,74,568,876,348.16552802070095,200.74119062059955,0.0027639004280612,True
0.12,0.7380412918784702,1.2,912.0,57.36822,0.3,68900.0,0.33,276.0,2700.0,21.869625956056616,1.308558442626462,3533.1077950914478,12.409664500015287,3.737444698978035,9.459961456041327,2.428886256351573,2079,82,676,1059,362.0210220980681,206.2690400083817,0.0032852010730242,True
0.13,0.5773374233867636,1.2,913.0,57.36822,0.3,68900.0,0.33,276.0,2700.0,14.429136243745909,0.9332924698035258,2519.88966846952,8.54162542827787,2.06266038635102,5.887510815468037,1.129367916547494,1661,70,540,845,270.5689273325634,155.47325462747943,0.0018475297633719,False
0.14,0.7551541551401842,1.2,914.0,57.36822,0.3,68900.0,0.33,276.0,2700.0,22.253250629576176,1.5519805239093662,4190.347414555289,12.859799026395534,3.953650639921757,9.393451603180642,2.401670116012391,2192,82,710,1121,313.4536754355897,178.94037151107358,0.0029211762914449,True
0.15,0.5017472234497937,1.2,915.0,57.36822,0.3,68900.0,0.33,276.0,2700.0,11.153571938654624,0.8294493119285208,2239.5131422070062,6.946672212251303,1.4781832255870255,4.2068997264033205,0.6487339136585047,1646,66,538,833,202.66992163552487,116.58474361030903,0.0012852688988103,False
0.16,0.8477152969655894,1.2,916.0,57.36822,0.3,68900.0,0.33,276.0,2700.0,26.55062883631197,2.115471664565556,5711.773494327001,15.422083399322409,5.260891400332602,11.128545436989564,3.145419735767046,2497,92,822,1258,300.90754762488547,171.13819952580744,0.0031773073919254,True
0.17,0.8562792775834072,1.2,917.0,57.36822,0.3,68900.0,0.33,276.0,2700.0,26.762958658840518,2.264561722863377,6114.316651731118,15.67003504313158,5.394026234702423,11.092923615708935,3.129464511839046,2492,92,820,1256,284.68924264476,161.58917144653418,0.003030326174386,True
0.18,0.5064691893247564,1.2,918.0,57.36822,0.3,68900.0,0.33,276.0,2700.0,10.842970777290128,0.9636528577189548,2601.862715841178,7.042100514673449,1.511210258802179,3.8008702626166775,0.5475574010832241,1588,64,526,793,173.4892933117426,99.87867817454874,0.0010998810462421,False
0.19,0.5432668994008043,1.2,919.0,57.36822,0.3,68900.0,0.33,276.0,2700.0,12.036782356482972,1.1291288678585645,3048.647943218124,7.804961021743787,1.784274834893616,4.231821334739187,0.6551459670350515,1696,68,558,853,175.59968067896764,101.05197773133736,0.0011512179661112,False
0.2,0.5628668913041592,1.2,920.0,57.36822,0.3,68900.0,0.33,276.0,2700.0,12.615778915726525,1.2448227307534911,3361.0213730344262,8.225183074973703,1.9413544123425952,4.390595840752821,0.6965316815891041,1613,68,532,809,178.45793836980008,102.53839691262016,0.001154019805102,False
0.21,0.642684383439917,1.2,921.0,57.36822,0.3,68900.0,0.33,276.0,2700.0,15.651166446009698,1.623976283787755,4384.735966226938,10.036180231239909,2.6690775154374107,5.6149862147697895,1.0451012316496555,1620,70,526,825,185.1564122519277,105.6115649161238,0.0013432796466532,False
0.22,0.8023641440099167,1.2,922.0,57.36822,0.3,68900.0,0.33,276.0,2700.0,22.79254609875113,2.484878951812345,6709.173169893332,14.13976448534215,4.590754812383906,8.652781613408985,2.1058758605715613,2266,86,744,1144,490.2800924675506,265.8636013219325,0.0023982190961628,True
0.23,0.7659236318872956,1.2,923.0,57.36822,0.3,68900.0,0.33,276.0,2700.0,20.79685965402761,2.366156355002359,6388.6221585063695,13.146851347390896,4.0936870321289245,7.650008306636714,1.7275306771265653,2065,82,678,1042,192.43807375346023,109.02823237677624,0.0017141061637439,False
0.24,0.7522639578182451,1.2,924.0,57.36822,0.3,68900.0,0.33,276.0,2700.0,19.94323447657585,2.3642352192936182,6383.435092092769,12.783259095332737,3.9165939415308446,7.159975381243115,1.5523587222372264,1799,76,594,902,183.8220297110589,103.89951298948203,0.0015754641156529,False
0.25,0.7617677917644572,1.2,925.0,57.36822,0.3,68900.0,0.33,276.0,2700.0,20.18558469085115,2.490473162881467,6724.277539779961,13.035735158152296,4.039281860695575,7.149849532698855,1.548808697814108,1786,76,590,895,179.35338209381027,101.57219197598408,0.0015406273988768,False
0.26,0.7919777434249837,1.2,926.0,57.36822,0.2,68900.0,0.33,276.0,2700.0,21.420664976845423,2.747875358669968,7419.2634684089135,13.853360388549776,4.445383254781848,7.567304588295647,1.6975078961118797,4592,120,1532,2288,175.73155600225076,99.68795044792492,0.0015847156708539,False
0.27,0.7606945869001496,1.2,927.0,57.36822,0.3,68900.0,0.33,276.0,2700.0,19.732606552169045,2.6226779057421874,7081.230345503906,13.007111014851592,4.025307208688107,6.725495537317453,1.40262930294592,1834,76,606,919,166.41238943190464,94.18688662266436,0.0014036332795431,False
0.28,0.799153481908375,1.2,928.0,57.36822,0.3,68900.0,0.33,276.0,2700.0,21.35215872915539,2.9433260607940155,7946.980364143842,14.050941240897526,4.545499466455862,7.3012174882578655,1.6021734056618464,1931,80,638,968,163.46545615462125,92.592302604651,0.0014809920051782,False
0.29,0.6776552593710965,1.2,929.0,57.36822,0.3,68900.0,0.33,276.0,2700.0,15.691370153622076,2.2241684701227427,6005.254869331405,10.880086905954125,3.034718033725322,4.811283247667952,0.8105495636025792,1632,70,538,819,142.36346088424204,81.07374744129524,0.0010750679315933,False
0.3,0.6816246509556155,1.2,930.0,57.36822,0.3,68900.0,0.33,276.0,2700.0,15.685332744373438,2.2962512438914007,6199.878358506782,10.977817444970324,3.078099193530332,4.707515299403115,0.7818479496389314,1455,66,482,726,137.85984565874105,78.47638354235289,0.0010463058652622,False
0.31,0.993230453798026,1.2,931.0,57.36822,0.3,68900.0,0.33,276.0,2700.0,30.90305690960049,4.727579696492631,12764.465180530104,19.88559043016284,7.82333892607342,11.017466479437651,3.095759229580789,2847,100,942,1428,170.69614892162917,95.7944182185702,0.0019949300258655,False
0.32,0.7167513655642697,1.2,932.0,57.36822,0.3,68900.0,0.33,276.0,2700.0,16.829459126748045,2.624084321564468,7085.027668224063,11.85993122226648,3.479115957364202,4.969527904481565,0.8550316357997341,1808,72,598,905,134.58061132608032,76.82132984267837,0.0010626771593071,False
0.33,0.7030358094606834,1.2,933.0,57.36822,0.3,68900.0,0.33,276.0,2700.0,16.073117316102753,2.576798080362252,6957.354816978081,11.511811286081231,3.3188431383534365,4.561306030021521,0.7420450579911844,1436,66,478,713,127.00723625529334,72.03792725005941,0.001006022649167,False
0.34,0.7592573668724831,1.2,934.0,57.36822,0.3,68900.0,0.33,276.0,2700.0,18.33882505592475,3.035282154402745,8195.26181688741,12.968823326809764,4.006640648368856,5.370001729114987,0.9713584939661106,1671,72,554,834,131.45055263031463,74.44301344542414,0.0010925355687072,False
0.3500000000000001,0.8030678061495669,1.2,935.0,57.36822,0.3,68900.0,0.33,276.0,2700.0,20.154821137996773,3.4372965091341428,9280.700574662183,14.159265971563986,4.600711289814987,5.995555166432787,1.163414780680844,1856,78,616,926,133.06787177256578,75.55829242556335,0.0011576978701647,False
0.36,1.0162366655379127,1.2,936.0,57.36822,0.3,68900.0,0.33,276.0,2700.0,30.999571515677903,5.48220677492477,14801.95829229688,20.639999333957263,8.289483572414554,10.35957218172064,2.8072767974897834,2856,100,950,1425,149.88399402571275,85.48385739746008,0.0017416850313845,False
0.37,0.9573148084423456,1.2,937.0,57.36822,0.3,68900.0,0.33,276.0,2700.0,27.497331271025,4.9809188900181,13448.48100304887,18.734454595828765,7.129904036492043,8.762876675196232,2.148985146473943,2810,96,932,1406,140.91916175663152,79.4057424642866,0.0014988146358506,False
0.38,1.0523075186964763,1.2,938.0,57.36822,0.3,68900.0,0.33,276.0,2700.0,32.59864237504567,6.078818403200158,16412.809688640427,21.84959626568536,9.055703260043265,10.749046109360313,2.976884856843105,3143,104,1044,1571,147.64086939418704,82.86412229276824,0.0017386794257815,False
0.39,1.0811739574575685,1.2,939.0,57.36822,0.3,68900.0,0.33,276.0,2700.0,34.05571026639583,6.516626078868277,17594.890412944347,22.84115674257796,9.700684324804769,11.21455352381787,3.184058245936492,3077,104,1024,1535,144.5200292414509,82.24791543024402,0.0017728603500789,False
0.4,1.01900966475294,1.2,940.0,57.36822,0.3,68900.0,0.33,276.0,2700.0,30.214144944687064,5.90878770238425,15953.726796437471,20.731828539677636,8.346845550864582,9.482316405009431,2.438057848480333,2778,98,930,1377,136.99503021684802,77.10855917016899,0.0015387551834135,False
0.4100000000000001,1.030573307302849,1.2,941.0,57.36822,0.3,68900.0,0.33,276.0,2700.0,30.63531038200587,6.135890823459158,16566.905223339727,21.116847437613945,8.58880387746855,9.518462944391924,2.452913054009392,2789,98,934,1382,133.99964271367108,75.84026083611894,0.0015237053803002,False
0.42,0.8370741124828813,1.2,942.0,57.36822,0.3,68900.0,0.33,276.0,2700.0,20.447154055810195,4.138732807374034,11174.578579909892,15.116558919369057,5.098410260596843,5.330595136441138,0.9596774532228088,2022,78,652,1022,116.25402961411145,65.99681228736311,0.0010512595023925,False
0.43,1.0545806285891548,1.2,943.0,57.36822,0.3,68900.0,0.33,276.0,2700.0,31.53829808053394,6.6142150159088215,17858.38054295382,21.926917825499128,9.10545764906794,9.611380255034812,2.491242633159118,3050,102,1016,1518,132.68828455748763,74.98006204375231,0.0015039816823,False
0.44,0.8189336356724555,1.2,944.0,57.36822,0.3,68900.0,0.33,276.0,2700.0,19.263785753754085,4.0596239134236365,10960.984566243818,14.602279495249338,4.828865813776083,4.661506258504748,0.7692419003524469,1842,74,618,907,109.84718566484442,62.45890293097365,0.0009730497755377,False
0.45,1.0294066620157871,1.2,945.0,57.36822,0.3,68900.0,0.33,276.0,2700.0,29.665156536755024,6.4838084670643,17506.28286107361,21.07785080911347,8.564190757869921,8.587305727641553,2.080382290805621,3012,98,964,1534,124.07504186683596,69.7759053488446,0.0013558693504773,False
0.46,1.0209696929976595,1.2,946.0,57.36822,0.3,68900.0,0.33,276.0,2700.0,28.98093766082037,6.4617556203021405,17446.74017481578,20.796852396381617,8.387544228894397,8.184085264438753,1.9257886085922564,2680,94,894,1331,120.06109271978288,68.50689232626694,0.0012944843940872,False
0.4700000000000001,1.0945504916779172,1.2,947.0,57.36822,0.3,68900.0,0.33,276.0,2700.0,32.91842068629277,7.518382478563039,20299.632692120205,23.30774071865533,10.009335464960843,9.610679967637438,2.4909529863978044,3154,102,1014,1599,126.60196064244028,70.51269624768454,0.0014471217880883,False
0.4800000000000001,1.1588052824176514,1.2,948.0,57.36822,0.3,68900.0,0.33,276.0,2700.0,36.52004237430855,8.533186826670187,23039.604432009502,25.61168145224175,11.580433465785244,10.908360922066796,3.0472466391150554,3667,110,1150,1882,129.64641280248597,73.80008127786883,0.0015748906023368,False
0.49,1.0731490000018666,1.2,949.0,57.36822,0.3,68900.0,0.33,276.0,2700.0,31.233592675476157,7.405826716090202,19995.732133443544,22.563398174436728,9.518500596450105,8.670194501039425,2.1126738803599032,3401,100,1002,1800,119.32001119166893,67.0675423719964,0.0013286268772669,False
0.5,1.097841135106743,1.2,950.0,57.36822,0.3,68900.0,0.33,276.0,2700.0,32.42222318406488,7.843756408217082,21178.142302186123,23.423210147111497,10.08622283852766,8.999013036953379,2.242466430310577,3419,100,1006,1808,126.08516918673466,72.26808918819839,0.0013523761753214,False
0.03,0.4502232025717495,1.2,953.0,60.3876,0.1,68900.0,0.33,276.0,2700.0,11.329290786515694,0.1698828131299705,458.6835954509205,5.941818010691627,1.1464362816645062,5.387472775824067,0.9765534685345356,9646,166,3176,4876,934.415934033394,533.0450992770782,0.0056473522734198,True
0.05,0.5072366747552405,1.2,955.0,60.3876,0.1,68900.0,0.33,276.0,2700.0,13.132340225975527,0.3280467062615887,885.7261069062897,7.057663911143679,1.516620939740392,6.0746763148318506,1.1885742334788032,10633,178,3496,5383,677.9232999711029,387.9505192092052,0.0041452434035922,True
0.06,0.4368253529420202,1.2,956.0,60.3876,0.1,68900.0,0.33,276.0,2700.0,10.317042539472729,0.3090588868420649,834.4589944735752,5.691455030418044,1.0685108971180766,4.625587509054685,0.7594520102760116,8383,154,2746,4258,458.1927857613723,262.4197016022717,0.0026394874409234,True
0.0699999999999999,0.5775733351144348,1.2,957.0,60.3876,0.2,68900.0,0.33,276.0,2700.0,15.611323480847457,0.5456779443095398,1473.3304496357573,8.54682795634145,2.064676069604118,7.064495524506006,1.518998125294578,3357,100,1098,1704,490.2769400235567,283.0468884339699,0.0037180649492982,True
0.08,0.4220395627608577,1.2,958.0,60.3876,0.2,68900.0,0.33,276.0,2700.0,9.469463099326347,0.3777061936806288,1019.8067229376976,5.420392503207848,0.9863689440949732,4.0490705961185,0.6086627504143443,2137,76,702,1078,326.80798619821013,188.40721629047363,0.0019014243651255,True
0.09,0.5608032252467998,1.2,959.0,60.3876,0.2,68900.0,0.33,276.0,2700.0,14.515663569169831,0.6516780465829973,1759.5307257740928,8.18048349550059,1.9244265221242876,6.3351800736692425,1.27274847554129,3113,96,1022,1574,378.8488273291409,218.34361794979725,0.0027100758905049,True
0.0999999999999999,0.7587289727946671,1.2,960.0,60.3876,0.3,68900.0,0.33,276.0,2700.0,23.37430738845194,1.166620974320203,3149.876630664548,12.95475990638393,3.999791714749744,10.419547482068008,2.8331707404295408,2134,84,694,1087,467.1155763087831,267.8775290699085,0.0044353564934174,True
0.11,0.5343870235400185,1.2,961.0,60.3876,0.2,68900.0,0.33,276.0,2700.0,13.08081602371729,0.7166572414231647,1934.9745518425443,7.61775529273952,1.7158003982298946,5.4630607309777695,0.99914315680673,2877,92,948,1449,300.7375788834381,173.5388999748094,0.0020041156461953,True
0.12,0.5293243261469196,1.2,962.0,60.3876,0.3,68900.0,0.33,276.0,2700.0,12.703593340724872,0.7585964857065569,2048.2105114077035,7.511910422962954,1.677502210413104,5.191682917761918,0.9189057247065472,1810,70,594,913,280.2936501391935,161.627412286315,0.0017949044779728,True
0.13,0.5704534372488432,1.2,963.0,60.3876,0.3,68900.0,0.33,276.0,2700.0,14.149236678145796,0.9150989980393996,2470.767294706379,8.390429771732961,2.0043810529577826,5.758806906412834,1.089282054918383,1651,70,540,835,281.6029608047511,161.61029511999985,0.0018981388567552,True
0.14,0.519876816603538,1.2,964.0,60.3876,0.3,68900.0,0.33,276.0,2700.0,11.99372713931767,0.8338138795912712,2251.297474896432,7.316115768616663,1.607460017016928,4.677611370701007,0.7736461374256568,1722,68,566,867,236.1572380534485,136.03672210057996,0.0015115426612935,False
0.15,0.8310764770509602,1.2,965.0,60.3876,0.3,68900.0,0.33,276.0,2700.0,25.909909057241645,1.9361745958225345,5227.671408720843,14.945611789780184,5.0082597423487245,10.96429726746146,3.0720851465261902,2484,92,818,1251,333.07925146752626,189.22394983394383,0.0034542549570437,True
0.16,0.6419643616884807,1.2,966.0,60.3876,0.3,68900.0,0.33,276.0,2700.0,16.572091271844585,1.317188659408164,3556.409380402043,10.019127815977807,2.661857387206336,6.552963455866776,1.3446687277981713,1660,72,542,841,256.18368932209853,146.62697370529415,0.0019182050819954,False
0.17,0.7207547895740756,1.2,967.0,60.3876,0.3,68900.0,0.33,276.0,2700.0,19.926796134833896,1.6834879083228231,4545.417352471623,11.962435120708363,3.5268013396723297,7.964361014125531,1.8433134313495063,1956,78,638,993,262.6039419981014,149.38719169414765,0.0022572729932354,False
0.18,0.636317697923984,1.2,968.0,60.3876,0.3,68900.0,0.33,276.0,2700.0,15.94304602787181,1.4226596302713064,3841.181001732528,9.885848546864636,2.605659409906502,6.057197481007174,1.1829997796351954,1597,70,516,817,225.23460430286548,129.1477762646454,0.001661458335272,False
0.19,0.5852120481987954,1.2,969.0,60.3876,0.3,68900.0,0.33,276.0,2700.0,13.658641586890427,1.2832054947472755,3464.654835817644,8.716039311148815,2.1306081811284963,4.942602275741612,0.8474026863812207,1554,68,512,780,197.67597518281852,113.30981637803646,0.0013451496381187,False
0.2,0.5055145995849144,1.2,970.0,60.3876,0.2,68900.0,0.33,276.0,2700.0,10.49922401684388,1.0331672408652424,2789.5515503361544,7.022763594866989,1.504497173138394,3.47646042197689,0.4713299322731517,2291,78,754,1154,164.88009615212303,94.90443607534796,0.0010485636351595,False
0.21,0.6304846149072785,1.2,971.0,60.3876,0.3,68900.0,0.33,276.0,2700.0,15.141216169472436,1.5704315047513429,4240.165062828626,9.749010662285269,2.54839394368657,5.392205507187169,0.9779624389352272,1578,68,520,792,190.05305603897955,108.91763703187686,0.0013700495971618,False
0.22,0.7156474826416654,1.2,972.0,60.3876,0.3,68900.0,0.33,276.0,2700.0,18.65596753439411,2.029855309733071,5480.609336279292,11.831738188021106,3.466039545546465,6.824229346373006,1.436184235813394,1732,74,570,871,205.28229336970296,116.57374154939684,0.0016622553971065,False
0.23,0.5439502392907467,1.2,973.0,60.3876,0.3,68900.0,0.33,276.0,2700.0,11.425179577352036,1.2884131461846653,3478.715494698596,7.819449327937282,1.7896132256496995,3.605730249414754,0.5012000794650342,1566,64,516,786,152.31736678166712,87.56023085692811,0.0010240135013924,False
0.24,0.8002549684871492,1.2,974.0,60.3876,0.3,68900.0,0.33,276.0,2700.0,22.25001086476023,2.6410483858757434,7130.830641864507,14.081384767718472,4.560993153420993,8.16862609704176,1.9199447675452497,2075,82,682,1046,200.4090394239968,113.25282688064924,0.0018736188572732,False
0.25,0.7808504530518187,1.2,975.0,60.3876,0.2,68900.0,0.33,276.0,2700.0,21.093283621477664,2.6039355292098127,7030.625928866494,13.549534571976904,4.292926155674484,7.543749049500759,1.6889906264646717,4618,120,1538,2305,189.6794146129461,107.6927106066019,0.0016989415334472,False
0.26,0.8807724982384437,1.2,976.0,60.3876,0.3,68900.0,0.33,276.0,2700.0,25.91243031538021,3.331804852679765,8995.873102235364,16.389358285192596,5.786614357255976,9.52307203018761,2.4548095045762115,2431,90,800,1225,197.91790232763384,111.2719432341088,0.002058514686273,False
0.27,0.8217439333753684,1.2,977.0,60.3876,0.3,68900.0,0.33,276.0,2700.0,22.666932550938046,3.0188119155762307,8150.792172055823,14.681409566900683,4.870013709342878,7.985522984037361,1.8512017937666472,2213,84,732,1109,183.41771817352108,103.4476973496533,0.0017130510045883,False
0.28,0.7749234884264367,1.2,978.0,60.3876,0.3,68900.0,0.33,276.0,2700.0,20.19872995707088,2.781846032701921,7510.984288295188,13.3889715929934,4.213094805194123,6.8097583640774815,1.4312487724922014,1970,80,650,989,169.37407032574822,96.4261129389253,0.0014640853805379,False
0.29,0.9643831596150094,1.2,979.0,60.3876,0.3,68900.0,0.33,276.0,2700.0,29.75826286076507,4.263867912658667,11512.443364178402,18.95844068690896,7.263116607151099,10.799822173856109,2.999248694492432,2946,100,972,1482,189.85476558733365,106.88269573176387,0.0021462960256115,False
0.3,0.8131072644534523,1.2,980.0,60.3876,0.3,68900.0,0.33,276.0,2700.0,21.616057563387358,3.185859966743486,8601.821910207413,14.438857629644788,4.744264005261266,7.177199933742566,1.5584040385177804,2076,82,692,1032,163.51709363251845,92.4538541811511,0.0014805112842548,False
0.31,0.6550916004245667,1.2,981.0,60.3876,0.3,68900.0,0.33,276.0,2700.0,14.430505466322094,2.174334222784529,5870.70240151823,10.33206948183602,2.7954301621308675,4.098435984486075,0.621095939346338,1398,64,460,702,138.8556226836604,79.39993621206219,0.0010157721180331,False
0.32,0.6973703329830352,1.2,982.0,60.3876,0.3,68900.0,0.33,276.0,2700.0,16.00425502819537,2.49205166579594,6728.539497649039,11.369393416732564,3.254027055703842,4.634861611462807,0.761975389907902,1460,66,482,731,138.82265903281603,79.17000625660744,0.0010756825544658,False
0.33,0.8423520956603039,1.2,983.0,60.3876,0.2,68900.0,0.33,276.0,2700.0,22.429516835711368,3.625604001097672,9789.130802963717,15.26774207393572,5.17859386740952,7.161774761775648,1.552989866311847,5145,124,1588,2669,161.8489117449772,92.4745159315442,0.0014158968010589,False
0.34,0.7206505090776408,1.2,984.0,60.3876,0.3,68900.0,0.33,276.0,2700.0,16.65059911363401,2.748283744213269,7420.366109375826,11.959760007340448,3.525554030483119,4.690839106293561,0.7772702862698502,1572,68,524,780,133.0634762186209,75.03330859424452,0.0010677442372447,False
0.3500000000000001,1.0254396334457063,1.2,985.0,60.3876,0.3,68900.0,0.33,276.0,2700.0,31.77121176746069,5.470164869290517,14769.445147084396,20.94550366489454,8.480836964719293,10.825708102566152,3.010672095428776,3050,102,1012,1526,165.06472215542453,92.66700128438836,0.0019272349976606,False
0.36,1.048983798739307,1.2,986.0,60.3876,0.3,68900.0,0.33,276.0,2700.0,32.89682610634896,5.823712601245531,15724.024023362934,21.73677116974472,8.98326889729145,11.16005493660424,3.15955629604592,2979,102,990,1488,160.88981649089513,90.55724369511606,0.0019431549899326,False
0.37,1.062893807350404,1.2,987.0,60.3876,0.3,68900.0,0.33,276.0,2700.0,33.468236563046275,6.085536369042043,16430.948196413516,22.21080282870693,9.288918826762824,11.257433734339344,3.203382457720781,3065,104,1020,1529,157.8209301709219,90.00655784445446,0.001927753554795,False
0.38,0.8111528911955677,1.2,988.0,60.3876,0.3,68900.0,0.33,276.0,2700.0,19.971045410738945,3.679574979981879,9934.852445951074,14.38423118220522,4.716098483903909,5.586814228533726,1.0365235039220295,1930,78,638,967,132.69670598677877,75.24759356432378,0.0011466254408961,False
0.39,1.011742429295666,1.2,989.0,60.3876,0.3,68900.0,0.33,276.0,2700.0,30.03711050806931,5.732999125994656,15479.097640185571,20.49158096048522,8.197056243103816,9.545529547584092,2.46405711710916,2958,100,978,1485,149.13499050089956,83.95207675358377,0.0016444673175448,False
0.4,0.874291052002323,1.2,990.0,60.3876,0.3,68900.0,0.33,276.0,2700.0,22.6004429782008,4.386047309086994,11842.327734534883,16.197542467386427,5.681009804903089,6.402900510814369,1.2949624958160948,2088,82,696,1038,131.1318704744968,73.72839590073788,0.0012213724454894,False
0.4100000000000001,0.8150863803624955,1.2,991.0,60.3876,0.3,68900.0,0.33,276.0,2700.0,19.6106311136256,3.875831573441207,10464.74524829126,14.494273482966264,4.77289499906722,5.116357630659337,0.8970634256260128,2047,78,656,1039,128.50019539203043,71.88839657691459,0.0010847485858175,False
0.42,0.7817790300021883,1.2,992.0,60.3876,0.3,68900.0,0.33,276.0,2700.0,17.94725726462015,3.613754481224127,9757.137099305142,13.574769953940372,4.30551965598632,4.372487310679777,0.6917651747621929,1670,72,558,825,117.89916733437364,67.03482613656297,0.000997706268018,False
0.43,0.880160665930602,1.2,993.0,60.3876,0.3,68900.0,0.33,276.0,2700.0,22.311845144439264,4.630527634648467,12502.42461355086,16.37120622332846,5.7765923718409375,5.940638921110804,1.1460647371924706,2094,82,690,1047,122.81008956260028,69.51332353650506,0.0011580059967985,False
0.44,0.9059618831725234,1.2,994.0,60.3876,0.3,68900.0,0.33,276.0,2700.0,23.386539355723475,4.966629705856759,13409.90020581325,17.144853149515722,6.208933963116432,6.241686206207753,1.242304257259673,2083,82,690,1038,123.82158996047096,70.16021080287244,0.0011833470273271,False
0.45,0.9823773871978642,1.2,995.0,60.3876,0.3,68900.0,0.33,276.0,2700.0,27.109982712495743,5.908894356605966,15954.014762836108,19.53431961329488,7.609428148953375,7.575663099200867,1.700533792347409,2594,92,862,1291,127.81310992653844,71.92084176356906,0.0013103089841199,False
0.46,1.130498189739262,1.2,996.0,60.3876,0.3,68900.0,0.33,276.0,2700.0,35.28877900465903,7.912559129385032,21363.90964933959,24.5839058824297,10.870035399977816,10.704873122229326,2.9574762705927835,3321,106,1098,1660,135.4789266632564,76.51009081040011,0.0016636043016697,False
0.4700000000000001,0.9643000424853868,1.2,997.0,60.3876,0.3,68900.0,0.33,276.0,2700.0,25.753107193630075,5.834533807787301,15753.241281025712,18.95579952622113,7.261540945743132,6.797307667408944,1.4270071379558311,2565,90,830,1290,121.8738313655766,68.73072323272599,0.0012315565042212,False
0.4800000000000001,0.9171913749111428,1.2,998.0,60.3876,0.3,68900.0,0.33,276.0,2700.0,23.18502875950553,5.332783559117351,14398.515609616848,17.486793889331285,6.403378894495423,5.698234870174247,1.070595335378072,2387,84,720,1247,117.3655229230697,66.05593248043044,0.001129856368151,False
0.49,0.9883423439257182,1.2,999.0,60.3876,0.3,68900.0,0.33,276.0,2700.0,26.60522447027454,6.271876505815808,16934.06656570268,19.72701525513541,7.726523786228419,6.87820921513913,1.454647280412611,2676,90,834,1373,125.97376473486526,71.88523886661797,0.0012342162766255,False
0.5,0.8305282953607808,1.2,1000.0,60.3876,0.1,68900.0,0.33,276.0,2700.0,18.795019856823888,4.436955576406824,11979.780056298425,14.930032376378689,5.000071102136624,3.8649874804452,0.5631155257298,33920,212,4974,21889,123.2916133895469,70.68049975156836,0.0009658614535909,False
0.04,0.430494818796958,1.2,1004.0,63.40698,0.08,68900.0,0.33,276.0,2700.0,10.435186729892168,0.2085696933112895,563.1381719404817,5.574727013449464,1.032850953410253,4.860459716442704,0.8242812600989635,12857,194,4232,6503,759.8337937107693,434.3335306681672,0.0040866390545777,True
0.05,0.4737267796067388,1.2,1005.0,63.40698,0.1,68900.0,0.33,276.0,2700.0,11.842969658272724,0.2958124420687435,798.6935935856075,6.391923739207656,1.2913526131272697,5.451045919065067,0.995540171058526,9618,168,3170,4857,631.931933128693,361.4035306201928,0.0038520912934275,True
0.06,0.5125757725207868,1.2,1006.0,63.40698,0.2,68900.0,0.33,276.0,2700.0,13.152587775658226,0.3941252439276169,1064.1381586045657,7.166342119307975,1.55459230038872,5.986245656350251,1.160467056461103,2964,94,974,1497,534.5367673919129,308.5653541863498,0.0036831330756843,True
0.0699999999999999,0.7692573867248078,1.2,1007.0,63.40698,0.2,68900.0,0.33,276.0,2700.0,24.65304119215332,0.8621380642052465,2327.7727733541656,13.23630091033224,4.137664435263308,11.41674028182108,3.2755263710580618,5363,132,1768,2705,713.2206238376417,407.4257753555084,0.006807993642777,True
0.08,0.5255240785788158,1.2,1008.0,63.40698,0.2,68900.0,0.33,276.0,2700.0,13.286375346114347,0.5303826835521483,1432.0332455908006,7.432882608891124,1.649105368671656,5.853492737223223,1.1187226851195078,2864,92,938,1451,422.91448252821215,244.0292294302768,0.002860589646057,True
0.09,0.4558207139946835,1.2,1009.0,63.40698,0.1,68900.0,0.33,276.0,2700.0,10.487668917778317,0.4704182872703792,1270.1293756300238,6.04775374680701,1.179991796779692,4.439915170971305,0.7095735095093127,8697,156,2866,4392,315.2424739474195,181.816279172665,0.0019903443690287,True
0.0999999999999999,0.7811582262886052,1.2,1010.0,63.40698,0.3,68900.0,0.33,276.0,2700.0,24.524209394596,1.2241160746274042,3305.113401493992,13.55789634065678,4.297097626489869,10.966313053939215,3.072981551862465,2356,90,770,1195,499.8835053819229,284.9520508067574,0.0049476543837863,True
0.11,0.4435663151540231,1.2,1011.0,63.40698,0.2,68900.0,0.33,276.0,2700.0,9.730104836046516,0.5323681261012723,1437.3939404734351,5.816858163990056,1.107298807760962,3.9132466720564585,0.5749306816596897,2134,76,702,1075,264.875670437944,152.88736952574595,0.0015874242661685,False
0.12,0.6706974566270716,1.2,1012.0,63.40698,0.3,68900.0,0.33,276.0,2700.0,18.6728691694616,1.1167530354307595,3015.233195663051,10.709733995634409,2.959609881633237,7.963135173827192,1.842856846202477,1918,76,628,970,362.9326541109649,208.443305123127,0.0029983615264007,True
0.13,0.7749322283400588,1.2,1013.0,63.40698,0.3,68900.0,0.33,276.0,2700.0,23.478707923021165,1.5215146289564196,4108.089498182333,13.389207709482468,4.213211824680685,10.089500213538695,2.691697195724265,2236,88,734,1129,382.1857872618126,218.3723740533579,0.0036823935789917,True
0.14,0.5345878657788363,1.2,1014.0,63.40698,0.3,68900.0,0.33,276.0,2700.0,12.55366863994491,0.8730097846351763,2357.126418514976,7.62196754837908,1.7173307882401132,4.931701091565829,0.8443210036049369,1810,70,592,916,256.96828560117285,148.0467858054211,0.0016533406135136,False
0.15,0.7533141380365829,1.2,1015.0,63.40698,0.3,68900.0,0.33,276.0,2700.0,21.93393521377104,1.6379765575622491,4422.536705418072,12.811046312260771,3.930033255725648,9.122888901510269,2.2920566981633987,2177,82,706,1112,325.4544789501961,185.5955459583596,0.0029675869237311,True
0.16,0.7851574888805819,1.2,1016.0,63.40698,0.3,68900.0,0.33,276.0,2700.0,23.291556252013383,1.8547458578216665,5007.8138161185,13.66676717097821,4.351536781703317,9.624789081035171,2.49679092388165,2331,88,762,1182,337.740682073232,192.84284135583928,0.0031452462381626,True
0.17,0.7792159057745163,1.2,1017.0,63.40698,0.3,68900.0,0.33,276.0,2700.0,22.76247912129504,1.9245209621720192,5196.206597864451,13.50516610289859,4.270815071157697,9.25731301839645,2.346294108985678,2286,86,748,1158,291.1168116554658,165.02885827795754,0.0027672632612926,True
0.18,0.7771676528577487,1.2,1018.0,63.40698,0.3,68900.0,0.33,276.0,2700.0,22.43348418863229,2.0067990647397487,5418.357474797322,13.4496627194933,4.243209935776862,8.98382146913899,2.236410871037113,2285,86,748,1157,274.0680078029159,155.24000739284742,0.0025829605981702,False
0.19,0.7206358494346642,1.2,1019.0,63.40698,0.3,68900.0,0.33,276.0,2700.0,19.498652336815532,1.8380065159901595,4962.617593173431,11.959383964615068,3.525378707427363,7.539268372200468,1.6873721914372033,1965,78,642,996,246.81470290999252,140.45282070134945,0.0020894375357746,False
0.2,0.8466804978365119,1.2,1020.0,63.40698,0.3,68900.0,0.33,276.0,2700.0,25.523305649763454,2.535575404157199,6846.053591224437,15.39224783500884,5.244948081091147,10.131057814754618,2.709372676933948,2412,90,788,1224,264.4051102446412,149.05485596852287,0.0027161058937633,False
0.21,0.6530254540133889,1.2,1021.0,63.40698,0.3,68900.0,0.33,276.0,2700.0,16.08928150688934,1.669978365180118,4508.941585986318,10.282527204008582,2.77413379312389,5.806754302880757,1.1041554279437722,1595,70,516,815,207.86823027561573,118.9508267800046,0.0015370927157699,False
0.22,0.8816950533000623,1.2,1022.0,63.40698,0.3,68900.0,0.33,276.0,2700.0,26.907873961530587,2.93756501671808,7931.425545138816,16.41674677034097,5.801747074746954,10.491127191189616,2.864182058028874,2485,92,816,1255,246.8566772229364,139.39931528906712,0.0026357324660678,False
0.23,0.6548383043979047,1.2,1023.0,63.40698,0.3,68900.0,0.33,276.0,2700.0,15.797269385997613,1.7912034741789078,4836.249380283051,10.325990152514592,2.792813859952941,5.4712792334830205,1.0016103857740333,1481,68,488,743,191.58375493195035,109.53744045321147,0.001399008763998,False
0.24,0.8781523425749875,1.2,1024.0,63.40698,0.3,68900.0,0.33,276.0,2700.0,26.2407528114055,3.119937419473176,8423.831032577575,16.311688686482665,5.743773478217925,9.929064124922837,2.623836058744749,2469,92,812,1245,224.49721586181863,126.03931459396456,0.0023637239749448,False
0.25,0.78533774175803,1.2,1025.0,63.40698,0.2,68900.0,0.33,276.0,2700.0,21.309387236696857,2.630948481112214,7103.560899002978,13.671683612820468,4.3540006989004265,7.637703623876389,1.7230522177882124,4601,120,1532,2297,199.9772772893908,113.60592305440014,0.0018031376122387,False
0.26,0.8335377877891483,1.2,1026.0,63.40698,0.3,68900.0,0.33,276.0,2700.0,23.473681014897693,3.014767443616487,8139.872097764515,15.01565572683528,5.045131705854329,8.458025288062412,2.030364262237842,2336,86,768,1178,199.620195493174,112.70110721812956,0.0019382602471198,False
0.27,0.826737695676647,1.2,1027.0,63.40698,0.3,68900.0,0.33,276.0,2700.0,22.915245717491157,3.052334193060904,8241.302321264438,14.822509586493467,4.943681228126178,8.092736130997684,1.8913470350652748,2198,84,728,1100,204.64832607026133,116.56010912833344,0.0019460261990574,False
0.28,0.6696267530725812,1.2,1028.0,63.40698,0.3,68900.0,0.33,276.0,2700.0,15.529031958674189,2.128088312926651,5745.838444901957,10.683627209532393,2.94815691026159,4.845404749141794,0.8200685973349393,1717,70,568,859,160.96378678199832,91.78858685514903,0.0012057227720694,False
0.29,0.7987370752387496,1.2,1029.0,63.40698,0.3,68900.0,0.33,276.0,2700.0,21.127572725142016,3.012417842993324,8133.528176081974,14.03944029384148,4.539650955495381,7.0881324313005365,1.5272331125020575,1917,80,634,960,174.14461693576334,98.7942993059476,0.0015601693762332,False
0.3,0.6699161058044034,1.2,1030.0,63.40698,0.3,68900.0,0.33,276.0,2700.0,15.19933742072392,2.223351945343972,6003.050252428725,10.690679607828038,2.951249267245056,4.508657812895882,0.7278973219010836,1522,66,504,760,154.30582367476316,87.38480593046054,0.0011270023521802,False
0.31,0.877402296148555,1.2,1031.0,63.40698,0.3,68900.0,0.33,276.0,2700.0,24.61328403992771,3.752664901693401,10132.195234572182,16.289486732779963,5.731547281541304,8.323797307147746,1.978882379847903,2278,86,754,1141,175.50912908784406,98.80158056032508,0.0017358805682477,False
0.32,0.9162651315931212,1.2,1032.0,63.40698,0.3,68900.0,0.33,276.0,2700.0,26.42195103201842,4.1588830264077234,11228.984171300854,17.458469631408896,6.387194987743192,8.963481400609524,2.2283119613354687,2556,92,842,1287,174.8950125939522,98.5382563335902,0.0018141388471274,False
0.33,1.0037310548499416,1.2,1033.0,63.40698,0.3,68900.0,0.33,276.0,2700.0,31.012129219692365,5.041735044454537,13612.68462002725,20.22827104340328,8.033946329125733,10.783858176289089,2.992211284671196,3056,102,1014,1529,180.89452063849447,101.61724334057,0.0020848594426723,False
0.34,0.8510252726332033,1.2,1034.0,63.40698,0.3,68900.0,0.33,276.0,2700.0,22.652405713208367,3.7685908661409617,10175.195338580595,15.51769809031112,5.312096286327673,7.134707622897247,1.543505420186711,2058,82,686,1023,156.58411798704006,88.29998164437896,0.001458419096234,False
0.3500000000000001,1.0488939763823864,1.2,1035.0,63.40698,0.3,68900.0,0.33,276.0,2700.0,33.14134119040128,5.709937518305119,15416.83129942382,21.733725964415346,8.98131658603838,11.407615225985932,3.2713790677332613,2984,102,992,1490,173.40550201185746,97.64317895376251,0.0021102047998734,False
0.36,0.6641596818977253,1.2,1036.0,63.40698,0.3,68900.0,0.33,276.0,2700.0,14.006637705049116,2.423478689011504,6543.39246033106,10.550773678607856,2.890112261990017,3.4558640264412617,0.4666335729785138,1341,62,446,666,125.25625316318344,71.48915799692942,0.0009574206533004,False
0.37,0.7398003231727236,1.2,1037.0,63.40698,0.3,68900.0,0.33,276.0,2700.0,16.96230300824533,3.0319386614038635,8186.234385790432,12.45559443915977,3.759314071885567,4.506708569085559,0.7273754104817036,1543,68,514,766,132.42957161645043,75.16682855448377,0.0010784180634054,False
0.38,0.9524618336263512,1.2,1038.0,63.40698,0.3,68900.0,0.33,276.0,2700.0,27.01581558273088,5.018081312660351,13548.819544182948,18.58139767405037,7.039357830217665,8.434417908680508,2.021276517557314,2274,88,758,1131,151.54229259329588,85.48509573065866,0.0015897340874441,False
0.39,0.8641421467440962,1.2,1039.0,63.40698,0.3,68900.0,0.33,276.0,2700.0,22.299313696677448,4.22412874777324,11405.147618987749,15.899310611991693,5.518138033763277,6.400003084685757,1.294009285990037,2078,82,692,1034,137.78564966129844,78.21505064651271,0.0012901845297681,False
0.4,0.7286367373554625,1.2,1040.0,63.40698,0.3,68900.0,0.33,276.0,2700.0,16.000479284580273,3.0660545703628883,8278.347339979799,12.165422180802992,3.621887569780215,3.835057103777281,0.5558329994173263,1486,66,498,733,123.0382593821019,69.90203511796643,0.0009787099216767,False
0.4100000000000001,0.995412356876713,1.2,1041.0,63.40698,0.3,68900.0,0.33,276.0,2700.0,28.67706364283278,5.7344502419286805,15483.015653207438,19.956567399002157,7.866804767732586,8.720496243830627,2.1323545258039056,2785,96,926,1390,146.68876911127245,82.58927178472747,0.0015769447886511,False
0.42,0.879917954576479,1.2,1042.0,63.40698,0.3,68900.0,0.33,276.0,2700.0,22.489803237669932,4.567689135564582,12332.760666024373,16.364007981581246,5.772619767787293,6.12579525608869,1.204930632222711,2083,82,688,1041,131.7799371954608,73.92257645205254,0.0012407693666561,False
0.43,0.9099111744179028,1.2,1043.0,63.40698,0.3,68900.0,0.33,276.0,2700.0,23.77741404953857,4.945624949244637,13353.18736296052,17.26474871959344,6.276880603818328,6.512665329945133,1.3312556545736909,2246,86,748,1118,134.01519673363092,75.58608962541254,0.0012757210254549,False
0.44,0.8339964551809618,1.2,1044.0,63.40698,0.3,68900.0,0.33,276.0,2700.0,19.95010659832371,4.210614499228954,11368.659147918175,15.028725305408228,5.052021894595171,4.921381292915482,0.8414073953662173,2163,78,660,1123,123.22868444823938,69.63946013578966,0.00111038702774,False
0.45,0.7618884666147141,1.2,1045.0,63.40698,0.3,68900.0,0.33,276.0,2700.0,16.61292556074906,3.547056497462957,9577.052543149985,13.03895556583799,4.040855140391186,3.573969994911069,0.4937986429282288,1514,66,494,757,111.07830522714816,63.106749079052165,0.0009572309552954,False
0.46,0.8182116414432663,1.2,1046.0,63.40698,0.3,68900.0,0.33,276.0,2700.0,18.89529549983865,4.142057923276346,11183.556392846136,14.581982218286944,4.818330380294167,4.3133132815517055,0.6762724570178209,1883,74,612,943,116.16350976604724,64.4253277820889,0.0010382443593126,False
0.4700000000000001,0.8201033514189786,1.2,1047.0,63.40698,0.3,68900.0,0.33,276.0,2700.0,18.815198023999816,4.2041251529241865,11351.137912895305,14.635191282592777,4.845965575402794,4.180006741407041,0.6418404224786078,1911,74,612,963,118.65184210914352,68.24651165686947,0.0010160014703796,False
0.4800000000000001,0.9939292089695132,1.2,1048.0,63.40698,0.3,68900.0,0.33,276.0,2700.0,27.10231316903453,6.27293181740442,16936.915906991933,19.908307804297728,7.837242021451318,7.194005364736803,1.5643102040468984,2490,90,816,1244,126.49495837130704,71.44691428328072,0.0013271750289954,False
0.49,1.1639160142084224,1.2,1049.0,63.40698,0.3,68900.0,0.33,276.0,2700.0,36.58777343417316,8.717601001970968,23537.52270532161,25.79938840442364,11.711807280761102,10.78838502974952,2.9942062787901342,3894,110,1178,2035,142.52966227788338,80.560739089234,0.0017128032009959,False
0.5,0.8441852856463212,1.2,1050.0,63.40698,0.3,68900.0,0.33,276.0,2700.0,19.404168292042435,4.58924268521146,12390.95525007094,15.320415994690366,5.206630807037871,4.083752297352069,0.6173881218264112,2079,74,626,1082,122.64856850744604,69.9323213607689,0.0010182619304969,False
0.04,0.345975179029117,1.2,1054.0,66.42636,0.1,68900.0,0.33,276.0,2700.0,7.596243481699972,0.1517908283474466,409.835236538106,4.112771184652775,0.6247235613876746,3.4834722970471965,0.472932733040228,6426,130,2102,3267,573.4423826816515,328.4918924281473,0.0030346356601014,True
0.05,0.6248602505371168,1.2,1055.0,66.42636,0.2,68900.0,0.33,276.0,2700.0,18.104960022027896,0.4523622011628976,1221.3779431398236,9.617878881482923,2.493931094562137,8.487081140544973,2.04156889339924,3845,110,1268,1937,884.9567084262793,507.2044425965329,0.0067072619158938,True
0.06,0.4950560381209662,1.2,1056.0,66.42636,0.1,68900.0,0.33,276.0,2700.0,12.471136160159569,0.3736816954625414,1008.940577748862,6.812406743026477,1.432151579398803,5.65872941713309,1.0584698839362616,10245,174,3368,5187,584.2801837586395,334.39121543443144,0.0036183199069673,True
0.0699999999999999,0.4896208127180917,1.2,1057.0,66.42636,0.2,68900.0,0.33,276.0,2700.0,12.08074500607304,0.4221076976924351,1139.6907837695749,6.704171639451231,1.3954190905945312,5.376573366621808,0.973311392902096,2736,88,894,1389,465.2881725350147,267.7519223658491,0.0030386679676991,True
0.08,0.4045001031877525,1.2,1058.0,66.42636,0.1,68900.0,0.33,276.0,2700.0,8.875888622136493,0.3539632145930345,955.7006794011932,5.105972676663224,0.8940668665821326,3.7699159454732696,0.540103651989098,7552,144,2482,3823,331.0411433601768,191.0660935873525,0.001971438501136,True
0.09,0.5671764182129895,1.2,1059.0,66.42636,0.2,68900.0,0.33,276.0,2700.0,14.77802828470197,0.6634844587819446,1791.4080387112506,8.318873764699557,1.9770027737800375,6.4591545200024125,1.3135183149980931,3120,96,1026,1575,426.2878582423448,246.0521169411778,0.0030441702505608,True
0.0999999999999999,0.7442303430407776,1.2,1060.0,66.42636,0.3,68900.0,0.33,276.0,2700.0,22.64444842288694,1.1301280260419515,3051.3456703132697,12.571610908112651,3.814749398265095,10.072837514774283,2.684621372223144,2134,84,696,1084,505.2755219124389,288.9144896797144,0.0046954390930029,True
0.11,0.6936365305237612,1.2,1061.0,66.42636,0.3,68900.0,0.33,276.0,2700.0,19.956993380348734,1.094846996037894,2956.086889302313,11.27597468679553,3.2117504991672314,8.681018693553208,2.116903503129337,2055,80,672,1041,431.5760956211533,247.14351162591933,0.0036805505263708,True
0.12,0.6077673451339011,1.2,1062.0,66.42636,0.3,68900.0,0.33,276.0,2700.0,15.89167032305846,0.9498811046465728,2564.6789825457467,9.224238199973705,2.3329082915154835,6.667432123084756,1.3830271868689106,1706,72,560,860,356.38462627404635,205.0932754514634,0.0025875035222135,True
0.13,0.5129628209010979,1.2,1063.0,66.42636,0.3,68900.0,0.33,276.0,2700.0,11.904710522923086,0.7692047979500428,2076.8529544651155,7.174248403178161,1.5573675514344842,4.730462119744925,0.7881627534844414,1852,70,606,937,277.8684477461806,160.23748193159693,0.0017500188888031,True
0.14,0.8394055887840901,1.2,1064.0,66.42636,0.3,68900.0,0.33,276.0,2700.0,26.603718182009764,1.8565132525797183,5012.58578196524,15.18325566620678,5.13373188387239,11.420462515802985,3.277218631292672,2499,92,822,1260,395.1697191063288,225.1257897875824,0.0041843628990121,True
0.15,0.8081330301882943,1.2,1065.0,66.42636,0.3,68900.0,0.33,276.0,2700.0,24.705204600487303,1.84582176156597,4983.718756228119,14.300012182935957,4.672787327552376,10.40519241755135,2.8269655659864057,2234,88,732,1130,358.4636856277519,202.9009117816932,0.003590525229002,True
0.16,0.8184171399076922,1.2,1066.0,66.42636,0.3,68900.0,0.33,276.0,2700.0,24.99979295973824,1.9914047944396072,5376.792944986939,14.58775802105034,4.821327548689439,10.4120349386879,2.829922754249832,2418,90,792,1224,365.73731014868497,209.7363443421924,0.0038899059479761,True
0.17,0.5020339217569914,1.2,1067.0,66.42636,0.3,68900.0,0.33,276.0,2700.0,10.841325731269164,0.9112229240198216,2460.301894853518,6.952450246291763,1.480175652977869,3.888875484977401,0.568952728958047,1464,62,482,735,209.2734410311323,119.56439508091287,0.0013223133562372,False
0.18,0.6255817148213967,1.2,1068.0,66.42636,0.3,68900.0,0.33,276.0,2700.0,15.489228048368409,1.3818160121160006,3730.9032327132018,9.634655335449144,2.500876101685325,5.854572712919262,1.1190600895693243,1682,70,546,857,240.10449716922108,137.78606171786052,0.0017600310822721,False
0.19,0.7122370054884004,1.2,1069.0,66.42636,0.3,68900.0,0.33,276.0,2700.0,19.109647729842884,1.801051078327759,4862.8379114849495,11.744828493834168,3.4258359576174637,7.3648192360087155,1.6247848792897044,1694,74,558,851,257.7016450965216,146.414012816436,0.0021478019489741,False
0.2,0.7365162339623239,1.2,1070.0,66.42636,0.3,68900.0,0.33,276.0,2700.0,20.03236948826172,1.9864817880069767,5363.500827618837,12.369906760597765,3.718549565752296,7.662462727663957,1.7320677777453193,1965,78,640,999,249.21850272172557,141.31235003771033,0.0021582781302612,False
0.21,0.6239643136742916,1.2,1071.0,66.42636,0.3,68900.0,0.33,276.0,2700.0,14.871735318464989,1.5421360153955517,4163.767241567989,9.59706356720123,2.485323408439956,5.274671751263758,0.9431873930444048,1575,68,518,792,206.9680545860645,118.65013332773938,0.0014850176142083,False
0.22,0.7389695903018807,1.2,1072.0,66.42636,0.3,68900.0,0.33,276.0,2700.0,19.731325573782406,2.1481446940652598,5799.9906739762,12.43389354235536,3.7489758151843473,7.297432031427046,1.600831121119088,1813,76,598,910,226.3074423662896,128.3025535544042,0.0019490874195376,False
0.23,0.8053573550390771,1.2,1073.0,66.42636,0.3,68900.0,0.33,276.0,2700.0,22.72081967716233,2.58741175766285,6986.011745689695,14.222805278318996,4.633202334534239,8.498014398843331,2.045790576871389,2266,86,744,1144,231.9719825299493,131.09468376325657,0.0021886579582522,False
0.24,0.5818293590013739,1.2,1074.0,66.42636,0.3,68900.0,0.33,276.0,2700.0,12.686604950623096,1.4934396761792883,4032.287125684079,8.640925692138175,2.101251653187326,4.04567925848492,0.6078119770080375,1483,64,488,745,172.72994716433482,98.83100504188432,0.0011887655208166,False
0.25,0.8610357805984561,1.2,1075.0,66.42636,0.3,68900.0,0.33,276.0,2700.0,25.10748630919837,3.1057108651749044,8385.419335972241,15.808545551783462,5.468889991073601,9.298940757414911,2.3631791258986965,2504,90,822,1265,221.19964478883844,125.13959408875876,0.0022641178184204,False
0.26,0.9460850797019184,1.2,1076.0,66.42636,0.3,68900.0,0.33,276.0,2700.0,29.46929281250699,3.794196977306247,10244.331838726866,18.38118248091313,6.921507734259724,11.08811033159386,3.1273107569534773,2609,96,860,1313,230.45301977002345,129.15308848149442,0.0026009075210203,False
0.27,0.7464869339913072,1.2,1077.0,66.42636,0.3,68900.0,0.33,276.0,2700.0,19.076590801169427,2.534115779357468,6842.112604265163,12.630897708708504,3.843185250636044,6.445693092460925,1.3090694712785762,1788,74,586,903,187.6546299018769,106.6214432080357,0.001561408753821,False
0.28,0.7807732990171603,1.2,1078.0,66.42636,0.3,68900.0,0.33,276.0,2700.0,20.47449822964665,2.820453590862797,7615.224695329552,13.54743877789536,4.291880835264927,6.927059451751289,1.4714272444021304,1918,80,634,961,184.43544608565537,104.1665944773139,0.0016342829851558,False
0.29,0.6363182620881611,1.2,1079.0,66.42636,0.3,68900.0,0.33,276.0,2700.0,14.004204483740027,1.9795294479900367,5344.729509573101,9.88586182291004,2.605664987151858,4.1183426608299865,0.6261355391618209,1415,64,468,707,269.08357206460965,152.74883684535914,0.0011256350890515,False
0.3,0.9599852797393584,1.2,1080.0,66.42636,0.3,68900.0,0.33,276.0,2700.0,29.26876912809792,4.333766701450072,11701.170093915194,18.818930484555334,7.1800466150872895,10.449838643542584,2.846279913637217,2783,98,922,1394,200.28980502934115,112.97565016341132,0.0022550836378724,False
0.31,0.7697518841804837,1.2,1081.0,66.42636,0.3,68900.0,0.33,276.0,2700.0,19.37221664970069,2.940299456208211,7938.80853176217,13.249592795856891,4.144213038534564,6.122623853843793,1.2039135823263525,1869,78,618,936,169.169625442034,95.9087360600982,0.0014071202474867,False
0.32,0.8440713166654661,1.2,1082.0,66.42636,0.2,68900.0,0.33,276.0,2700.0,22.71990649418261,3.5665559003539946,9629.700930955783,15.317138807468472,5.204884941592618,7.402767686714137,1.638329041238623,4869,124,1594,2450,176.4753790507829,99.6651415386777,0.0016185020013871,False
0.33,0.712736132062862,1.2,1083.0,66.42636,0.1,68900.0,0.33,276.0,2700.0,16.484101262910798,2.644610431585579,7140.448165281063,11.757529549621536,3.431701283088034,4.726571713289262,0.7870908515024548,23614,202,4468,14472,162.0199996930203,91.65253036250202,0.0012185003151025,False
0.34,0.7238721417374221,1.2,1084.0,66.42636,0.2,68900.0,0.33,276.0,2700.0,16.788611687657855,2.7717458817971945,7483.713880852425,12.04253093254744,3.564217242653245,4.746080755110414,0.7924713608560507,4378,104,1226,2361,159.56791381049757,91.10709919839348,0.0011990636910811,False
0.3500000000000001,0.8436518938212705,1.2,1085.0,66.42636,0.2,68900.0,0.33,276.0,2700.0,22.08945507639193,3.775857448353479,10194.815110554391,15.305081081116604,5.198463112466523,6.784373995275326,1.422605664113044,5479,120,1538,2954,167.38661573164563,95.0364319163841,0.0014563679376098,False
0.36,0.992477285047534,1.2,1086.0,66.42636,0.3,68900.0,0.33,276.0,2700.0,29.656778151474747,5.240503969368197,14149.360717294132,19.8611177467642,7.808370937701311,9.79566040471055,2.5678669683331146,2776,98,920,1390,172.42678922944748,97.33403656063638,0.00192652035133,False
0.37,0.9631537596626336,1.2,1087.0,66.42636,0.3,68900.0,0.33,276.0,2700.0,27.81291006049949,5.0393009660707495,13606.112608391024,18.91939252782827,7.239833107867807,8.893517532671222,2.2005321417970576,2798,96,928,1400,164.89137333192116,92.6913951812547,0.0017568924550421,False
0.38,0.7482350904942532,1.2,1088.0,66.42636,0.3,68900.0,0.33,276.0,2700.0,17.157304882739584,3.1449642796620005,8491.403555087401,12.67691452550136,3.865306247713116,4.480390357238225,0.7203419680511156,1548,68,516,768,136.07879639907424,77.52361045699114,0.0011191573161545,False
0.39,0.8002771200226544,1.2,1089.0,66.42636,0.3,68900.0,0.33,276.0,2700.0,19.2906773519018,3.637444660541988,9821.100583463369,14.081997317523609,4.5613050845000735,5.20868003437819,0.923860423958086,1805,76,598,900,139.0753088750242,78.49296720921313,0.0012054060311502,False
0.4,0.8437990272594516,1.2,1090.0,66.42636,0.3,68900.0,0.33,276.0,2700.0,21.130518161046577,4.09206234565609,11048.568333271443,15.309310425328846,5.200715312800059,5.821207735717731,1.1086529671439695,2047,80,680,1021,141.8520534465652,80.14658657830095,0.001277487459524,False
0.4100000000000001,0.8883290411715115,1.2,1091.0,66.42636,0.3,68900.0,0.33,276.0,2700.0,23.09600909299316,4.590334059211421,12393.901959870836,16.614324185058187,5.911310325316073,6.481684907934973,1.320976266104652,2182,84,728,1084,146.1256169912045,82.63442254971972,0.0013461894385475,False
0.42,1.0808077209455649,1.2,1092.0,66.42636,0.3,68900.0,0.33,276.0,2700.0,33.298135607657784,6.837438933262027,18461.085119807474,22.828445374442065,9.69232138701545,10.46969023321572,2.854882453753423,2974,102,994,1477,156.2200773645942,88.14979105489886,0.0018738254524178,False
0.43,0.9520140562466056,1.2,1093.0,66.42636,0.3,68900.0,0.33,276.0,2700.0,25.92751774621065,5.407897244029307,14601.32255887913,18.56730514723613,7.031040656000817,7.36021259897452,1.62314341197151,2206,86,736,1096,142.22290611312684,80.46554856689308,0.0014305531579008,False
0.44,0.822350546439049,1.2,1094.0,66.42636,0.3,68900.0,0.33,276.0,2700.0,19.418473435983284,4.093655203514063,11052.869049487968,14.698516129865594,4.878924832244175,4.71995730611769,0.7852696287301129,1836,74,614,907,127.0851984128502,71.45334192395218,0.0011327998037307,False
0.45,0.7844576297988225,1.2,1095.0,66.42636,0.1,68900.0,0.33,276.0,2700.0,17.57513537020692,3.763553704590978,10161.59500239564,13.647686081629276,4.341978648335197,3.927449288577643,0.5784249437442193,30245,206,4762,19280,141.7019929400783,80.68259170323427,0.0010723706382589,False
0.46,1.118951820245515,1.2,1096.0,66.42636,0.3,68900.0,0.33,276.0,2700.0,34.59537992659985,7.753077341431422,20933.30882186484,24.170462202578086,10.58857064980552,10.42491772402176,2.8354933083740983,3111,104,1026,1554,150.91334414223482,86.49854113301143,0.0017921476891149,False
0.4700000000000001,0.9317896808246,1.2,1097.0,66.42636,0.3,68900.0,0.33,276.0,2700.0,24.09764093207694,5.445499236322312,14702.84793807024,17.9360538863295,6.661929162798907,6.161587045747439,1.2164299264765948,2201,84,712,1109,131.62308145282043,74.56082679458741,0.0012830008810482,False
0.4800000000000001,0.954463278880132,1.2,1098.0,66.42636,0.3,68900.0,0.33,276.0,2700.0,25.050701532297683,5.780545024587714,15607.471566386828,18.644449103940534,7.076610560602089,6.406252428357146,1.296065536014375,2214,84,722,1111,129.08974847858988,73.86703765469629,0.0013032995749138,False
0.49,1.1398437265573278,1.2,1099.0,66.42636,0.3,68900.0,0.33,276.0,2700.0,35.12744257239664,8.359819940835719,22571.51384025644,24.920997342337408,11.101358638349824,10.20644523005923,2.7415386975141054,3219,104,1020,1641,148.93139582436706,84.85239971266212,0.0017209841822631,False
0.5,0.8059491646811368,1.2,1100.0,66.42636,0.2,68900.0,0.33,276.0,2700.0,17.72232665400151,4.168782275700932,11255.712144392515,14.239250542217748,4.641624393634149,3.4830761117837614,0.4728421179332169,5317,104,1296,3011,128.13239128594807,73.0998017105989,0.001016905438077,False
0.05,0.3905823061410977,1.2,1105.0,69.44574,0.1,68900.0,0.33,276.0,2700.0,8.887560747489205,0.2219272192994309,599.2034921084635,4.861978070411047,0.8247065552278274,4.025582677078158,0.6027793359283965,7592,144,2494,3845,552.5649300840067,316.7618000966041,0.003039173109048,True
0.06,0.3727376463364944,1.2,1106.0,69.44574,0.1,68900.0,0.33,276.0,2700.0,8.143301759244606,0.2438466634352208,658.3859912750963,4.556263647922221,0.7406857965166086,3.587038111322385,0.4968391330813877,6714,134,2194,3417,438.4989620208012,252.1063605981519,0.0024116749102917,True
0.0699999999999999,0.4325356330743355,1.2,1107.0,69.44574,0.1,68900.0,0.33,276.0,2700.0,9.997325918522984,0.3491880296281842,942.8076799960972,5.612247348996855,1.0442662041080102,4.385078569526129,0.695078174479826,8280,152,2722,4191,425.2503166592825,244.29365995295265,0.0025623076836431,True
0.08,0.5641543175215382,1.2,1108.0,69.44574,0.2,68900.0,0.33,276.0,2700.0,14.849186022409617,0.5928951106039588,1600.816798630689,8.253123298996798,1.9519617096952375,6.5960627234128175,1.359066599091279,3258,98,1070,1647,485.7400389742356,280.43151303700154,0.003554130111007,True
0.09,0.5716061060860343,1.2,1109.0,69.44574,0.2,68900.0,0.33,276.0,2700.0,14.961587571301324,0.6717446266789033,1813.710492033039,8.415663266955892,2.014066979610432,6.545924304345432,1.342322352931529,3274,98,1074,1657,439.054977495323,253.4465460628181,0.0032227504719895,True
0.0999999999999999,0.5284327275077609,1.2,1110.0,69.44574,0.1,68900.0,0.33,276.0,2700.0,13.030258468462783,0.6494185283204895,1753.4300264653216,7.493336649451941,1.6708128829626496,5.536921819010842,1.02139435464216,10517,178,3468,5309,360.50138227831934,207.9961382882717,0.0025078014060854,True
0.11,0.5893350557491774,1.2,1111.0,69.44574,0.2,68900.0,0.33,276.0,2700.0,15.309357621403397,0.839227029295903,2265.912979098938,8.80798079868228,2.166733867949905,6.501376822721115,1.3275068386540023,3372,100,1102,1713,375.6876864703414,216.6298635373926,0.0027670993850939,True
0.12,0.7607976080118919,1.2,1112.0,69.44574,0.3,68900.0,0.33,276.0,2700.0,23.001380526997384,1.3764637168829066,3716.452035583848,13.00985750176768,4.026647357195851,9.991523025229704,2.6501836403129446,2130,84,692,1086,449.15254332887497,256.3297097779391,0.0042351271408306,True
0.13,0.7199915334041621,1.2,1113.0,69.44574,0.3,68900.0,0.33,276.0,2700.0,20.76552101549422,1.3451574799671535,3631.925195911315,11.94286158825024,3.517678408000229,8.822659427243979,2.172520928033076,2189,82,710,1118,394.4583021111896,225.4443994086192,0.0034717946888172,True
0.14,0.6716967201894198,1.2,1114.0,69.44574,0.3,68900.0,0.33,276.0,2700.0,18.295554283351112,1.2749417796736089,3442.3428051187434,10.734124865146883,2.970323912941323,7.561429418204229,1.6953821332677144,1911,76,626,966,343.56851871490016,196.79688894433545,0.0027897101469149,True
0.15,0.7170515482500154,1.2,1115.0,69.44574,0.3,68900.0,0.33,276.0,2700.0,20.183755627285198,1.5067130885753508,4068.125339153448,11.86760314761321,3.482677254804393,8.316152479671985,1.975964166229042,2071,78,676,1051,338.8431067511969,193.0946509798113,0.0029604095865437,True
0.16,0.5078506033091291,1.2,1116.0,69.44574,0.3,68900.0,0.33,276.0,2700.0,11.213387207957435,0.8884923342971927,2398.92930260242,7.0701240732695085,1.520957665479218,4.143263134687927,0.6324653311820254,1765,68,582,886,232.69404942157536,134.18925016067618,0.0014843741853131,False
0.17,0.7420251688310942,1.2,1117.0,69.44574,0.3,68900.0,0.33,276.0,2700.0,20.938644005424155,1.7694949773229958,4777.636438772089,12.51379860570828,3.787090571674322,8.424845399715874,2.0175955943513264,1896,78,620,960,311.07296111897284,176.61049618421757,0.002755594656585,True
0.18,0.5573414515436972,1.2,1118.0,69.44574,0.3,68900.0,0.33,276.0,2700.0,12.740110823061247,1.1343954618383556,3062.86774696356,8.10574088374514,1.8962369973718036,4.634369939316107,0.7618415355334478,1661,68,546,836,228.59237900215112,131.26579395798964,0.0015190835439382,False
0.19,0.6398173404286398,1.2,1119.0,69.44574,0.3,68900.0,0.33,276.0,2700.0,15.902524329981464,1.4963743553409243,4040.210759420496,9.968356847230805,2.640400630683497,5.934167482750661,1.1440262753425732,1586,70,512,812,246.99046190901984,141.50598856447667,0.0018148209350172,False
0.2,0.8065932508909217,1.2,1120.0,69.44574,0.3,68900.0,0.33,276.0,2700.0,23.454627411737032,2.3287075803545583,6287.510466957308,14.257158475590105,4.650801465112605,9.19746893614693,2.3220938847580466,2268,86,744,1146,279.84669330840626,158.27597852679534,0.0026985538650543,True
0.21,0.7045390704028531,1.2,1121.0,69.44574,0.3,68900.0,0.33,276.0,2700.0,18.35181553260629,1.907544437880399,5150.369982277077,11.54973544786661,3.336176892474234,6.802080084739686,1.4286324545938351,1745,74,574,878,241.1352090776581,136.98960102795093,0.001954676994609,False
0.22,0.541671757341766,1.2,1122.0,69.44574,0.3,68900.0,0.33,276.0,2700.0,11.49681063257865,1.2423480505333682,3354.339736440094,7.7711861798688675,1.7718517596348209,3.7256244527097833,0.5295037091014525,1548,64,510,777,185.14383990999556,104.93290289402964,0.0013955523947383,False
0.23,0.8297788236224894,1.2,1123.0,69.44574,0.3,68900.0,0.33,276.0,2700.0,23.951529053606205,2.728943335953896,7368.147007075519,14.908744488329136,4.988889443035691,9.042784565277069,2.259946107081795,2441,88,800,1235,245.8635950011166,138.29209716406694,0.0024324979667411,False
0.24,0.9254900459981944,1.2,1124.0,69.44574,0.3,68900.0,0.33,276.0,2700.0,28.814894957779632,3.4288344770380745,9257.8530880028,17.741526909729405,6.549551821152682,11.073368048050227,3.1207173441146074,2613,96,862,1314,257.3579891191657,144.64751850762917,0.0028656592552283,False
0.25,0.6283954443420229,1.2,1125.0,69.44574,0.3,68900.0,0.33,276.0,2700.0,14.352535432337367,1.761342005567277,4755.623415031648,9.70020894204109,2.528077594226961,4.652326490296277,0.766735588659684,1466,64,486,731,184.04249227474224,105.27121531849566,0.0013385951327912,False
0.26,0.7418154347784612,1.2,1126.0,69.44574,0.3,68900.0,0.33,276.0,2700.0,19.058343331817724,2.440773544816495,6590.088571004537,12.508306444091808,3.784466577945352,6.550036887725916,1.3436930331288566,1855,76,610,934,203.29697267961245,115.14990285160412,0.0016838520354915,False
0.27,0.9173831682720344,1.2,1127.0,69.44574,0.3,68900.0,0.33,276.0,2700.0,27.640443999872492,3.690235961182384,9963.637095192436,17.49266157053393,6.406733308142802,10.147782429338566,2.7164973469604186,2516,94,828,1268,224.4279993448284,126.92250198230704,0.0024497237917628,False
0.28,0.6587164341864877,1.2,1128.0,69.44574,0.3,68900.0,0.33,276.0,2700.0,15.077046001911734,2.064810278979908,5574.987753245752,10.41924536017099,2.833040095700353,4.657800641740744,0.7682298167204453,1381,64,456,691,172.12263580502568,98.07971269965444,0.0012847153529285,False
0.29,0.8951415954572317,1.2,1129.0,69.44574,0.3,68900.0,0.33,276.0,2700.0,25.98279011447444,3.716424364446527,10034.345784005623,16.818370918197523,6.0251906882713735,9.164419196276915,2.3087663238248464,2501,90,822,1262,206.06573872524368,116.51108335034108,0.0021425479214888,False
0.3,0.8929917068269732,1.2,1130.0,69.44574,0.3,68900.0,0.33,276.0,2700.0,25.64373259637202,3.790011221691186,10233.030298566202,16.753852398893248,5.989102438482063,8.889880197478771,2.199091216790877,2503,90,822,1264,199.4005285726319,112.7255906459712,0.0020473074124783,False
0.31,0.7903883058095433,1.2,1131.0,69.44574,0.3,68900.0,0.33,276.0,2700.0,20.33179157189353,3.0890335691481,8340.390636699869,13.809770982880243,4.4233988524100365,6.522020589013286,1.3343652832619366,1973,80,650,992,181.45676395485265,103.1370703899174,0.001546274253121,False
0.32,0.7023262050686607,1.2,1132.0,69.44574,0.3,68900.0,0.33,276.0,2700.0,16.213469043757836,2.5255259082860344,6818.919952372293,11.49392916862436,3.3106806518675933,4.719539875133478,0.7851547435815589,1456,66,482,727,159.40518785531356,90.61554958508958,0.0012486380194699,False
0.33,0.7014233837109018,1.2,1133.0,69.44574,0.3,68900.0,0.33,276.0,2700.0,16.005260394600352,2.565601688314339,6927.124558448715,11.471196253275249,3.3003139505515646,4.534064141325104,0.7347122622372257,1437,66,478,714,153.0489077000225,86.61108736112828,0.0012142829165566,False
0.34,0.7771444469724386,1.2,1134.0,69.44574,0.3,68900.0,0.33,276.0,2700.0,19.146399926342607,3.172569882373779,8565.938682409203,13.44903449245191,4.242897831735642,5.697365433890697,1.0703279493618632,1894,78,626,949,162.8107434639853,91.96287208017816,0.0013717013302769,False
0.3500000000000001,0.6943870940167463,1.2,1135.0,69.44574,0.3,68900.0,0.33,276.0,2700.0,15.381745560684983,2.6020082831047646,7025.4223643828645,11.29472544535551,3.220220870046818,4.087020115329473,0.6182125869420534,1497,66,496,747,145.652732873114,82.6361365606134,0.001142313930335,False
0.36,0.7722939822899776,1.2,1136.0,69.44574,0.3,68900.0,0.33,276.0,2700.0,18.562754922527265,3.2435797881576507,8757.665428025657,13.31802033749422,4.177981743688484,5.244734585033045,0.9344019555308334,1793,76,598,890,153.24438868605463,86.65492164174329,0.0012929319410391,False
0.37,0.8316753264784338,1.2,1137.0,69.44574,0.3,68900.0,0.33,276.0,2700.0,21.122037617839997,3.8014895641788775,10264.021823282968,14.96263982039906,5.017215011575671,6.159397797440933,1.2157254473967938,2024,80,672,1010,153.86096280694576,87.12483291055712,0.0014046172695081,False
0.38,1.0751724360765622,1.2,1138.0,69.44574,0.3,68900.0,0.33,276.0,2700.0,33.947640632330106,6.3351280720842045,17104.845794627352,22.633280424156226,9.56422687406541,11.31436020817388,3.229098801981205,3066,104,1020,1530,178.35888353350808,101.70933520923636,0.0021920522679053,False
0.39,1.0349052992259715,1.2,1139.0,69.44574,0.3,68900.0,0.33,276.0,2700.0,31.350809895567085,5.989170506556718,16170.760367703138,21.261949205368307,8.680596009589596,10.08886069019878,2.691425503032878,2861,100,952,1427,171.40081714334912,96.2653807202033,0.0019828643444935,False
0.4,0.7570070417445252,1.2,1140.0,69.44574,0.3,68900.0,0.33,276.0,2700.0,17.202382943381092,3.3064353021230555,8927.37531573225,12.908978713961464,3.977523938141334,4.293404229419629,0.6710886360182786,1538,68,514,761,133.80092009967643,76.2476885623768,0.0011357815398571,False
0.4100000000000001,0.9323505411636271,1.2,1141.0,69.44574,0.3,68900.0,0.33,276.0,2700.0,25.32058671523603,5.0463724717713445,13625.20567378263,17.9534210945791,6.67199365398205,7.36716562065693,1.6256211822107058,2198,86,734,1091,153.10073365512784,86.33187855871394,0.0015149639319683,False
0.42,1.0512999507886118,1.2,1142.0,69.44574,0.3,68900.0,0.33,276.0,2700.0,31.58345077462113,6.477355118324117,17488.858819475117,21.81536461608948,9.033705555544476,9.768086158531649,2.5563504372203605,3073,102,1026,1528,165.88600665910158,93.40204047378344,0.0018632871392646,False
0.43,0.7852251300835777,1.2,1143.0,69.44574,0.3,68900.0,0.33,276.0,2700.0,17.932632519418473,3.688996920268997,9960.291684726291,13.668612005809676,4.352461280668602,4.264020513608797,0.6634643603996055,1668,72,558,823,133.2061644156844,75.72610122039313,0.0011301252384337,False
0.44,0.8895366592155798,1.2,1144.0,69.44574,0.3,68900.0,0.33,276.0,2700.0,22.579288235972022,4.789034459511582,12930.39304068127,16.650409190906686,5.9313958677554615,5.928879045065337,1.1423614082438798,2120,82,694,1063,139.22888392696888,78.45299930482125,0.0013238844511689,False
0.45,0.9981380579681872,1.2,1145.0,69.44574,0.3,68900.0,0.33,276.0,2700.0,27.953898756824035,6.098775466579827,16466.693759765534,20.04540212897287,7.92132143132191,7.908496627851164,1.8225459647420823,2575,92,864,1273,148.63550682913908,83.70636460354183,0.0015445464515406,False
0.46,0.970705485004064,1.2,1146.0,69.44574,0.3,68900.0,0.33,276.0,2700.0,26.28804072805015,5.842389325764925,15774.451179565298,19.159850143505498,7.38361419681901,7.128190584544651,1.5412248710540857,2461,90,814,1224,141.13859010777065,80.11272618848581,0.0014449289849072,False
0.4700000000000001,0.9470524789514594,1.2,1147.0,69.44574,0.3,68900.0,0.33,276.0,2700.0,24.8682246603044,5.626586412455712,15191.783313630422,18.411490800044103,6.939304334623913,6.456733860260293,1.3127179221682015,2166,84,718,1077,142.18005694660238,80.67058148485924,0.0013816931109498,False
0.4800000000000001,1.14869534672616,1.2,1148.0,69.44574,0.3,68900.0,0.33,276.0,2700.0,35.90323777434012,8.385153722677765,22639.915051229968,25.242297456839964,11.323370401803505,10.660940317500156,2.9382166791257376,3681,108,1130,1906,159.77054875137972,90.44765961976763,0.0018777197740144,False
0.49,1.146152669814504,1.2,1149.0,69.44574,0.3,68900.0,0.33,276.0,2700.0,35.50735424879065,8.452898301552253,22822.825414191084,25.14980063492019,11.259305024059202,10.357553613870458,2.8064067225069493,3243,104,1028,1653,154.1051021140054,88.10132434019494,0.0018167477219041,False
0.5,0.9297021018876472,1.2,1150.0,69.44574,0.3,68900.0,0.33,276.0,2700.0,23.43166201013961,5.5961161147357545,15109.513509786537,17.871480857063233,6.624553654195703,5.560181153076382,1.028437539459948,2357,82,700,1237,132.09439575291566,75.73526994982456,0.0012800183344015,False
0.04,0.4032464482124018,1.2,1154.0,72.46512,0.1,68900.0,0.33,276.0,2700.0,9.480716128987682,0.1894802812932003,511.596759491641,5.083795188061105,0.8876796441180953,4.396920940926577,0.6981993628248949,7914,148,2600,4008,759.1464129580953,433.8951817059328,0.0041777310907477,True
0.06,0.5945890007428901,1.2,1156.0,72.46512,0.2,68900.0,0.33,276.0,2700.0,16.547752207116154,0.4959801768713675,1339.1464775526924,8.925760852304094,2.213319615784177,7.62199135481206,1.7173394389128092,3539,104,1166,1784,703.097304823336,405.9331415026843,0.0055128714978403,True
0.0699999999999999,0.7446068611256622,1.2,1157.0,72.46512,0.2,68900.0,0.33,276.0,2700.0,23.386795180963443,0.8178194538136017,2208.1125252967245,12.581494169901069,3.8194846976297407,10.805301011062374,3.001665243816139,5076,128,1668,2568,781.6597859527026,446.5307004418239,0.0072691513532506,True
0.08,0.5888133979821539,1.2,1158.0,72.46512,0.2,68900.0,0.33,276.0,2700.0,15.886008246166702,0.6343679995542434,1712.7935987964572,8.796324422401536,2.162142156971404,7.089683823765165,1.5277741574171606,3346,100,1096,1696,528.8788434271332,305.2843724585665,0.0040214194514817,True
0.09,0.4666280899231895,1.2,1159.0,72.46512,0.2,68900.0,0.33,276.0,2700.0,10.876749204486062,0.4879269001722109,1317.4026304649697,6.25451674437663,1.2464667840219747,4.622232460109432,0.7585398838497638,2311,80,758,1168,387.4756604217328,223.49693219203587,0.0023521801541,True
0.0999999999999999,0.6971102287366229,1.2,1160.0,72.46512,0.3,68900.0,0.33,276.0,2700.0,20.345401019938823,1.0151756558945455,2740.9742709152733,11.362874324664896,3.2510706760554657,8.982526695273926,2.23589502016092,2052,80,672,1038,519.8696135666713,298.0156718653396,0.0044852295979788,True
0.11,0.6131013626003249,1.2,1161.0,72.46512,0.2,68900.0,0.33,276.0,2700.0,16.32027094808095,0.8948272622631658,2416.0336081105474,9.346289646223926,2.382435733611868,6.973981301857023,1.4876084713487026,3498,102,1150,1767,403.7268256964208,232.63890639177845,0.0031183570678894,True
0.12,0.6270031327343903,1.2,1162.0,72.46512,0.3,68900.0,0.33,276.0,2700.0,16.720672804667053,0.9996212535430888,2698.9773845663394,9.667746325103623,2.514594485412541,7.05292647956343,1.5149732318694529,1701,72,554,864,393.8295889668759,225.8860403665661,0.0029982295600904,True
0.13,0.5368295207663838,1.2,1163.0,72.46512,0.3,68900.0,0.33,276.0,2700.0,12.816336061444858,0.8284604579539576,2236.843236475685,7.669050485899397,1.7344693580687138,5.14728557554546,0.9060089001147562,1794,70,588,906,316.1735098252371,182.2148322006536,0.0020394179335167,True
0.14,0.680360038723367,1.2,1164.0,72.46512,0.3,68900.0,0.33,276.0,2700.0,18.690098734163147,1.3025598912304537,3516.9117063222247,10.9466383965556,3.064236230244793,7.743460337607546,1.7616763390143395,1831,76,598,928,363.6106574386373,208.2364794193706,0.0029878417448385,True
0.15,0.833292801742991,1.2,1165.0,72.46512,0.3,68900.0,0.33,276.0,2700.0,26.027684320758397,1.9450077405863024,5251.520899583016,15.00867709516084,5.041453934591422,11.019007225597552,3.09644619400512,2483,92,818,1250,400.506469486099,225.91109556252715,0.0041671716569261,True
0.16,0.8501723818624263,1.2,1166.0,72.46512,0.3,68900.0,0.33,276.0,2700.0,26.68265041037642,2.1260333904907083,5740.290154324913,15.493034448665773,5.2988719038383,11.18961596171065,3.172838513347592,2492,92,820,1256,380.0003797003191,216.03963609542723,0.0040390944431018,True
0.17,0.6418475498716387,1.2,1167.0,72.46512,0.3,68900.0,0.33,276.0,2700.0,16.371787418375256,1.3813121674238389,3729.542852044364,10.01636256737537,2.660687196193174,6.355424850999885,1.2793750287693353,1579,70,510,808,288.6462222737153,165.55127969011005,0.0021604084732061,True
0.18,0.7763313172948847,1.2,1168.0,72.46512,0.3,68900.0,0.33,276.0,2700.0,22.392002413955364,2.0030657050188267,5408.277403550832,13.427030085679473,4.231970969999475,8.964972328275891,2.228905264980648,2285,86,748,1157,314.3118786966851,177.8279800791468,0.0029442093633775,True
0.19,0.6837715318434008,1.2,1169.0,72.46512,0.3,68900.0,0.33,276.0,2700.0,17.817601440275126,1.6783066808188227,4531.428038210822,11.030840887658384,3.1017241567759672,6.786760552616741,1.4234174759571443,1734,74,570,873,272.3433970738347,154.99531062003751,0.0021571563180856,False
0.2,0.5532622147294062,1.2,1170.0,72.46512,0.3,68900.0,0.33,276.0,2700.0,12.24979770455826,1.2082246096366809,3262.2064460190377,8.018053284295673,1.8633507521595192,4.2317444202625865,0.6551261425228385,1508,64,500,752,214.0614067696534,122.85850952192423,0.0014278722405323,False
0.21,0.8166779540008604,1.2,1171.0,72.46512,0.3,68900.0,0.33,276.0,2700.0,23.738308449923714,2.473126194198728,6677.440724336566,14.538909448555655,4.79599921491922,9.199399001368056,2.3228730207204924,2441,88,800,1235,278.58192536713506,157.00223941350112,0.0027290336929655,True
0.22,0.6558799875275312,1.2,1172.0,72.46512,0.3,68900.0,0.33,276.0,2700.0,16.024961359357125,1.7404446304790016,4699.200502293304,10.351001791757469,2.80358329442546,5.673959567599658,1.0631386639464586,1606,70,520,820,227.09945443825487,129.87419561006217,0.0016794272376319,False
0.23,0.920434570395374,1.2,1173.0,72.46512,0.3,68900.0,0.33,276.0,2700.0,28.78228139641169,3.284479855376527,8868.095609516624,17.586139813553878,6.460253013151133,11.196141582857813,3.1757731577746062,2613,96,862,1314,279.5038492294615,157.21897525169837,0.0031100331405829,True
0.24,0.8599452887433656,1.2,1174.0,72.46512,0.3,68900.0,0.33,276.0,2700.0,25.280677660102032,3.004728401316759,8112.766683555249,15.776739930132427,5.451668245510208,9.503937729969604,2.4469398441934485,2396,90,792,1202,253.07206244543923,142.0380823449195,0.0025856239108192,False
0.25,0.8425745850152335,1.2,1175.0,72.46512,0.3,68900.0,0.33,276.0,2700.0,24.15465124483128,2.9866064821290133,8063.837501748336,15.274130463179182,5.181991488146019,8.8805207816521,2.195385006017005,2439,88,800,1233,279.04050405607785,157.63269624468234,0.0023732321226007,True
0.26,0.7279290255187578,1.2,1176.0,72.46512,0.3,68900.0,0.33,276.0,2700.0,18.426736125832715,2.3586646080385902,6368.394441704194,12.147132382131725,3.613284429200262,6.27960374370099,1.254619821161672,1759,74,578,886,208.9465798054996,118.84050893887216,0.0016934230628419,False
0.27,0.728513770969732,1.2,1177.0,72.46512,0.3,68900.0,0.33,276.0,2700.0,18.261245168942573,2.424044119006841,6544.919121318471,12.162243387131891,3.620391827230036,6.09900178181068,1.196347708223195,1760,74,578,887,200.28867849663268,113.8896949461639,0.0016197843296936,False
0.28,0.7035159480274676,1.2,1178.0,72.46512,0.3,68900.0,0.33,276.0,2700.0,16.97112962700579,2.3299819864930296,6290.95136353118,11.523918015113331,3.3243733091476395,5.44721161189246,0.99439132265461,1582,70,522,793,188.43163657995945,107.28666747190542,0.0014770866373338,False
0.29,0.8066857776790683,1.2,1179.0,72.46512,0.3,68900.0,0.33,276.0,2700.0,21.51022188474592,3.0679019711358886,8283.3353220669,14.25973191246624,4.652120753248713,7.250489972279677,1.5842187821128246,1922,80,634,965,201.43280724892333,113.78232790499952,0.0018248737780375,False
0.3,0.7809290991268195,1.2,1180.0,72.46512,0.3,68900.0,0.33,276.0,2700.0,20.08430205374613,2.9560966402971838,7981.460928802395,13.55167104946872,4.293991857398531,6.5326310042774125,1.3378952171013476,1974,80,650,993,194.10102048728209,109.85352414718876,0.0016751760701672,False
0.31,0.9933813403511808,1.2,1181.0,72.46512,0.3,68900.0,0.33,276.0,2700.0,30.911690260216197,4.728917865838115,12768.078237762911,19.890494895338502,7.826339764272571,11.021195364877691,3.0974218984344564,2847,100,942,1428,215.63241698184015,121.01201541877266,0.0025206642940899,False
0.32,0.988297550199138,1.2,1182.0,72.46512,0.3,68900.0,0.33,276.0,2700.0,30.37682244245481,4.791662452077551,12937.488620609389,19.72556487853169,7.725640172184909,10.65125756392312,2.9339777201073582,2793,98,924,1401,208.20326310110596,117.52757632369264,0.0024022659679485,False
0.33,0.7889907950304813,1.2,1183.0,72.46512,0.3,68900.0,0.33,276.0,2700.0,19.879595919162888,3.2048670498671714,8653.141034641363,13.771497515202547,4.404126298113319,6.108098403960341,1.1992592482461473,1870,78,618,937,177.44735224098952,100.8848389624383,0.0015034932093055,False
0.34,1.0347028756070205,1.2,1184.0,72.46512,0.3,68900.0,0.33,276.0,2700.0,32.55777705124208,5.452503993606694,14721.760782738074,21.25515844238685,8.676292776208264,11.302618608855225,3.22378878260157,2978,102,990,1487,202.3164820357296,114.68085268988236,0.0024347073218818,False
0.3500000000000001,0.8520474044202538,1.2,1185.0,72.46512,0.3,68900.0,0.33,276.0,2700.0,22.50000189984532,3.8477031424578247,10388.798484636129,15.547279877032562,5.327972534813344,6.9527220228127575,1.480269392355519,2057,82,686,1022,174.48014550005735,98.39083143166108,0.0016110900588018,False
0.36,0.7166692089785514,1.2,1186.0,72.46512,0.3,68900.0,0.33,276.0,2700.0,16.14565913625107,2.808502546627936,7582.956875895426,11.857831898318526,3.4781416721459304,4.287827237932543,0.6696391255179948,1447,66,480,721,151.56082737245268,85.86163249599736,0.0012103916887536,False
0.37,0.7299417586414865,1.2,1187.0,72.46512,0.3,68900.0,0.33,276.0,2700.0,16.541153236218474,2.954025953578896,7975.870074663019,12.19918159416505,3.63778572840124,4.341971642053423,0.6837597748223438,1559,68,518,776,148.64780071105898,83.79269055005429,0.0012090739886382,False
0.38,0.7477701992338541,1.2,1188.0,72.46512,0.3,68900.0,0.33,276.0,2700.0,17.137255091096275,3.141154819249846,8481.118011974584,12.664669671247845,3.859415707414688,4.472585419848432,0.7182608881648416,1546,68,516,766,148.33929830017937,84.54126195260179,0.0012320680051545,False
0.39,1.0215173540086837,1.2,1189.0,72.46512,0.3,68900.0,0.33,276.0,2700.0,30.58821360465057,5.840464229828004,15769.25342053561,20.815038286177632,8.398938833611279,9.773175318472935,2.5584746037832757,2959,100,982,1480,179.889131284385,101.3598913309722,0.0020116983463384,False
0.4,0.7208779084442738,1.2,1190.0,72.46512,0.3,68900.0,0.33,276.0,2700.0,15.678822874175962,3.001723288282028,8104.652878361476,11.965593847748275,3.528274335614755,3.713229026427685,0.5265510473327266,1486,66,498,733,135.341953602931,76.25252576388725,0.0011049823396309,False
0.4100000000000001,0.846939104079302,1.2,1191.0,72.46512,0.3,68900.0,0.33,276.0,2700.0,21.093263193443505,4.179771149803878,11285.382104470473,15.399701506709109,5.248929576218647,5.693561686734396,1.0691584264147682,2064,80,680,1034,151.68977352007576,85.69824615518044,0.0013711767047685,False
0.42,0.7343767067924283,1.2,1192.0,72.46512,0.3,68900.0,0.33,276.0,2700.0,15.92654157995039,3.189404187443501,8611.391306097452,12.31422854380262,3.6921433971895854,3.6123130361477696,0.5027392097460845,1481,66,498,728,130.14342349512978,73.5355765802776,0.0010950906630385,False
0.43,0.8127246326480739,1.2,1193.0,72.46512,0.3,68900.0,0.33,276.0,2700.0,19.154529573688865,3.951704786937129,10669.602924730249,14.42815517754734,4.738741286765448,4.726374396141525,0.7870364998283188,1921,76,640,951,140.68726582045406,79.67546081697785,0.0012405156998978,False
0.44,1.102609370671446,1.2,1194.0,72.46512,0.3,68900.0,0.33,276.0,2700.0,34.10424828128418,7.324525669480258,19776.219307596697,23.591011503945527,10.198310053333934,10.513236777338651,2.873784383853676,3097,104,1028,1545,165.42269900544815,93.65387841067312,0.002007365410289,False
0.45,0.7630481136933953,1.2,1195.0,72.46512,0.3,68900.0,0.33,276.0,2700.0,16.661741771534864,3.5580401448894614,9606.708391201546,13.069921320968351,4.055993678530042,3.5918204505665123,0.4979535336405805,1514,66,494,757,127.0277779647251,72.16405555929276,0.001083844243914,False
0.46,1.149738044267156,1.2,1196.0,72.46512,0.3,68900.0,0.33,276.0,2700.0,36.45908492568933,8.181729491222002,22090.66962629941,25.28027540852423,11.34971028067496,11.178809517165105,3.1679807894529564,3525,110,1154,1768,162.52671615987168,91.88155600395788,0.0020625567136806,False
0.4700000000000001,0.8136798838840502,1.2,1197.0,72.46512,0.3,68900.0,0.33,276.0,2700.0,18.53045400963437,4.137210309547829,11170.467835779138,14.454881028783356,4.752536562957722,4.075572980851012,0.6153262534098936,2026,74,626,1043,129.60422346663708,72.51069201504049,0.0011566573499693,False
0.4800000000000001,1.1302594238540782,1.2,1198.0,72.46512,0.3,68900.0,0.33,276.0,2700.0,34.79169340720431,8.118383074564749,21919.634301324822,24.575322406346388,10.86416662667872,10.216371000857926,2.74578355211397,3197,104,1030,1618,158.6425378966997,91.55532852141,0.0018921648854684,False
0.49,1.1118927366740987,1.2,1199.0,72.46512,0.3,68900.0,0.33,276.0,2700.0,33.46835814289151,7.95334425560696,21474.029490138797,23.91934630360852,10.418836397938126,9.54901183928299,2.4654921423311658,3408,104,1052,1764,155.19257834701926,87.06115056259816,0.0017902102520419,False
0.5,0.8286194072336024,1.2,1200.0,72.46512,0.08,68900.0,0.33,276.0,2700.0,18.71062370554641,4.415856538587455,11922.81265418613,14.875840402906212,4.971623078370344,3.834783302640197,0.5557665397828888,63751,262,7676,42419,164.30429388238974,94.0504796825576,0.0011575006993913,False
0.04,0.433401795961127,1.2,1204.0,75.4845,0.08,68900.0,0.33,276.0,2700.0,10.539217050605464,0.210650299725556,568.7558092590014,5.6282033799026125,1.0491342333731035,4.911013670702853,0.8384839336475475,13192,196,4332,6688,897.3859330766695,512.8339254131668,0.0049228468231806,True
0.05,0.4039519257426768,1.2,1205.0,75.4845,0.1,68900.0,0.33,276.0,2700.0,9.33934467257178,0.2332218174264952,629.698907051537,5.096270412696656,0.8912705471517515,4.243074259875124,0.6580487297252563,7981,148,2616,4051,635.0691947653133,364.2136503635636,0.0034764028634403,True
0.06,0.5600143925447069,1.2,1206.0,75.4845,0.2,68900.0,0.33,276.0,2700.0,15.07521865620028,0.4518041703438929,1219.8712599285109,8.163425436418281,1.917980218229572,6.911793219781998,1.4661760478856791,3258,98,1072,1644,691.5395277804777,397.5310690089362,0.0051513754872461,True
0.0699999999999999,0.7349952704656256,1.2,1207.0,75.4845,0.2,68900.0,0.33,276.0,2700.0,22.90134439437392,0.800828676282966,2162.2374259640083,12.330313979876378,3.6997655060677466,10.57103041449754,2.8989368297847804,4952,126,1628,2504,772.3361840042091,440.89685424623326,0.0073692222850311,True
0.08,0.4780522658850834,1.2,1208.0,75.4845,0.2,68900.0,0.33,276.0,2700.0,11.468601309219231,0.4576717220763449,1235.7136496061312,6.476271719079978,1.319183045070453,4.992329590139255,0.861511322994108,2652,86,868,1344,455.3734322201045,262.868933636599,0.0028684238695318,True
0.09,0.5275621757690089,1.2,1209.0,75.4845,0.2,68900.0,0.33,276.0,2700.0,13.180327264897388,0.5915879128907369,1597.2873648049897,7.475220602103032,1.6642974325733717,5.705106662794356,1.0727095196826346,2883,92,948,1455,450.2533961748349,259.69274603140224,0.0030258595396125,True
0.0999999999999999,0.6432901634818124,1.2,1210.0,75.4845,0.2,68900.0,0.33,276.0,2700.0,17.855991208847154,0.8907051653399642,2404.903946417904,10.050537130470971,2.675161581214281,7.805454078376183,1.7844564158743166,4058,112,1336,2048,504.1602363189057,289.52169453225,0.0039387410317614,True
0.11,0.4338201178046579,1.2,1211.0,75.4845,0.1,68900.0,0.33,276.0,2700.0,9.39516536713501,0.5139464553111402,1387.6554293400786,5.635916253457296,1.0514902468651763,3.759249113677715,0.5375437915540361,7932,148,2616,4002,300.2918681705533,173.3428341955995,0.001831513529964,True
0.12,0.7670361369253782,1.2,1212.0,75.4845,0.3,68900.0,0.33,276.0,2700.0,23.316191455968216,1.3953523726211543,3767.4514060771166,13.176670446222928,4.108329554552864,10.13952100974529,2.71297718193171,2230,88,732,1126,489.1552156186516,280.01068977778,0.0046881536832424,True
0.13,0.6645484496340333,1.2,1213.0,75.4845,0.3,68900.0,0.33,276.0,2700.0,18.181336983578262,1.17718551789263,3178.400898310101,10.560196188266683,2.894215893850009,7.621140795311581,1.717030375957379,1746,74,574,879,401.1204856456257,229.91135567168345,0.003220825477797,True
0.14,0.7569311694303675,1.2,1214.0,75.4845,0.3,68900.0,0.33,276.0,2700.0,22.34132640617833,1.5581458282715164,4206.993736333095,12.906963201518648,3.9765445805146062,9.434363204659684,2.41839875224309,2064,82,672,1050,418.6849681516902,238.1579570540413,0.0038625826141197,True
0.15,0.7600100210261866,1.2,1215.0,75.4845,0.3,68900.0,0.33,276.0,2700.0,22.264334976024248,1.6627565397312447,4489.4426572743605,12.988867635473044,4.016409229437529,9.275467340551204,2.3536526897062844,2161,82,702,1102,390.5813265913776,222.29118989991028,0.0035985545410067,True
0.16,0.4940159578690609,1.2,1216.0,75.4845,0.1,68900.0,0.33,276.0,2700.0,10.712046507925944,0.8483850782946732,2290.6397113956177,6.791637518146858,1.4250769328641937,3.9204089897790864,0.5766918545695204,8805,158,2888,4441,243.26146294262244,140.22522762981475,0.0015548139948599,False
0.17,0.5370467608313483,1.2,1217.0,75.4845,0.3,68900.0,0.33,276.0,2700.0,12.13407063827498,1.0211062411153164,2756.9868510113542,7.67362003284645,1.7361358794173518,4.460450605428529,0.7150296383020354,1717,68,562,868,253.13293524756665,145.88287167102473,0.0016507989150196,False
0.18,0.8307664081386097,1.2,1218.0,75.4845,0.3,68900.0,0.33,276.0,2700.0,25.165280998695717,2.252660777645457,6082.184099642735,14.93679865272399,5.003626939158992,10.228482345971724,2.7509661615135346,2402,90,788,1214,346.593325839761,195.7496752983197,0.0035140550778125,True
0.19,0.6170230207242193,1.2,1219.0,75.4845,0.3,68900.0,0.33,276.0,2700.0,14.94761859220838,1.405658310252482,3795.2774376817015,9.436480023175752,2.4192654079247427,5.511138569032628,1.0136070976722606,1431,66,470,720,262.6302880912192,150.08926154595795,0.001829650418222,False
0.2,0.692397875708082,1.2,1220.0,75.4845,0.3,68900.0,0.33,276.0,2700.0,18.004441575017026,1.7836889966825575,4815.960291042906,11.245061275831432,3.1978026083228768,6.759380299185594,1.4141136116403192,1747,74,574,880,274.6007848458537,156.3731225312338,0.0021716779570221,False
0.21,0.8762064706218144,1.2,1221.0,75.4845,0.3,68900.0,0.33,276.0,2700.0,26.854542672547524,2.800330787574227,7560.893126450413,16.254118614283772,5.712089048119685,10.600424058263751,2.911758260545458,2466,92,810,1245,943.1425981649852,488.4155147590219,0.0035402433713658,True
0.22,0.7589730178137605,1.2,1222.0,75.4845,0.3,68900.0,0.33,276.0,2700.0,20.67544425719981,2.251997749241678,6080.39392295253,12.961254390472314,4.002954051821357,7.7141898667275,1.750956302579679,1931,78,634,974,265.38166986886245,150.30715490666122,0.0023340670419034,False
0.23,0.7216113937477475,1.2,1223.0,75.4845,0.3,68900.0,0.33,276.0,2700.0,18.728145159600256,2.128254188143209,5746.286307986666,11.984419978518156,3.537057826368053,6.7437251810821,1.408803638224844,1855,76,610,934,244.7595974955989,138.93140124889635,0.002005123695732,False
0.24,0.8779631765435361,1.2,1224.0,75.4845,0.3,68900.0,0.33,276.0,2700.0,26.230692246095543,3.118730151635983,8420.571409417154,16.30608789251756,5.7406883905569925,9.924604353577983,2.621958238921009,2469,92,812,1245,267.2161339481275,150.0250259447209,0.0028127828772665,False
0.25,0.6499802715718749,1.2,1225.0,75.4845,0.3,68900.0,0.33,276.0,2700.0,15.235906261052222,1.8717633591566325,5053.761069722907,10.209705091052824,2.7429325592800646,5.026201169999398,0.8711692001234321,1507,68,496,757,207.0627253672785,118.29825411327263,0.0015281281477547,False
0.26,0.7018807522708672,1.2,1226.0,75.4845,0.3,68900.0,0.33,276.0,2700.0,17.26810447310326,2.208042493183761,5961.714731596154,11.482710169337748,3.3055631479142247,5.785394303765512,1.097520654730464,1677,72,550,846,211.30054209862317,120.39899508334082,0.001643708175473,False
0.27,0.6496174215078891,1.2,1227.0,75.4845,0.3,68900.0,0.33,276.0,2700.0,14.874223368166309,1.9667961759020447,5310.349674935522,10.201043479530233,2.739229538667704,4.673179888636076,0.7724333627656585,1366,64,454,679,194.158866458306,110.27588881425224,0.0014199873017743,False
0.28,0.7695230475078012,1.2,1228.0,75.4845,0.3,68900.0,0.33,276.0,2700.0,19.94567257367461,2.7464179990267104,7415.328597372118,13.243440997517355,4.141181749708391,6.702231576157253,1.3947637506816806,1971,80,650,990,210.67445020786215,119.97043057464693,0.0018042360068128,False
0.29,0.9630176501772124,1.2,1229.0,75.4845,0.3,68900.0,0.33,276.0,2700.0,29.681477512787737,4.252734037201956,11482.38190044528,18.9150717585952,7.237258293140321,10.76640575419254,2.984524255938365,2946,100,972,1482,237.09969640231827,133.4916334937468,0.0026753327672424,False
0.3,0.7399553599168667,1.2,1230.0,75.4845,0.3,68900.0,0.33,276.0,2700.0,18.20918731318133,2.674829429212584,7222.039458873975,12.459646321475892,3.761245460781296,5.749540991705443,1.0864160315687124,1784,74,586,899,189.57145262057864,107.90407380844626,0.0015537780341364,False
0.31,0.8487719778810445,1.2,1231.0,75.4845,0.3,68900.0,0.33,276.0,2700.0,23.162528944877952,3.527797861960667,9525.0542272938,15.452577636306524,5.277203730405269,7.709951308571426,1.749405868444602,2235,84,740,1119,204.9920969695243,116.1442224654052,0.0019357947679754,False
0.32,0.7695037310763476,1.2,1232.0,75.4845,0.3,68900.0,0.33,276.0,2700.0,19.17118053697802,2.9987597472012637,8096.651317443411,13.24292177564032,4.140925938702924,5.928258761337702,1.1421661915016603,1873,78,620,937,186.11343099783824,105.5442095035143,0.0015533090556471,False
0.33,0.892624207588947,1.2,1233.0,75.4845,0.3,68900.0,0.33,276.0,2700.0,24.96275623558412,4.043588502076674,10917.68895560702,16.74283531059251,5.982947434981198,8.219920924991605,1.939358932904524,2293,86,758,1150,197.95556540890783,111.37158080599993,0.0019785590353082,False
0.34,0.9287564923638836,1.2,1234.0,75.4845,0.3,68900.0,0.33,276.0,2700.0,26.637320576608484,4.446026392918983,12004.271260881254,17.842267289261432,6.60766802577837,8.795053287347052,2.1616416328593866,2555,92,842,1286,198.07777777471657,111.59593318698818,0.0020601251761133,False
0.3500000000000001,0.7784614062254045,1.2,1235.0,75.4845,0.3,68900.0,0.33,276.0,2700.0,19.02215533706103,3.2390799939705737,8745.515983720548,13.484708471770004,4.260633147958683,5.537446865291026,1.0215531539881093,1824,76,606,909,170.7052113053922,96.2187043969188,0.0014582132697121,False
0.36,0.9811180510816856,1.2,1236.0,75.4845,0.2,68900.0,0.33,276.0,2700.0,29.024821723598457,5.126751812350467,13842.229893346264,19.49375156901843,7.584853423344002,9.531070154580028,2.458101610993535,7228,140,1974,3937,202.51307670859725,114.26969478391264,0.0021501686654909,False
0.37,0.6870584632919624,1.2,1237.0,75.4845,0.3,68900.0,0.33,276.0,2700.0,14.766057958979792,2.6256333272897394,7089.209983682296,11.112245624010669,3.138115486112068,3.6538123349691247,0.5124821588223285,1394,64,466,689,145.7251802415652,82.80983102356612,0.0011616466949748,False
0.38,0.7972479408316104,1.2,1238.0,75.4845,0.3,68900.0,0.33,276.0,2700.0,19.33207505089112,3.558170611610857,9607.060651349317,13.99834679361526,4.518774945685589,5.333728257275862,0.960604334074732,1797,76,598,894,160.44478167079353,90.22582010305958,0.0014006864986157,False
0.39,0.9630516838869057,1.2,1239.0,75.4845,0.3,68900.0,0.33,276.0,2700.0,27.36350824680349,5.2116466850478185,14071.44604962911,18.916152108456917,7.237902061585448,8.447356138346578,2.026255376537629,2487,92,836,1227,179.2518860287012,100.80970230227874,0.0018707269755966,False
0.4,0.8635857458234044,1.2,1240.0,75.4845,0.3,68900.0,0.33,276.0,2700.0,22.07905007504055,4.281768728454945,11560.775566828352,15.88303527781251,5.509296170866625,6.196014797228038,1.22752744241168,2075,82,692,1031,161.48937685372374,90.70529959815394,0.0014989118909942,False
0.4100000000000001,0.8068889395646857,1.2,1241.0,75.4845,0.3,68900.0,0.33,276.0,2700.0,19.237320423460755,3.799302881957414,10258.117781285018,14.265383185430478,4.655018361316522,4.971937238030277,0.8557154793591075,1873,76,602,948,159.43582572285408,90.4192014625258,0.0013339297313259,False
0.42,1.079054936804805,1.2,1242.0,75.4845,0.3,68900.0,0.33,276.0,2700.0,33.19505934553522,6.815792918216292,18402.640879183986,22.76765626663049,9.652361336375296,10.427403078904732,2.836568418159003,2975,102,994,1478,179.6995771657374,101.6581145231214,0.0021232985623788,False
0.43,0.8669083646631379,1.2,1243.0,75.4845,0.3,68900.0,0.33,276.0,2700.0,21.673333368420234,4.493247602804375,12131.768527571812,15.980341003754306,5.562231021207374,5.692992364665928,1.0689834184029996,2154,82,700,1086,150.52273455331914,85.33428031913007,0.0014160273951082,False
0.44,0.7792972711027251,1.2,1244.0,75.4845,0.1,68900.0,0.33,276.0,2700.0,17.51228800282416,3.6742944082190543,9920.594902191446,13.507373111109178,4.27191401321602,4.004914891714982,0.5976196049969658,29133,204,4644,18509,163.3134450336224,92.72826046722383,0.0012309221317069,False
0.45,0.8164491325170091,1.2,1245.0,75.4845,0.3,68900.0,0.33,276.0,2700.0,18.982924216917787,4.080306195100923,11016.826726772491,14.532488190834869,4.792673134771577,4.4504360260829205,0.7123669396706536,1849,74,608,919,140.76435292259723,79.51935694604839,0.0012558841923057,False
0.46,0.7636893000000029,1.2,1246.0,75.4845,0.2,68900.0,0.33,276.0,2700.0,16.535781701850233,3.599369749739012,9718.29832429533,13.08705726259694,4.064379426222666,3.4487244392532936,0.4650096764836542,4546,98,1154,2531,147.58532428988948,83.98246322366619,0.0011450758555102,False
0.4700000000000001,0.9805027203246328,1.2,1247.0,75.4845,0.3,68900.0,0.33,276.0,2700.0,26.59800362204645,6.033084468465151,16289.328064855908,19.473943902125647,7.572864413054527,7.124059719920805,1.5397799445893767,2485,90,814,1242,151.50624098602745,85.97519455824785,0.0015768161727192,False
0.4800000000000001,1.138276212130017,1.2,1248.0,75.4845,0.3,68900.0,0.33,276.0,2700.0,35.27294479936591,8.233883408683951,22231.485203446668,24.864304230081164,11.062339057175082,10.408640569284746,2.828455648491131,3190,104,1024,1616,169.5552076480525,96.5954953768274,0.0020023097907855,False
0.49,0.9484653708151792,1.2,1249.0,75.4845,0.3,68900.0,0.33,276.0,2700.0,24.55387766024077,5.769296537357532,15577.100650865335,18.455798526806444,6.965349075280265,6.098079133434325,1.1960525379227338,2279,84,716,1165,154.56068794900526,87.77247672486912,0.0014498158454101,False
0.5,0.8354999636987932,1.2,1250.0,75.4845,0.3,68900.0,0.33,276.0,2700.0,19.01568800847616,4.492122614319888,12128.731058663696,15.071604365658391,5.074649938501867,3.944083642817768,0.5825273241819797,2092,74,622,1093,135.5122160955188,77.91014065233124,0.0011997259432953,False
0.04,0.4061989584327763,1.2,1254.0,78.50388,0.1,68900.0,0.33,276.0,2700.0,9.582335380788871,0.1915126663292241,517.0841990889052,5.136088907468576,0.9027667463341718,4.446246473320295,0.7112540800049476,7912,148,2590,4021,834.2032345611581,476.8884227890878,0.0045874313940374,True
0.05,0.3931760479764302,1.2,1255.0,78.50388,0.1,68900.0,0.33,276.0,2700.0,8.974505576825774,0.2241008400328459,605.0722680886839,4.90708018113837,0.8373757262213339,4.067425395687404,0.613274886188488,7540,144,2478,3817,641.8242415335759,367.5794684133958,0.0034680742926203,True
0.06,0.3662856925896001,1.2,1256.0,78.50388,0.08,68900.0,0.33,276.0,2700.0,7.9359013665547025,0.2376246516545243,641.5865594672158,4.447698793059059,0.7116397844253392,3.488202573495643,0.4740151327708147,10432,168,3426,5287,500.4827560027147,287.4409293295073,0.0026621209355434,True
0.0699999999999999,0.4958970651061703,1.2,1257.0,78.50388,0.2,68900.0,0.33,276.0,2700.0,12.319801927965267,0.4304746899586628,1162.2816628883895,6.829220980347795,1.4378880666716032,5.490580947617472,1.0074133767129403,2732,88,890,1391,556.4965360140355,320.1716362781247,0.0036605131681364,True
0.08,0.7502760627195554,1.2,1258.0,78.50388,0.3,68900.0,0.33,276.0,2700.0,23.43019210822364,0.9361353540365198,2527.5654558986034,12.730736328267776,3.8912343847583295,10.69945577995586,2.9550990307218097,2308,86,760,1162,734.3954450553769,421.0585429428212,0.0071195693797377,True
0.09,0.5532501707919848,1.2,1259.0,78.50388,0.2,68900.0,0.33,276.0,2700.0,14.20737119698192,0.6378048898345419,1722.073202553263,8.017795006067166,1.863254184782869,6.189576190914755,1.225449294948327,3139,96,1032,1585,483.4162511579162,278.6475591780513,0.0034269310856508,True
0.0999999999999999,0.4036814436399326,1.2,1260.0,78.50388,0.1,68900.0,0.33,276.0,2700.0,8.540091137803689,0.4249101617877912,1147.257436827036,5.091485897352717,0.8898927443187029,3.448605240450972,0.4649825825309117,7321,140,2410,3700,318.9529023935752,184.00981634688455,0.0018875278551776,True
0.11,0.7831326116441173,1.2,1261.0,78.50388,0.3,68900.0,0.33,276.0,2700.0,24.380811510605305,1.338156993202007,3613.023881645419,13.61159425355184,4.323919132543228,10.769217257053464,2.985762139341221,2442,90,798,1239,563.4016131648552,321.1054732556458,0.0055568975137031,True
0.12,0.6978826953721939,1.2,1262.0,78.50388,0.3,68900.0,0.33,276.0,2700.0,19.93589227877409,1.1925344219895109,3219.8429393716788,11.382239924527978,3.259855596029964,8.553652354246113,2.0673211740404533,2056,80,672,1042,470.1985911478443,268.8951417536592,0.0040200430767592,True
0.13,0.8207836054474114,1.2,1263.0,78.50388,0.3,68900.0,0.33,276.0,2700.0,25.85917852233972,1.676245217912121,4525.862088362726,14.654347110870006,4.855927737985055,11.204831411469716,3.1796825200729337,2494,92,822,1255,494.8778822358016,281.552408597562,0.0051213688917222,True
0.14,0.6045889057517242,1.2,1264.0,78.50388,0.3,68900.0,0.33,276.0,2700.0,15.36712915666888,1.069952020805856,2888.870456175811,9.151850068377652,2.3037047174454988,6.215279088291227,1.2337526966396428,1641,70,534,834,360.5466431027639,207.00363512106668,0.0025550659104805,True
0.15,0.8404457539436923,1.2,1265.0,78.50388,0.3,68900.0,0.33,276.0,2700.0,26.40947580220404,1.9736421016947248,5328.833674575757,15.213055833134783,5.14954047361637,11.196419969069254,3.1758983719216456,2499,92,822,1260,435.9062339947093,248.34621417050184,0.0045971254056964,True
0.16,0.6701760707670001,1.2,1266.0,78.50388,0.3,68900.0,0.33,276.0,2700.0,17.814424690709348,1.4165753329173445,3824.7533988768296,10.697017532121414,2.954029293151769,7.117407158587934,1.5374539602344246,1780,74,584,898,339.9286834320568,194.43395844329217,0.0027193764212223,True
0.17,0.6629760422570699,1.2,1267.0,78.50388,0.3,68900.0,0.33,276.0,2700.0,17.29300811926657,1.4596159269995947,3940.963002898906,10.52210935701348,2.8776409156110385,6.77089876225309,1.4180249886114438,1666,72,546,841,325.1190056944686,185.86376293788211,0.0024894296601028,True
0.18,0.5624570706910472,1.2,1268.0,78.50388,0.3,68900.0,0.33,276.0,2700.0,12.938081998831947,1.152212867657718,3110.9747426758386,8.216297729533443,1.937985383614741,4.721784269298505,0.785772515957023,1606,68,528,808,265.66972847856186,153.01205543404697,0.0017363498179725,False
0.19,0.5401237669967972,1.2,1269.0,78.50388,0.3,68900.0,0.33,276.0,2700.0,11.918811164281236,1.1179216045993816,3018.3883324183303,7.738470849974023,1.7598473677360982,4.180340314307214,0.6419257631367166,1633,66,536,823,242.30954544775403,139.57750640776376,0.0015649901052689,False
0.2,0.7433953893881089,1.2,1270.0,78.50388,0.3,68900.0,0.33,276.0,2700.0,20.35739123103589,2.0189839622844428,5451.256698167996,12.549706835303676,3.804261831479355,7.807684395732217,1.7852778691949125,1955,78,638,992,296.7676800391004,168.19293992564232,0.0025989858247785,True
0.21,0.5391657706443761,1.2,1271.0,78.50388,0.3,68900.0,0.33,276.0,2700.0,11.561673670926687,1.19457954240404,3225.364764490908,7.718254660385052,1.7524436262475616,3.843419010541635,0.5578640838435216,1551,64,512,777,215.56809372567827,123.86827010606169,0.0014268848477254,False
0.22,0.7256326074046233,1.2,1272.0,78.50388,0.3,68900.0,0.33,276.0,2700.0,19.11302425092733,2.0801315485517247,5616.355181089657,12.087871437536142,3.585457603680073,7.025152813391193,1.5053260551283485,1799,76,594,902,264.8374808724222,150.39716660666338,0.002220915462844,False
0.23,0.8599426040963289,1.2,1273.0,78.50388,0.3,68900.0,0.33,276.0,2700.0,25.51300075598622,2.908512581727594,7852.983970664504,15.776661665768962,5.451625890637161,9.736339090217257,2.543113308909567,2562,92,840,1296,286.12674062983746,161.42733748514564,0.0029466912971331,True
0.24,0.5869166477984294,1.2,1274.0,78.50388,0.3,68900.0,0.33,276.0,2700.0,12.882066612896333,1.5168950756520765,4095.6167042606057,8.753999424821851,2.145497881272449,4.128067188074482,0.6286028056203732,1431,64,472,717,205.25008913511903,117.44193077020834,0.0014228357333619,False
0.25,0.7195277484504894,1.2,1275.0,78.50388,0.3,68900.0,0.33,276.0,2700.0,18.241466551970696,2.247458395521444,6068.1376679078985,11.930975078949622,3.512142245092816,6.310491473021074,1.2646838495713717,1856,74,610,935,229.3937017111924,131.0941233367685,0.0018779109019061,False
0.26,0.6848054169500962,1.2,1276.0,78.50388,0.3,68900.0,0.33,276.0,2700.0,16.527097131190885,2.1117115387351517,5701.621154584908,11.05641700046019,3.113141997950504,5.470680130730695,1.0014304592153525,1584,70,522,795,216.0827207776612,123.20696475543832,0.0016465245376803,False
0.27,0.6786720623264362,1.2,1277.0,78.50388,0.3,68900.0,0.33,276.0,2700.0,16.085144107163664,2.130270475666688,5751.730284300058,10.905083922869007,3.04579364456403,5.180060184294657,0.9155231688973418,1566,70,518,783,205.9796006057825,117.4350393680112,0.0015726287854709,False
0.28,0.9568435603067436,1.2,1278.0,78.50388,0.3,68900.0,0.33,276.0,2700.0,29.57971685539376,4.095184198467394,11056.997335861965,18.71956605487787,7.121078968010006,10.860150800515893,3.025894769542612,2862,100,948,1434,250.50198013491968,141.12891027980712,0.0028733787216098,False
0.29,0.7942740277558802,1.2,1279.0,78.50388,0.3,68900.0,0.33,276.0,2700.0,20.91411460067298,2.981466414945316,8049.959320352354,13.916446782072592,4.477266915961233,6.997667818600389,1.4958005010159172,1918,80,634,961,213.08918980280816,120.47076408948476,0.0019104377385785,False
0.3,0.9128126057254226,1.2,1280.0,78.50388,0.3,68900.0,0.33,276.0,2700.0,26.692746433284423,3.9473632972276,10657.88090251452,17.35308234578944,6.327101182088076,9.339664087494985,2.379737884860476,2564,92,846,1289,227.6996824703984,128.25258230713055,0.0024108032914298,False
0.31,0.7815564177217622,1.2,1281.0,78.50388,0.3,68900.0,0.33,276.0,2700.0,19.918496524830665,3.024972836853356,8167.426659504061,13.568718177878774,4.302498419113553,6.349778346951888,1.2775255822601967,1869,78,618,936,200.94958543285705,113.80828173959924,0.0017114514235233,False
0.32,0.9877439745021124,1.2,1282.0,78.50388,0.3,68900.0,0.33,276.0,2700.0,30.34543441930471,4.786640368373534,12923.92899460854,19.70764480699762,7.714725539271392,10.637789612307088,2.928085170897858,2793,98,924,1401,225.46176896010664,127.27391961898986,0.0025996794218301,False
0.33,0.841787765748191,1.2,1283.0,78.50388,0.2,68900.0,0.33,276.0,2700.0,22.40180096198929,3.6210308819335295,9776.78338122053,15.25154391606264,5.169982394795683,7.150257045926653,1.5489515128621538,5143,124,1588,2667,210.33592569796528,120.18119099106217,0.0018383118036494,False
0.34,0.9804126792486996,1.2,1284.0,78.50388,0.3,68900.0,0.33,276.0,2700.0,29.453469567944644,4.924771721446128,13296.883647904544,19.47104625316204,7.571111088648159,9.982423314782604,2.646339367202032,2761,98,916,1381,213.24034093787532,120.1351140060876,0.0023866724732616,False
0.3500000000000001,0.8866523955218668,1.2,1285.0,78.50388,0.3,68900.0,0.33,276.0,2700.0,24.229610482370862,4.150384644399791,11206.038539879435,16.56428486844665,5.883495949922048,7.665325613924217,1.7331113055222565,2274,86,754,1137,192.81975333110225,108.89327507279064,0.0018889998930981,False
0.36,0.8263321431466549,1.2,1286.0,78.50388,0.3,68900.0,0.33,276.0,2700.0,21.059842914680083,3.693055626745157,9971.250192211925,14.811027213962236,4.937672250354859,6.248815700717845,1.2446166236097014,2025,80,672,1011,177.83500965521722,100.43176400198804,0.0016124984764101,False
0.37,0.7387517442663951,1.2,1287.0,78.50388,0.3,68900.0,0.33,276.0,2700.0,16.917276404019884,3.0236087396221563,8163.743596979822,12.428205709519574,3.7462677603276617,4.48907069450031,0.7226590207055055,1540,68,514,763,163.08860180042564,92.97376645983358,0.0013327704073443,False
0.38,0.8962326511255296,1.2,1288.0,78.50388,0.3,68900.0,0.33,276.0,2700.0,24.092349997263184,4.462622851421486,12049.081698838012,16.851158117590373,6.043558350802889,7.241191879672812,1.580935499381403,2117,84,704,1055,181.9817091664464,102.75570271882852,0.0017475493929835,False
0.39,0.9073996179790962,1.2,1289.0,78.50388,0.3,68900.0,0.33,276.0,2700.0,24.45360395554753,4.644215348252829,12539.38144028264,17.18845561342448,6.233615053408601,7.265148342123048,1.5893997051557711,2136,84,710,1065,179.88536276630168,101.0599998681474,0.0017324740130316,False
0.4,0.8618489258371331,1.2,1290.0,78.50388,0.3,68900.0,0.33,276.0,2700.0,21.99500283516236,4.2649592804791885,11515.39005729381,15.832281448418213,5.48175428385929,6.1627213867441455,1.2167950033801018,2074,82,692,1030,167.73849294691246,94.22416459164062,0.0015542359833925,False
0.4100000000000001,0.7719311827559736,1.2,1291.0,78.50388,0.3,68900.0,0.33,276.0,2700.0,17.68326291263022,3.480721092237153,9397.946949040312,13.308244657574194,4.17315174552226,4.375018255056025,0.6924306532851063,1669,72,560,823,155.22315989515715,88.29409292073537,0.0012996174260943,False
0.42,1.090800392982505,1.2,1292.0,78.50388,0.3,68900.0,0.33,276.0,2700.0,33.88872608974726,6.961462934500815,18795.9499231522,23.17648069598925,9.922175366374024,10.712245393758003,2.960712431873209,3137,104,1044,1565,186.16724296251223,105.29369584848926,0.002255710045498,False
0.43,0.8791555402487723,1.2,1293.0,78.50388,0.3,68900.0,0.33,276.0,2700.0,22.26310760026933,4.62004906265193,12474.13246916021,16.34140621505578,5.760152230526922,5.921701385213549,1.140103167874992,2095,82,690,1048,160.00632059151033,90.03719591659836,0.0015028938287622,False
0.44,1.113098772905478,1.2,1294.0,78.50388,0.3,68900.0,0.33,276.0,2700.0,34.73055011833753,7.462312073631994,20148.242598806384,23.962160457510414,10.447709810247591,10.768389660827117,2.9853977366155995,3266,106,1088,1628,180.0938561795196,102.8323899245938,0.002215020532591,False
0.45,1.060838313556286,1.2,1295.0,78.50388,0.3,68900.0,0.33,276.0,2700.0,31.434868443144914,6.88199364600133,18581.382844203592,22.1404485643337,9.243336983952403,9.294419878811215,2.361343337951073,3070,100,1002,1547,173.77330404986952,97.3629887511364,0.0019677727028546,False
0.46,0.8833143427791986,1.2,1296.0,78.50388,0.3,68900.0,0.33,276.0,2700.0,21.908417526063637,4.835075989308094,13054.705171131853,16.464871380971736,5.828369495018987,5.443546145091897,0.9932935057108933,2175,80,668,1127,148.77619845021138,84.22826618544671,0.001436961904504,False
0.4700000000000001,0.9185657066191462,1.2,1297.0,78.50388,0.3,68900.0,0.33,276.0,2700.0,23.43946046837454,5.29082682735225,14285.232433851075,17.528860294873887,6.427440450969418,5.910600173500654,1.1366136236171682,2235,84,714,1134,154.16200445256217,87.4055539093735,0.0014913002932362,False
0.4800000000000001,1.106107615602285,1.2,1298.0,78.50388,0.3,68900.0,0.33,276.0,2700.0,33.36137591150299,7.775106875596851,20992.7885641115,23.71448338321629,10.281053067516684,9.646892528286696,2.5059461919198327,3359,104,1052,1727,170.5206997500758,95.25043626752304,0.0019687685028912,False
0.49,0.8193279926953603,1.2,1299.0,78.50388,0.1,68900.0,0.33,276.0,2700.0,18.4593560097374,4.276138732984205,11545.574579057356,14.61337150628082,4.834626512223228,3.8459845034565774,0.558487779239023,32232,208,4760,20790,157.87067725046944,90.2349268378712,0.0012542192475632,False
0.5,1.1952431398096877,1.2,1300.0,78.50388,0.3,68900.0,0.33,276.0,2700.0,38.28044414212484,9.308311647732062,25132.441448876565,26.96431547098082,12.538210479735636,11.316128671144014,3.229898832003574,3990,112,1194,2091,175.1445011413487,99.32012012634355,0.0021693752813425,False
0.05,0.5507664699366296,1.2,1305.0,81.52326,0.2,68900.0,0.33,276.0,2700.0,14.891532775818018,0.3720265200076513,1004.4716040206584,7.964610763015747,1.8434064594322377,6.926922012802271,1.4713799394245863,3263,98,1076,1643,881.1656684447638,507.5514773429695,0.0065253624121653,True
0.06,0.6176666000479947,1.2,1306.0,81.52326,0.2,68900.0,0.33,276.0,2700.0,17.56406629324111,0.5264695994551157,1421.4679185288126,9.451317995312028,2.425343305504617,8.11274829792908,1.898873706049501,3820,108,1258,1927,852.0407221820014,487.48761380703166,0.0066616751996253,True
0.0699999999999999,0.4142712699446811,1.2,1307.0,81.52326,0.2,68900.0,0.33,276.0,2700.0,9.365325410147076,0.3270680118350267,883.0836319545723,5.280180921880327,0.944807332089347,4.0851444882667485,0.6177393202543202,2143,76,700,1087,489.1861780449522,282.0799122007767,0.0028390897391541,True
0.08,0.4838806302492671,1.2,1308.0,81.52326,0.2,68900.0,0.33,276.0,2700.0,11.685678949766126,0.4663548276982198,1259.1580347851934,6.590669850287493,1.3572620787000824,5.0950090994786335,0.8909072510018626,2651,86,866,1346,495.5981389095573,286.08885104830176,0.0031660109782816,True
0.09,0.4952878281153412,1.2,1309.0,81.52326,0.2,68900.0,0.33,276.0,2700.0,11.936966977993556,0.5356366999797832,1446.219089945415,6.817039031394973,1.4337311639525314,5.119927946598581,0.8980944639727482,2661,86,870,1350,453.53810400602816,261.8384010443023,0.0029111582480279,True
0.0999999999999999,0.6800461098436326,1.2,1310.0,81.52326,0.3,68900.0,0.33,276.0,2700.0,19.54034857682949,0.9749230337390812,2632.292191095519,10.938904698888557,3.060800978296423,8.601443877940937,2.0858779445573417,2046,80,668,1038,600.3819157499582,340.3768016664011,0.0053510358555637,True
0.11,0.5452801402459984,1.2,1311.0,81.52326,0.2,68900.0,0.33,276.0,2700.0,13.510549898707092,0.7402926045476048,1998.790032278533,7.847679793818432,1.8000310857159865,5.66287010488866,1.0597384811683817,3047,94,998,1544,409.83086773643,235.988286675041,0.0028091329220775,True
0.12,0.6420362823377894,1.2,1312.0,81.52326,0.3,68900.0,0.33,276.0,2700.0,17.381502325339618,1.0392710247834434,2806.031766915297,10.020830540969998,2.662578030614132,7.36067178436962,1.6233070058306882,1618,72,530,817,462.29843708629153,264.7001264410594,0.0035312593621637,True
0.13,0.6323696876011942,1.2,1313.0,81.52326,0.3,68900.0,0.33,276.0,2700.0,16.752358727169078,1.0843019312259752,2927.615214310133,9.793138927611954,2.566813115943236,6.959219799557124,1.4825111847172605,1620,72,532,816,418.3233939001488,239.33829154144843,0.0031580331964847,True
0.14,0.4606970591244455,1.2,1314.0,81.52326,0.1,68900.0,0.33,276.0,2700.0,9.85109026131448,0.683829298131047,1846.3391049538268,6.1406828624660434,1.2097090656770797,3.710407398848437,0.5258797675460327,8349,152,2772,4185,276.8862557813398,159.66371042090472,0.0017218905846017,True
0.15,0.8367147211926589,1.2,1315.0,81.52326,0.3,68900.0,0.33,276.0,2700.0,26.21000966573965,1.9586821414598967,5288.441781941721,15.106289933854024,5.092979346372286,11.103719731885633,3.1342972049123894,2500,92,822,1261,450.2254966057603,256.3713454474373,0.0047333623940915,True
0.16,0.6257415862651676,1.2,1316.0,81.52326,0.3,68900.0,0.33,276.0,2700.0,15.87582059260562,1.261487005069047,3406.014913686427,9.638374651020268,2.5024167052416564,6.237445941585353,1.2409297001726094,1662,70,538,849,332.6963144023803,190.3771250987577,0.0024627081232742,True
0.17,0.5611029582918923,1.2,1317.0,81.52326,0.3,68900.0,0.33,276.0,2700.0,13.057987185969704,1.099639147669367,2969.0256987072908,8.186969152480248,1.926879455279182,4.871018033489456,0.8272403076098152,1591,68,524,799,287.3601746674503,164.8373325213538,0.0018957374118147,True
0.18,0.832905100828903,1.2,1318.0,81.52326,0.3,68900.0,0.33,276.0,2700.0,25.2772808634471,2.26274076547308,6109.400066777316,14.99763619399544,5.035637197168164,10.27964466945166,2.772896431695084,2402,90,788,1214,374.4320785635909,211.3662025668252,0.0038151124776341,True
0.19,0.7857399496274006,1.2,1319.0,81.52326,0.3,68900.0,0.33,276.0,2700.0,22.634311703853577,2.135894155858427,5766.914220817753,13.68265687592567,4.359501764267347,8.951654827927907,2.22360760840892,2284,86,748,1156,336.3991747344573,190.27952557949956,0.0031921728925294,True
0.2,0.6782460899134155,1.2,1320.0,81.52326,0.3,68900.0,0.33,276.0,2700.0,17.374671022289025,1.720711941409756,4645.922241806341,10.89460868243727,3.0411506108948183,6.480062339851756,1.3204386694850625,1741,74,574,874,287.8328881962935,163.87912586181326,0.0022536620713188,True
0.21,0.5517706766169231,1.2,1321.0,81.52326,0.3,68900.0,0.33,276.0,2700.0,12.030828176753587,1.2438407655158643,3358.370066892834,7.98609547650064,1.8514153601918608,4.044732700252948,0.6075745946759963,1523,64,504,761,229.7878787469883,132.1098665834781,0.0015294070165773,False
0.22,0.6062253233732732,1.2,1322.0,81.52326,0.3,68900.0,0.33,276.0,2700.0,13.975683187164304,1.51502403153779,4090.564885152033,9.189087344912387,2.3187114248570637,4.786595842251916,0.8036873933192732,1599,68,528,801,240.07661396473145,137.88100290388402,0.0016713590327518,False
0.23,0.6140622159517837,1.2,1323.0,81.52326,0.3,68900.0,0.33,276.0,2700.0,14.117699747156196,1.598052965712124,4314.743007422735,9.368351621981752,2.3914267446458903,4.7493481251744445,0.7933737789337663,1586,68,522,797,231.56736218624545,132.40375159120933,0.0016361878886036,False
0.24,0.8951999692331238,1.2,1324.0,81.52326,0.3,68900.0,0.33,276.0,2700.0,27.154795266774983,3.229622514117515,8719.980788117291,16.820124344890935,6.026172491262874,10.334670921884053,2.7965499771453586,2463,92,808,1245,294.78674218487305,166.19192403814515,0.0031487382435826,True
0.25,0.9221103880525056,1.2,1325.0,81.52326,0.3,68900.0,0.33,276.0,2700.0,28.381806600143523,3.5150009015428805,9490.502434165775,17.637577235354453,6.489767266784643,10.74422936478907,2.9747663652417624,2695,96,886,1360,287.5941320428244,161.36083860782566,0.0031777797303036,True
0.26,0.6780300643214001,1.2,1326.0,81.52326,0.3,68900.0,0.33,276.0,2700.0,16.237132883015228,2.0740161864723183,5599.84370347526,10.889298062406825,3.0387976702404518,5.347834820608405,0.964781483768133,1570,70,518,787,223.49492632239696,127.5015178981519,0.0016885063351195,False
0.27,0.5909439879413976,1.2,1327.0,81.52326,0.1,68900.0,0.33,276.0,2700.0,12.55823547035502,1.6541378096975234,4466.172086183314,8.843975260542942,2.180934259406457,3.7142602098120783,0.5267964497089335,15167,174,3520,8767,204.9396121477629,117.74257831838864,0.0013693687964584,False
0.28,0.7028483820964827,1.2,1328.0,81.52326,0.3,68900.0,0.33,276.0,2700.0,16.942165097501597,2.3259269523623662,6280.002771378389,11.507086863709668,3.316685952664129,5.435078233791929,0.9907590003017628,1583,70,522,794,212.586516684214,121.02147804956964,0.0016590242130928,False
0.29,0.6892996080102631,1.2,1329.0,81.52326,0.3,68900.0,0.33,276.0,2700.0,16.182138376048254,2.2953298623747287,6197.390628411768,11.167905905330516,3.1630819844976266,5.014232470717738,0.8677521221228979,1609,70,530,808,200.8576657360956,114.8048838254372,0.0015652274442706,False
0.3,0.8465075329235157,1.2,1330.0,81.52326,0.3,68900.0,0.33,276.0,2700.0,23.261037205458734,3.4326069130541965,9268.038665246331,15.38726349634466,5.242286193352237,7.873773709114079,1.8096792802980408,2216,84,734,1109,227.1029022699384,128.8220531970162,0.0021615013571358,False
0.31,0.7380291044733844,1.2,1331.0,81.52326,0.3,68900.0,0.33,276.0,2700.0,17.93888107980266,2.7181324428740155,7338.957595759842,12.40934654682558,3.737293459307312,5.529534532977079,1.019161016433297,1709,72,566,854,199.1252589544792,112.63455313133312,0.0016169208747619,False
0.32,0.65051094407769,1.2,1332.0,81.52326,0.3,68900.0,0.33,276.0,2700.0,14.0870912789172,2.1853054659115325,5900.324757961138,10.222378758814507,2.748353931534885,3.864712520102693,0.563048465623353,1294,62,428,646,172.28103143553037,98.57319740217326,0.0013265604034815,False
0.33,0.7938874714715713,1.2,1333.0,81.52326,0.3,68900.0,0.33,276.0,2700.0,20.10762390697222,3.24249166785571,8754.727503210417,13.905817547916534,4.471889480521979,6.201806359055684,1.2293978126662686,1871,78,618,938,200.46395340401176,113.94096730330114,0.001706567114522,False
0.34,0.8620737066739439,1.2,1334.0,81.52326,0.3,68900.0,0.33,276.0,2700.0,23.20029077427469,3.861731326522239,10426.674581610045,15.838845784578131,5.485313815076345,7.36144498969656,1.623582488554106,2142,84,712,1068,204.900946960416,115.48902893509693,0.0019272467670228,False
0.3500000000000001,0.6640508813075764,1.2,1335.0,81.52326,0.3,68900.0,0.33,276.0,2700.0,14.155420682524666,2.3874014294267094,6445.983859452115,10.54813737409654,2.888964475005548,3.6072833084281246,0.5015630455788385,1311,62,434,654,161.75558638414617,92.50599178814662,0.0012611220486383,False
0.36,1.0468947075298398,1.2,1336.0,81.52326,0.3,68900.0,0.33,276.0,2700.0,32.774181765958765,5.801636619975321,15664.418873933368,21.6659981735709,8.937932744436074,11.108183592387864,3.136296124460753,2984,102,992,1490,371.0335528498466,194.81851863027643,0.0026174544949618,True
0.37,0.9422467203971798,1.2,1337.0,81.52326,0.2,68900.0,0.33,276.0,2700.0,26.69086129929125,4.83172194524736,13045.649252167872,18.261159673796517,6.851184615220459,8.429701625494733,2.019462669973099,7233,134,1864,4021,208.5561455660848,118.37113893686868,0.0020733334660001,False
0.38,0.7564913987416173,1.2,1338.0,81.52326,0.3,68900.0,0.33,276.0,2700.0,17.515191939487877,3.2129628204441785,8674.999615199282,12.89528374902576,3.970871044736364,4.619908190462116,0.7579082242921857,1535,68,514,758,167.94350042046275,94.75550977161694,0.0013971707619486,False
0.39,0.7098285722691107,1.2,1339.0,81.52326,0.3,68900.0,0.33,276.0,2700.0,15.38049878432954,2.8749598398651086,7762.391567635793,11.683630144422786,3.397623047846739,3.6968686399067536,0.5226632079816302,1379,64,462,680,159.47205187110416,91.00024933799402,0.0012524968323732,False
0.4,0.8995080936929827,1.2,1340.0,81.52326,0.3,68900.0,0.33,276.0,2700.0,23.85138434085136,4.636235581617107,12517.836070366187,16.949767825384743,6.0989147730309305,6.901616515466614,1.462679191413824,2168,84,722,1079,185.2196232677116,105.01030398311862,0.0017195460736243,False
0.4100000000000001,1.100840680738543,1.2,1341.0,81.52326,0.3,68900.0,0.33,276.0,2700.0,34.73495467649349,6.9763179038291225,18836.05834033863,23.52870198610086,10.156639983476506,11.206252690392628,3.1803220796473832,3183,106,1064,1581,198.01239417744105,112.2509398866505,0.002455058127699,False
0.42,1.0330329861927328,1.2,1342.0,81.52326,0.3,68900.0,0.33,276.0,2700.0,30.543898027100703,6.25904904134504,16899.432411631606,21.199177474542672,8.640845762891749,9.34472055255803,2.381796721546709,2916,98,964,1460,194.7312889841864,110.55955427818624,0.0021079553331605,False
0.43,0.7601144632251122,1.2,1343.0,81.52326,0.3,68900.0,0.33,276.0,2700.0,16.850081886936017,3.456248534285268,9331.871042570225,12.991650212738058,4.017765960641787,3.858431674197959,0.5615174263565192,1467,66,494,720,147.22475182165348,82.84498538892773,0.001261796638529,False
0.44,0.8701020144315682,1.2,1344.0,81.52326,0.3,68900.0,0.33,276.0,2700.0,21.641648599747818,4.582753739542464,12373.435096764651,16.074131275184502,5.613416331971449,5.567517324563315,1.0306625924289854,2107,80,672,1071,163.0849510633853,92.22279370663392,0.0015015110064186,False
0.45,1.09778118163638,1.2,1345.0,81.52326,0.3,68900.0,0.33,276.0,2700.0,33.57836518414637,7.364280412727354,19883.55711436385,23.42110393216816,10.084818598930116,10.157261251978207,2.72053818620276,2972,102,990,1477,182.21044021635728,103.32032397045674,0.0021852895941041,False
0.46,0.9107576909200112,1.2,1346.0,81.52326,0.3,68900.0,0.33,276.0,2700.0,23.242398390725075,5.141891588180221,13883.107288086598,17.290498923775168,6.291506396229591,5.951899466949907,1.149614808049369,2209,84,718,1110,162.00135494138036,91.77632258122806,0.0015513222997514,False
0.4700000000000001,0.7928770848125923,1.2,1347.0,81.52326,0.1,68900.0,0.33,276.0,2700.0,17.62252755773232,3.923847593351284,10594.388502048463,13.878052431847037,4.45785325690118,3.744475125885284,0.534005663549896,30803,204,4652,19787,165.8985071409843,94.95455648455176,0.0012887600206551,False
0.4800000000000001,1.0694554386505752,1.2,1348.0,81.52326,0.3,68900.0,0.33,276.0,2700.0,31.246772830159728,7.267602136074466,19622.525767401057,22.43610111963349,9.435396496274606,8.810671710526233,2.1677943602001406,3329,100,1002,1746,173.45327382940914,96.21426575986848,0.0019231497982736,False
0.49,0.8398271899064051,1.2,1349.0,81.52326,0.2,68900.0,0.33,276.0,2700.0,19.370826562408965,4.499449018388741,12148.5123496496,15.195331032247507,5.140135706838644,4.175495530161456,0.640686688449903,5383,108,1346,3016,160.53531010501626,91.18540675191764,0.0013332500209021,False
0.5,1.070004977520269,1.2,1350.0,81.52326,0.3,68900.0,0.33,276.0,2700.0,30.835640435289918,7.447110721023328,20107.198946762983,22.455019036368316,9.447731203641936,8.380621398921601,2.0006204826186087,2822,96,912,1422,165.6513800793386,94.610174834928,0.0018330572236482,False
0.05,0.4750827711612927,1.2,1355.0,84.54263999999999,0.08,68900.0,0.33,276.0,2700.0,11.894048765290371,0.2970894197444595,802.1414333100408,6.418315287338104,1.30003789587106,5.475733477952269,1.0029484761266003,15046,212,4950,7615,878.2539105497899,502.735091396342,0.0051582840208833,True
0.06,0.6026512011568491,1.2,1356.0,84.54263999999999,0.2,68900.0,0.33,276.0,2700.0,16.899760844807417,0.5065404360021054,1367.6591772056845,9.107843927051867,2.2860137862052867,7.7919169177555485,1.7794733502031814,3690,106,1216,1860,845.7547870148652,484.82109109345896,0.0065963744685774,True
0.0699999999999999,0.3767754336961016,1.2,1357.0,84.54263999999999,0.08,68900.0,0.33,276.0,2700.0,8.120406467281699,0.2834958488347388,765.4387918537947,4.624738390211991,0.7592211256295762,3.495668077069708,0.4757252767948374,10564,170,3476,5344,458.7922819433607,264.0133048664319,0.0025468296715328,True
0.08,0.4578362162773445,1.2,1358.0,84.54263999999999,0.2,68900.0,0.33,276.0,2700.0,10.728886583255935,0.4280831330378126,1155.824459202094,6.0860909663600005,1.1922196754903094,4.642795616895937,0.7641365424524968,2306,80,758,1163,501.03415421666085,289.18013200345194,0.0029824618078774,True
0.09,0.7194440038749956,1.2,1359.0,84.54263999999999,0.2,68900.0,0.33,276.0,2700.0,21.65351826214956,0.972881507767086,2626.780070971132,11.92882933568177,3.511143180498011,9.724688926467786,2.538261672730925,4511,120,1492,2267,680.3451288109478,389.50108526933,0.0061500224099527,True
0.0999999999999999,0.7794942811586534,1.2,1360.0,84.54263999999999,0.3,68900.0,0.33,276.0,2700.0,24.438033932177326,1.219807301506475,3293.4797140674823,13.512717634328956,4.274575627994478,10.92531629784837,3.054768326488003,2355,90,770,1194,665.2099745461139,380.3617840129057,0.0065672580451585,True
0.11,0.4639327321186868,1.2,1361.0,84.54263999999999,0.1,68900.0,0.33,276.0,2700.0,10.445434130922193,0.5717112373194357,1543.6203407624764,6.202675325230996,1.2296785301001554,4.242758805691197,0.6579672927807196,8916,158,2944,4494,358.197417985018,206.7928355889716,0.0022530512659364,True
0.12,0.6457495451415668,1.2,1362.0,84.54263999999999,0.3,68900.0,0.33,276.0,2700.0,17.546480006351608,1.0491696856441604,2832.758151239233,10.108918849865685,2.699951448212993,7.437561156485925,1.6507817625688326,1744,74,570,883,473.1717197911183,271.2606652536262,0.0037185707065761,True
0.13,0.5241528886820905,1.2,1363.0,84.54263999999999,0.3,68900.0,0.33,276.0,2700.0,12.328567341100504,0.7967554911315754,2151.2398260552536,7.404457222328517,1.6389329688357064,4.924110118771987,0.842177477704131,1840,70,602,931,360.5197646559279,207.83568145313643,0.0022971045350657,True
0.14,0.7493531244079138,1.2,1364.0,84.54263999999999,0.3,68900.0,0.33,276.0,2700.0,21.96683371079163,1.5319313395944505,4136.214616905017,12.70638486070548,3.879495939563301,9.26044885008615,2.34756459996885,2177,82,706,1112,460.3910300947133,262.62372385365364,0.0042219711221892,True
0.15,0.7716705261548296,1.2,1365.0,84.54263999999999,0.3,68900.0,0.33,276.0,2700.0,22.84508718478024,1.706312955387834,4607.044979547152,13.30122327420052,4.169683778824797,9.54386391057972,2.4633708234369625,2340,88,764,1188,439.1524273988419,249.387826599342,0.0041692816390626,True
0.16,0.5593557538009079,1.2,1366.0,84.54263999999999,0.3,68900.0,0.33,276.0,2700.0,13.164414018360564,1.044574479129443,2820.351093649496,8.149194728011558,1.912608157001398,5.015219290349005,0.8680336778719551,1602,68,524,810,313.3625008108663,179.84848370724188,0.0020722796811386,True
0.17,0.8494206640899846,1.2,1367.0,84.54263999999999,0.3,68900.0,0.33,276.0,2700.0,26.394815762282008,2.2332695766559136,6029.827856970966,15.471311655412304,5.287233680088721,10.923504106869704,3.0539641034328078,2500,92,824,1258,414.1389528109961,234.8091449517823,0.0043912352526367,True
0.18,0.6140117736829679,1.2,1368.0,84.54263999999999,0.3,68900.0,0.33,276.0,2700.0,15.006644256682382,1.338383470864257,3613.635371333494,9.367192849306404,2.390954212960841,5.639451407375978,1.0525707420965842,1688,70,550,857,305.7935000551961,175.51132921950247,0.0021532254156545,True
0.19,0.7220267167210432,1.2,1369.0,84.54263999999999,0.3,68900.0,0.33,276.0,2700.0,19.56341457934259,1.8441589290302125,4979.2291083815735,11.99508593509983,3.542037446065162,7.5683286442427615,1.6978785170349493,1955,78,638,992,328.78750057117435,186.7353600533812,0.0027982016556888,True
0.2,0.6537095815339393,1.2,1370.0,84.54263999999999,0.3,68900.0,0.33,276.0,2700.0,16.306626410672724,1.613907480248127,4357.550196669943,10.298919405053354,2.78117395947228,6.00770700561937,1.1672664792241527,1578,70,510,807,291.44822764174296,166.79031060481634,0.0021707294950824,True
0.21,0.6480445321514117,1.2,1371.0,84.54263999999999,0.3,68900.0,0.33,276.0,2700.0,15.877586229304194,1.647750361033679,4448.925974790934,10.163535222091072,2.7232139322731563,5.714051007213122,1.0754635712394771,1598,70,516,818,275.14122648657565,157.4755068608309,0.0020206470145436,False
0.22,0.7510663017463889,1.2,1372.0,84.54263999999999,0.3,68900.0,0.33,276.0,2700.0,20.299860465314225,2.210683532134283,5968.845536762564,12.7516035751516,3.901302953468133,7.548256890162627,1.6906194213338503,1965,78,640,999,292.2376819459257,165.35133295729892,0.0025600441977825,True
0.23,0.6061264301744371,1.2,1373.0,84.54263999999999,0.3,68900.0,0.33,276.0,2700.0,13.80053972193618,1.561579562811844,4216.264819591979,9.186835083577083,2.317802797983832,4.613704638359096,0.7562232351719873,1444,64,476,724,236.1315887340438,134.92232651067778,0.0016635714225024,False
0.24,0.7871960605396844,1.2,1374.0,84.54263999999999,0.3,68900.0,0.33,276.0,2700.0,21.61084545208252,2.5643485363544216,6923.741048156939,13.722417322878824,4.379454171597482,7.888428129203694,1.8151056352430603,2063,82,678,1040,277.18205544552177,156.7385110663416,0.0025389843955014,True
0.25,0.9005827116720748,1.2,1375.0,84.54263999999999,0.3,68900.0,0.33,276.0,2700.0,27.20627204202756,3.368059081778492,9093.759520801928,16.982178766330936,6.117146710368542,10.22409327569662,2.74908762859005,2456,92,806,1241,292.3464599837088,164.251323750428,0.0031489716530061,True
0.26,0.8248681545654735,1.2,1376.0,84.54263999999999,0.3,68900.0,0.33,276.0,2700.0,23.03824505002609,2.9581607681837303,7987.034074096072,14.769611830113304,4.91601939803418,8.26863321991279,1.95785862985045,2236,84,738,1123,265.0801238043311,150.2699214508222,0.0025384008652693,False
0.27,0.5922236100832086,1.2,1377.0,84.54263999999999,0.1,68900.0,0.33,276.0,2700.0,12.606899563975675,1.6607074623363107,4483.910148308039,8.872648962994958,2.1922695473353726,3.734250600980717,0.5315620849990619,14975,174,3488,8649,211.70835110483847,121.58987084665614,0.0014244277808731,False
0.28,0.9422986516128188,1.2,1378.0,84.54263999999999,0.3,68900.0,0.33,276.0,2700.0,28.76850181615824,3.981614092974417,10750.358051030926,18.262781055564137,6.852132981541163,10.505720760594102,2.870518888566746,2548,94,838,1285,270.13131162910514,151.8578447206897,0.0030096569639804,False
0.29,0.8903946566827337,1.2,1379.0,84.54263999999999,0.3,68900.0,0.33,276.0,2700.0,25.73278512951067,3.680173641626781,9936.46883239231,16.676069406057678,5.94569288354527,9.056715723452992,2.2655192419184886,2501,90,822,1262,250.04404437249357,141.3932589679987,0.0025806101944625,False
0.3,0.8471826839912144,1.2,1380.0,84.54263999999999,0.3,68900.0,0.33,276.0,2700.0,23.29486693270377,3.4376813721409074,9281.73970478045,15.406723619528364,5.252681489347752,7.888143313175405,1.815000117206844,2208,84,732,1104,235.6224538312289,133.66635369658042,0.0022451701623039,False
0.31,0.6177968389875146,1.2,1381.0,84.54263999999999,0.3,68900.0,0.33,276.0,2700.0,12.96557951760192,1.947270700732901,5257.6308919788335,9.454321971276377,2.426574430750088,3.5112575463255435,0.4793037300171863,1247,60,414,620,181.0662129248773,103.35528335478352,0.0013154493365065,False
0.32,0.8163592036041958,1.2,1382.0,84.54263999999999,0.3,68900.0,0.33,276.0,2700.0,21.3684327938853,3.35032010830643,9045.86429242736,14.529964938684635,4.791366357366286,6.838467855200664,1.441046249059856,2112,82,704,1050,218.5311455762512,124.07870357072429,0.0019248785097686,False
0.33,0.9884071714313514,1.2,1383.0,84.54263999999999,0.3,68900.0,0.33,276.0,2700.0,30.14090921777873,4.89798374413879,13224.556109174731,19.729114395011013,7.727802707461426,10.411794822767718,2.8298189633226363,2778,98,922,1389,236.104613908831,133.72578326818217,0.0027066780519525,False
0.34,0.9471369136474403,1.2,1384.0,84.54263999999999,0.3,68900.0,0.33,276.0,2700.0,27.62399732962881,4.61376144093242,12457.155890517532,18.41413722897664,6.940859014976079,9.209860100652172,2.327097574043659,2534,92,840,1268,224.18538940698565,126.12877047420592,0.0023989774246834,False
0.3500000000000001,1.01802393549986,1.2,1385.0,84.54263999999999,0.3,68900.0,0.33,276.0,2700.0,31.34376332642088,5.395361392108549,14567.47575869308,20.69916350131156,8.326425682451125,10.64459982510932,2.9310642903425768,2867,100,952,1433,228.0509734213143,128.8272688431462,0.002660491447618,False
0.36,0.8073964304530263,1.2,1386.0,84.54263999999999,0.3,68900.0,0.33,276.0,2700.0,20.16812355626745,3.5325461422308866,9537.874584023391,14.279504388676065,4.662261496219063,5.888619167591381,1.1297153539881766,1875,78,622,936,192.7777157011336,109.156255436046,0.0016753373294142,False
0.37,0.7723710307520979,1.2,1387.0,84.54263999999999,0.3,68900.0,0.33,276.0,2700.0,18.38842908688266,3.2957719859517685,8898.584362069774,13.320096844045738,4.179007956668836,5.068332242836922,0.8832359707170676,1813,76,602,904,178.66365432968283,101.33427565728252,0.0015359983792482,False
0.38,0.8814706601545301,1.2,1388.0,84.54263999999999,0.3,68900.0,0.33,276.0,2700.0,23.351183491945903,4.321801215411196,11668.863281610227,16.41008309810372,5.798064016964636,6.941100393842184,1.4762628015534398,2113,84,704,1051,194.295379022064,109.99906664644428,0.0018162661677256,False
0.39,0.943916628813534,1.2,1389.0,84.54263999999999,0.3,68900.0,0.33,276.0,2700.0,26.345423493288397,5.013120158112375,13535.424426903412,18.313331036125884,6.881722630397681,8.03209245716251,1.8686024722853047,2300,88,764,1148,197.21979641990376,110.81496439178665,0.0020121804164241,False
0.4,0.8587630446868426,1.2,1390.0,84.54263999999999,0.3,68900.0,0.33,276.0,2700.0,21.84604660014353,4.235168033475541,11434.953690383962,15.742292000426277,5.433036654887403,6.103754599717259,1.197868621411862,2014,80,670,1003,188.3124379170136,106.45875962335316,0.0016692093250783,False
0.4100000000000001,0.771818501862019,1.2,1391.0,84.54263999999999,0.3,68900.0,0.33,276.0,2700.0,17.678352968633227,3.4797145537177703,9395.22929503798,13.305209129727118,4.17165233164327,4.37314383890611,0.6919377779254998,1667,72,560,821,167.1036454843438,95.05569692388372,0.0013992615646434,False
0.42,0.8693556826904079,1.2,1392.0,84.54263999999999,0.3,68900.0,0.33,276.0,2700.0,21.97766048410993,4.4601391573169815,12042.37572475585,16.05219024712024,5.601427886102654,5.925470236989689,1.141288728785672,2088,82,690,1043,174.8388181476548,98.01897465380354,0.0016260564074848,False
0.43,0.9577131691873564,1.2,1393.0,84.54263999999999,0.3,68900.0,0.33,276.0,2700.0,26.22540608353564,5.471943236554191,14774.246738696316,18.747044697014797,7.1373696153508535,7.478361386520849,1.6654263787966626,2585,92,862,1284,184.9578438237166,104.37280584424524,0.0018405224389431,False
0.44,0.8375056811451369,1.2,1394.0,84.54263999999999,0.3,68900.0,0.33,276.0,2700.0,20.11163861801188,4.246151543560306,11464.609167612827,15.128894538227849,5.104936755372551,4.982744079784034,0.8587852118122443,2165,78,660,1125,164.78584950375162,93.11631716483411,0.0014856908851897,False
0.45,1.1153614988790357,1.2,1395.0,84.54263999999999,0.3,68900.0,0.33,276.0,2700.0,34.622499842009496,7.599210710746561,20517.86891901572,24.042585612994877,10.502020578877923,10.579914229014625,2.902809868131362,3104,104,1028,1550,191.34529921201857,110.4408009013947,0.0023292720734274,False
0.46,1.040936569621149,1.2,1396.0,84.54263999999999,0.3,68900.0,0.33,276.0,2700.0,30.085903421307314,6.715897745214138,18132.92391207817,21.464754415589585,8.809443701406426,8.62114900571773,2.093545956192288,3062,98,958,1575,180.02709955693172,101.92089192326765,0.0019976508783381,False
0.4700000000000001,0.933980349783888,1.2,1397.0,84.54263999999999,0.3,68900.0,0.33,276.0,2700.0,24.20752307261231,5.471321539348125,14772.568156239937,18.003933472874007,6.701295448132851,6.203589599738304,1.229973908784726,2190,84,714,1099,167.4743660834487,95.02110838629616,0.0016368186625907,False
0.4800000000000001,0.9110027920861438,1.2,1398.0,84.54263999999999,0.3,68900.0,0.33,276.0,2700.0,22.882014332747666,5.260060096695556,14202.162261078,17.297958023781213,6.295745231765116,5.584056308966449,1.03568513506956,2459,84,740,1287,166.2275568751192,93.94436765087724,0.0015663448080218,False
0.49,0.8256495023757999,1.2,1399.0,84.54263999999999,0.2,68900.0,0.33,276.0,2700.0,18.738181335763,4.344450937860479,11730.017532223294,14.791709001702088,4.9275682336862685,3.946472334060914,0.5831172958257893,5342,106,1320,3010,168.9379358515801,96.32823020397431,0.0013519803638176,False
0.5,0.9021180766825484,1.2,1400.0,84.54263999999999,0.3,68900.0,0.33,276.0,2700.0,22.0924041658732,5.261301653669151,14205.514464906708,17.028536393048476,6.143256133806392,5.063867772824722,0.8819544801372405,2332,80,674,1239,154.9922364164386,88.49319954713555,0.0014962242524474,False
0.05,0.4946156838221015,1.2,1405.0,87.56201999999999,0.1,68900.0,0.33,276.0,2700.0,12.640092503935586,0.3157405132106424,852.4993856687345,6.803610047644507,1.4291536438144083,5.836482456291079,1.113413130603766,10149,174,3340,5133,950.9129443212928,543.6892446183638,0.0057449895157606,True
0.06,0.5028954539068667,1.2,1406.0,87.56201999999999,0.1,68900.0,0.33,276.0,2700.0,12.77415260364086,0.3827721887670606,1033.4849096710636,6.969825745017185,1.48617289582158,5.804326858623676,1.1034007070545195,10085,174,3322,5096,784.9477914613111,449.2632063293686,0.0049047131255252,True
0.0699999999999999,0.4641934745682057,1.2,1407.0,87.56201999999999,0.2,68900.0,0.33,276.0,2700.0,11.13250056197369,0.3889191421489506,1050.0816838021667,6.207682362556578,1.2312964835944895,4.924818199417111,0.8423773414455389,2533,84,832,1279,583.8623284906264,337.03871389902935,0.0036353847503553,True
0.08,0.533226240181607,1.2,1408.0,87.56201999999999,0.2,68900.0,0.33,276.0,2700.0,13.591984203730036,0.5426070378567756,1465.039002213294,7.593430095077557,1.70697195607571,5.998554108652479,1.1643649182189344,2985,94,978,1512,582.1479664822355,335.6118241576645,0.0040517601371009,True
0.09,0.5260327468516306,1.2,1409.0,87.56201999999999,0.2,68900.0,0.33,276.0,2700.0,13.12022464431237,0.5888832949644022,1589.9848964038858,7.443439548456141,1.6528889249448115,5.676785095856228,1.0640056299804097,2879,92,946,1454,520.7349460007125,300.3358881837482,0.0034863407439956,True
0.0999999999999999,0.7237465273210996,1.2,1410.0,87.56201999999999,0.3,68900.0,0.33,276.0,2700.0,21.631305512715286,1.079470880533371,2914.571377440102,12.03929873103386,3.562704730168736,9.592006781681429,2.483233849635365,2225,84,724,1133,647.1494377302544,371.03064473751385,0.0058599966898369,True
0.11,0.5530381449729869,1.2,1411.0,87.56201999999999,0.2,68900.0,0.33,276.0,2700.0,13.820240079239568,0.7573255644768904,2044.779024087604,8.013248779973669,1.861554687208768,5.806991299265899,1.1042291227318777,3049,94,1000,1543,447.2416428830466,258.0760434506174,0.0030926165513889,True
0.12,0.7236504788126455,1.2,1412.0,87.56201999999999,0.3,68900.0,0.33,276.0,2700.0,21.16735374859317,1.266422110178657,3419.339697482374,12.036827561432313,3.561548492160722,9.13052618716086,2.2951263819820653,2176,82,706,1111,541.0174113859518,309.5170712032042,0.004822815560645,True
0.13,0.6051892910290693,1.2,1413.0,87.56201999999999,0.3,68900.0,0.33,276.0,2700.0,15.58589466874082,1.0084817674281947,2722.900772056126,9.165504236617714,2.309203451914554,6.420390432123105,1.3007216844863592,1722,72,564,870,432.79913234582494,248.4878371360541,0.0030971897319505,True
0.14,0.8025100201406632,1.2,1414.0,87.56201999999999,0.3,68900.0,0.33,276.0,2700.0,24.654639626856223,1.7200777537189695,4644.209935041218,14.143806314085897,4.592817761313363,10.510833312770329,2.872740007594393,2234,88,734,1127,506.5057975537613,287.2383698167351,0.0050253911698394,True
0.15,0.7587047570020172,1.2,1415.0,87.56201999999999,0.3,68900.0,0.33,276.0,2700.0,22.19975155753465,1.6579127833444816,4476.3645150301,12.954115561506612,3.999478012771775,9.24563599602804,2.3415652294272933,2161,82,702,1102,452.3684051935775,257.4803455946462,0.0041592644447065,True
0.16,0.5415530235105157,1.2,1416.0,87.56201999999999,0.3,68900.0,0.33,276.0,2700.0,12.474963025971746,0.9894183997383368,2671.4296792935097,7.768674718732901,1.7709292060275317,4.706288307238846,0.7815108062891948,1686,68,554,849,316.116469008132,182.21333315809693,0.0020519839576282,True
0.17,0.8524302541825544,1.2,1417.0,87.56201999999999,0.3,68900.0,0.33,276.0,2700.0,26.556067364722384,2.2469759628633463,6066.835099731035,15.558366792797582,5.33392692941269,10.997700571924804,3.0869509665493435,2479,92,816,1249,429.4527316228574,242.1770687312584,0.0045767859784023,True
0.18,0.790972473993999,1.2,1418.0,87.56201999999999,0.3,68900.0,0.33,276.0,2700.0,23.12327536474784,2.068880270590148,5585.9767305934,13.825784077310423,4.431470758005488,9.297491287437412,2.36259048741534,2285,86,748,1157,383.8740101048592,217.23929872482037,0.0036919859537246,True
0.19,0.6883648234350261,1.2,1419.0,87.56201999999999,0.3,68900.0,0.33,276.0,2700.0,18.02333484136977,1.6978513539228146,4584.198655591599,11.144674579056945,3.152653258173133,6.878660262312829,1.4548019042503184,1748,74,574,881,333.6362446661324,190.1843238264132,0.0026374900650749,True
0.2,0.6013544103056037,1.2,1420.0,87.56201999999999,0.3,68900.0,0.33,276.0,2700.0,14.1288452622335,1.3961293654042035,3769.549286591349,9.078445933787044,2.274221883617864,5.050399328446456,0.8780925182136601,1581,68,520,795,279.4275146068197,159.9444385035428,0.0019341926823952,True
0.21,0.6668415403545039,1.2,1421.0,87.56201999999999,0.3,68900.0,0.33,276.0,2700.0,16.683009092525673,1.732319761671932,4677.263356514217,10.61585078972126,2.918495167007203,6.067158302804412,1.1861754053352709,1587,70,514,810,292.8628155242299,167.39750372979094,0.0022140576333962,True
0.22,0.6939551871373806,1.2,1422.0,87.56201999999999,0.3,68900.0,0.33,276.0,2700.0,17.68029969288467,1.9225318471669772,5190.835987350839,11.283933713814196,3.2153449311073032,6.396365979070476,1.2928130839403258,1654,72,542,835,288.2989909644803,164.41915599737956,0.0022746555586945,True
0.23,0.7155613167473781,1.2,1423.0,87.56201999999999,0.3,68900.0,0.33,276.0,2700.0,18.45335547757004,2.096653374709724,5660.964111716254,11.829538810241692,3.4650201480016767,6.623816667328347,1.368366773291953,1731,74,570,870,284.80915548415555,161.64705128149748,0.0022898941677946,True
0.24,0.908081959215382,1.2,1424.0,87.56201999999999,0.3,68900.0,0.33,276.0,2700.0,27.85517881980062,3.3136685404805912,8946.905059297596,17.20916728789196,6.245350511011093,10.64601153190866,2.931681970530502,2550,94,838,1287,317.31163136451505,179.34089336914775,0.0034735463661416,True
0.25,0.883968080027822,1.2,1425.0,87.56201999999999,0.3,68900.0,0.33,276.0,2700.0,26.31494502594939,3.256643204768761,8792.936652875653,16.484318853576195,5.839139550918137,9.830626172373194,2.5824963461493766,2467,92,812,1243,298.9009420747374,168.1081648282442,0.0031515979570568,True
0.26,0.7975430451829515,1.2,1426.0,87.56201999999999,0.2,68900.0,0.33,276.0,2700.0,21.69054953658797,2.7829603514367736,7513.992948879289,14.006485935983788,4.522907119630196,7.684063600604182,1.739946768193422,4649,122,1546,2324,267.0476388498487,151.42564138122992,0.0024533466814537,False
0.27,0.8962637298527298,1.2,1427.0,87.56201999999999,0.3,68900.0,0.33,276.0,2700.0,26.50261899040261,3.536629584903945,9548.899879240653,16.852092499406073,6.04408207786867,9.650526490996532,2.5074524929647253,2532,92,830,1281,280.49452756298814,158.43033184069282,0.0029468523713788,True
0.28,0.8156919722290656,1.2,1428.0,87.56201999999999,0.3,68900.0,0.33,276.0,2700.0,22.156391942240248,3.0559187106259,8250.980518689928,14.511249911096058,4.781677753128591,7.645142031144189,1.7257590425026912,2216,84,734,1109,253.33505829269708,143.90715077966732,0.0023521752624751,False
0.29,0.756109986312191,1.2,1429.0,87.56201999999999,0.3,68900.0,0.33,276.0,2700.0,19.1296956882657,2.7227256726462605,7351.359316144903,12.885158114081236,3.965954554371228,6.244537574184463,1.2432288817249677,1742,74,574,875,233.9326350151212,131.98521356405246,0.0019341209158222,False
0.3,0.7169232542496479,1.2,1430.0,87.56201999999999,0.3,68900.0,0.33,276.0,2700.0,17.19220064346556,2.522281428755212,6810.159857639072,11.864323993864998,3.481154922873917,5.327876649600563,0.9588734941187051,1780,72,590,889,215.61062961016253,122.70654912405928,0.0017194752894428,False
0.31,0.8492352975665611,1.2,1431.0,87.56201999999999,0.3,68900.0,0.33,276.0,2700.0,23.185678283196125,3.531386009400006,9534.742225380016,15.465957201998778,5.284366313115903,7.719721081197347,1.7529803037158973,2225,84,738,1112,239.94881428065065,136.1944672216395,0.0022487282483403,False
0.32,0.9370449493729384,1.2,1432.0,87.56201999999999,0.3,68900.0,0.33,276.0,2700.0,27.53608029220043,4.3371437080368525,11710.288011699502,18.09909486678632,6.756616050758534,9.436985425414116,2.419472342721682,2459,92,816,1229,245.21244270808145,138.25823039186048,0.002620055165711,False
0.33,0.6837480193165897,1.2,1433.0,87.56201999999999,0.3,68900.0,0.33,276.0,2700.0,15.269983007289404,2.4442809194080484,6599.5584824017305,11.030259550311277,3.1014648006682286,4.23972345697813,0.6571838812601802,1444,66,478,721,188.25701840609796,106.47463235290516,0.0014768805075155,False
0.34,0.9148342683074288,1.2,1434.0,87.56201999999999,0.3,68900.0,0.33,276.0,2700.0,25.90126648179488,4.320897196800668,11666.422431361803,17.414756620582978,6.362245584329924,8.486509861211903,2.041348387529256,2437,90,804,1225,227.3968599967236,128.20888066377066,0.0023219001667548,False
0.3500000000000001,1.016687200339309,1.2,1435.0,87.56201999999999,0.3,68900.0,0.33,276.0,2700.0,31.26700658490478,5.381928962343231,14531.208198326724,20.65490586224925,8.298785968178645,10.612100722655526,2.916857005835414,2870,100,952,1436,234.52737032326567,131.38998851132402,0.0027478755170176,False
0.36,1.0296306698714823,1.2,1436.0,87.56201999999999,0.3,68900.0,0.33,276.0,2700.0,31.76905856777055,5.620714444301442,15175.928999613894,21.085335908091327,8.568913200369277,10.683722659679225,2.9481987560678347,3066,102,1016,1536,233.7893862379614,132.08730688691202,0.002720820743237,False
0.37,0.743364094244068,1.2,1437.0,87.56201999999999,0.3,68900.0,0.33,276.0,2700.0,17.11574658147375,3.0603257224511227,8262.879450618031,12.54888618295886,3.803869099437555,4.566860398514891,0.7435433769864321,1541,68,514,764,182.69626864394624,102.56739166010124,0.0014998192780302,False
0.38,0.8385093021411705,1.2,1438.0,87.56201999999999,0.3,68900.0,0.33,276.0,2700.0,21.256515941449244,3.923814380816837,10594.29882820546,15.15759935103641,5.120134833837025,6.098916590412834,1.1963204530201883,2025,80,672,1011,191.10528606318957,108.18926492679375,0.0017490979275434,False
0.39,0.8077280071866987,1.2,1439.0,87.56201999999999,0.3,68900.0,0.33,276.0,2700.0,19.63111920820687,3.703830822521293,10000.343220807492,14.288734183384724,4.6669977777595655,5.3423850248221445,0.9631669552382722,1782,76,594,885,182.4265683825004,103.0193361876798,0.0016173990643267,False
0.4,1.0524748468266192,1.2,1440.0,87.56201999999999,0.3,68900.0,0.33,276.0,2700.0,32.12462642344733,6.290883998136301,16985.386794968013,21.85528363130371,9.059359787949084,10.269342792143622,2.768475789812784,2952,102,986,1467,211.00677552804933,119.04108735134848,0.0024979463260368,False
0.4100000000000001,1.0423877589042514,1.2,1441.0,87.56201999999999,0.3,68900.0,0.33,276.0,2700.0,31.30725040405409,6.273638527979033,16938.82402554339,21.513688007383784,8.840628622530005,9.793562396670309,2.566990094550972,2862,100,952,1428,209.4113159344452,117.27840572615418,0.0023800357891846,False
0.42,1.062592282922341,1.2,1442.0,87.56201999999999,0.3,68900.0,0.33,276.0,2700.0,32.23447404738381,6.614070005604489,17857.98901513212,22.20047577736194,9.282223284129646,10.033998270021872,2.668153278525157,2953,102,988,1465,205.64812003900232,115.42883726333277,0.0024004815703372,False
0.43,1.0268860159816318,1.2,1443.0,87.56201999999999,0.3,68900.0,0.33,276.0,2700.0,29.97118378778729,6.277285442968292,16948.67069601439,20.993711749725488,8.511167032754999,8.977472038061801,2.233881589786707,2923,98,960,1469,197.9521849140855,111.15199822971869,0.0021802039224347,False
0.44,0.8592623106104176,1.2,1444.0,87.56201999999999,0.3,68900.0,0.33,276.0,2700.0,21.12692629717078,4.469514832975308,12067.69004903333,15.756835200246522,5.4408998750435815,5.3700910969242575,0.971385042068274,2075,78,650,1062,172.32809118186228,97.30428424277648,0.0015894714852447,False
0.45,1.124783440736105,1.2,1445.0,87.56201999999999,0.3,68900.0,0.33,276.0,2700.0,35.18848431509041,7.726557217189764,20861.704486412364,24.378857675512627,10.730130838746522,10.809626639577786,3.003573621556757,3283,106,1092,1637,199.47547526064525,113.01028601036457,0.0024533493061781,False
0.46,0.9467909915389804,1.2,1446.0,87.56201999999999,0.3,68900.0,0.33,276.0,2700.0,25.051409679416523,5.557964184579259,15006.503298363998,18.40329616073772,6.9344910329696425,6.648113518678802,1.376526848390384,2247,86,742,1122,176.48635380707003,100.02424450921212,0.0017589100179341,False
0.4700000000000001,0.811365372599685,1.2,1447.0,87.56201999999999,0.2,68900.0,0.33,276.0,2700.0,18.42836300392918,4.11321892320759,11105.691092660494,14.390165572833537,4.719155495996386,4.038197431095645,0.6059365727887958,5231,106,1314,2932,176.8885910313347,100.75524270188582,0.0014164568028492,False
0.4800000000000001,0.785974597032092,1.2,1448.0,87.56201999999999,0.3,68900.0,0.33,276.0,2700.0,17.172523970658993,3.889782409794293,10502.41250644459,13.689060537315942,4.362713115466587,3.4834634333430508,0.4729307056722938,1803,70,550,934,163.85195721534242,93.58541675033206,0.0013234186858089,False
0.49,1.1308943894983754,1.2,1449.0,87.56201999999999,0.3,68900.0,0.33,276.0,2700.0,34.59196368783883,8.228627614119054,22217.294558121444,24.59815216380305,10.879778359622875,9.993811524035776,2.6511507455038217,3256,104,1020,1672,188.87625073040547,109.00666095520418,0.0022344366409902,False
0.5,1.0709923926105598,1.2,1450.0,87.56201999999999,0.3,68900.0,0.33,276.0,2700.0,30.89125402988097,7.461014119671096,20144.73812311196,22.489029945651247,9.469920417717432,8.402224084229722,2.0089062980463366,2822,96,912,1422,178.03759648639468,101.66518150744068,0.0019715963451705,False
0.05,0.4971918146812268,1.2,1455.0,90.5814,0.1,68900.0,0.33,276.0,2700.0,12.739917185432436,0.3182361302477379,859.2375516688925,6.855141019148764,1.4467469730677238,5.884776166283672,1.128510842819986,10767,178,3542,5448,983.036631687955,562.7156109258742,0.0060001026933378,True
0.06,0.4478062646943339,1.2,1456.0,90.5814,0.1,68900.0,0.33,276.0,2700.0,10.710212962430642,0.3208539995308024,866.3057987331665,5.896319654302789,1.132130289574469,4.813893308127853,0.8112762900436665,9313,162,3062,4714,708.0272450552532,406.0579853235327,0.004131990387513,True
0.0699999999999999,0.6156536373365663,1.2,1457.0,90.5814,0.2,68900.0,0.33,276.0,2700.0,17.260559191242542,0.6034011941733661,1629.1832242680885,9.4049429948971,2.406364847462556,7.855616196345442,1.80296365328919,3842,108,1258,1949,814.8235304016887,466.9507920400072,0.0062708662261593,True
0.08,0.4670521544119106,1.2,1458.0,90.5814,0.2,68900.0,0.33,276.0,2700.0,11.063554211591834,0.4414698381714355,1191.968563062876,6.262689652060892,1.249120835227686,4.800864559530941,0.8076509970562504,2539,84,834,1282,535.3773363079539,308.9843965525554,0.0033121293156102,True
0.09,0.6824928512931245,1.2,1459.0,90.5814,0.3,68900.0,0.33,276.0,2700.0,19.877933562366085,0.8929801962768286,2411.046529947437,10.999246216772596,3.087639439204,8.87868734559349,2.194659242927171,2040,80,668,1032,711.9335048472698,408.79092500452936,0.0059956235646294,True
0.0999999999999999,0.5138419566737658,1.2,1460.0,90.5814,0.2,68900.0,0.33,276.0,2700.0,12.46469698371467,0.6211404540833407,1677.07922602502,7.192220603693317,1.563682588426846,5.272476380021353,0.9425421343435052,2826,90,922,1437,475.1391490021292,274.271149807244,0.0030971836632327,True
0.11,0.5756458373555007,1.2,1461.0,90.5814,0.2,68900.0,0.33,276.0,2700.0,14.739965444372714,0.8079104595592146,2181.35824080988,8.504362093073796,2.0482430192986536,6.235603351298918,1.240332559739439,3216,98,1056,1626,474.26310206292993,273.6506973806526,0.0034512605127135,True
0.12,0.6765306634654606,1.2,1462.0,90.5814,0.3,68900.0,0.33,276.0,2700.0,18.940748994199843,1.132825824915055,3058.6297272706483,10.8524701766837,3.0224978643469025,8.088278817516144,1.889672039431848,1821,76,594,924,524.7202078603334,301.6410007667372,0.0043643400420796,True
0.13,0.6147702294638115,1.2,1463.0,90.5814,0.3,68900.0,0.33,276.0,2700.0,15.992828887898565,1.03493249167345,2794.3177275183148,9.38462303721315,2.398065423627269,6.6082058506854136,1.3631329319538192,1725,72,562,876,453.6093792649671,260.5284347442305,0.0033126249972912,True
0.14,0.716360599540124,1.2,1464.0,90.5814,0.3,68900.0,0.33,276.0,2700.0,20.37004616046301,1.4201562110714432,3834.421769892897,11.849947604242272,3.474483449948166,8.520098556220736,2.054327238876722,2049,80,670,1038,472.1635765759863,270.10905343099034,0.0041400810089055,True
0.15,0.7817379870205778,1.2,1465.0,90.5814,0.3,68900.0,0.33,276.0,2700.0,23.35199539416781,1.7443310710920097,4709.693891948426,13.573654095552085,4.304962529851958,9.778341298615729,2.560631458759948,2258,88,742,1139,479.5138815427469,271.5633051391217,0.0045831641924984,True
0.16,0.500174138801835,1.2,1466.0,90.5814,0.1,68900.0,0.33,276.0,2700.0,10.934018931420017,0.8661428721741989,2338.585754870337,6.915005487319737,1.4672804375479045,4.019013444100279,0.6011375653737056,9102,160,2978,4597,295.0604766823089,170.0789228897376,0.0018984061537003,True
0.17,0.5571632145235443,1.2,1467.0,90.5814,0.3,68900.0,0.33,276.0,2700.0,12.904683194586374,1.0866083084017837,2933.842432684816,8.10190074913441,1.8947925965094872,4.802782445451964,0.8081842881077037,1671,68,550,840,316.6583374963707,181.8647919899998,0.0020871437164198,True
0.18,0.8427042025955775,1.2,1468.0,90.5814,0.3,68900.0,0.33,276.0,2700.0,25.793383937056056,2.3091900420978853,6234.8131136642905,15.277852776807729,5.183971525212593,10.515531160248328,2.874781483114708,2431,90,794,1234,418.4828154210005,237.50166611280895,0.0043334248256735,True
0.19,0.7317284308361782,1.2,1469.0,90.5814,0.3,68900.0,0.33,276.0,2700.0,20.01785524630354,1.8873307923915208,5095.793139457107,12.24547018226173,3.659623006274983,7.77238506404181,1.7722922138834614,1955,78,638,992,356.1635397648491,202.15170432747985,0.0030800968581198,True
0.2,0.5250833102116754,1.2,1470.0,90.5814,0.3,68900.0,0.33,276.0,2700.0,11.202814014771736,1.1035262406580275,2979.520849776675,7.423740127867121,1.6458312041785508,3.779073886904615,0.542304963520523,1576,64,522,787,257.165816390655,148.06468223903343,0.0016598332207474,False
0.21,0.7600965739400062,1.2,1471.0,90.5814,0.3,68900.0,0.33,276.0,2700.0,20.941466205566275,2.1794577585411963,5884.53594806123,12.99117358211645,4.017533553570436,7.950292623449826,1.83807579502924,1932,78,634,975,333.6905973330657,189.0802782538117,0.0029633762029819,True
0.22,0.5813424670750647,1.2,1472.0,90.5814,0.3,68900.0,0.33,276.0,2700.0,12.995366438977484,1.4071891892372417,3799.410810940552,8.630137788097812,2.09704708274542,4.36522865087967,0.6898578935081783,1459,64,480,733,262.6268816292603,150.3092615081802,0.0017512664815762,False
0.23,0.7933863814228193,1.2,1473.0,90.5814,0.3,68900.0,0.33,276.0,2700.0,22.128496778017432,2.519294624261185,6802.0954855052,13.892044539798926,4.464924864751126,8.236452238218506,1.9456302404899408,2076,82,682,1047,311.97792635464054,176.38061506982257,0.0029035277841384,True
0.24,0.5441247943402022,1.2,1474.0,90.5814,0.3,68900.0,0.33,276.0,2700.0,11.2784864625695,1.3244654576128565,3576.056735554712,7.8231521600988945,1.790978473176739,3.4553343024706056,0.4665130155638828,1466,62,486,731,224.6210212045659,129.05507294858506,0.0014809564888798,False
0.25,0.8144517366688651,1.2,1475.0,90.5814,0.3,68900.0,0.33,276.0,2700.0,22.73607647045429,2.8092846353318914,7585.068515396107,14.47649254222771,4.7637019426238165,8.259583928226576,1.954417307291925,2229,84,736,1119,292.8324537870228,165.7081089449662,0.0027780203192381,True
0.26,0.8809908401221443,1.2,1476.0,90.5814,0.3,68900.0,0.33,276.0,2700.0,25.92396380488359,3.3333042063152045,8999.921357051053,16.395838408852402,5.790193548036011,9.52812539603119,2.456889341720806,2431,90,800,1225,296.92735146154774,166.93348943850503,0.0030892987882042,True
0.27,0.668921953344002,1.2,1477.0,90.5814,0.3,68900.0,0.33,276.0,2700.0,15.67405478343158,2.0747734169628576,5601.888225799716,10.666457920591975,2.940633143892419,5.0075968628396055,0.8658597269295614,1541,68,506,776,239.63864317719455,136.52219979696747,0.0017810981454696,False
0.28,0.7510085516347673,1.2,1478.0,90.5814,0.3,68900.0,0.33,276.0,2700.0,19.089236347830514,2.626516927408538,7091.595704003053,12.750078079869311,3.90056659098748,6.339158267961201,1.2740496635789411,1763,74,578,890,247.39513474581003,140.44225308439954,0.0020593497091081,False
0.29,0.8843482758795798,1.2,1479.0,90.5814,0.3,68900.0,0.33,276.0,2700.0,25.41598316528447,3.634237356813982,9812.440863397753,16.495633915950663,5.845408971419956,8.920349249333807,2.211171614605974,2492,90,818,1259,267.36015193419735,151.26625178759755,0.0027279199135465,False
0.3,0.6008769339374973,1.2,1480.0,90.5814,0.3,68900.0,0.33,276.0,2700.0,12.473785866212292,1.814519212167229,4899.201872851518,9.067632284395833,2.2698897220843564,3.406153581816461,0.4553705099171277,1384,62,462,685,195.416369597494,111.93600604426204,0.0013944556067092,False
0.31,0.8626195506413374,1.2,1481.0,90.5814,0.3,68900.0,0.33,276.0,2700.0,23.85906816067953,3.635761440409933,9816.55588910682,15.854791500946028,5.493963705094263,8.004276659733506,1.8582022646843293,2262,86,748,1134,245.88481923983736,139.6170639415263,0.0023905268268848,False
0.32,0.6317628842358622,1.2,1482.0,90.5814,0.3,68900.0,0.33,276.0,2700.0,13.350963260433174,2.067524982954088,5582.3174539760375,9.778924327725266,2.560874919486252,3.5720389327079083,0.4933499365321636,1323,62,438,660,188.14278578084628,106.7741752717285,0.0014156375835834,False
0.33,0.8942234956303298,1.2,1483.0,90.5814,0.3,68900.0,0.33,276.0,2700.0,25.045430185152988,4.057229703755536,10954.520200139948,16.7908043766385,6.009762400881914,8.254625808514486,1.9525326971263777,2293,86,758,1150,237.81572053000932,133.7849150843743,0.002382626018535,False
0.34,0.735463834667018,1.2,1484.0,90.5814,0.3,68900.0,0.33,276.0,2700.0,17.289507589326536,2.8568981850810493,7713.625099718834,12.342505156578342,3.705545905749673,4.947002432748194,0.8486477206686236,1709,72,566,854,205.02073507027453,116.39766891376436,0.0016495000063104,False
0.3500000000000001,0.809440199581754,1.2,1485.0,90.5814,0.3,68900.0,0.33,276.0,2700.0,20.45311243960552,3.489497486915858,9421.643214672817,14.336438872517784,4.691503669052938,6.116673567087736,1.2020061821370804,1849,78,614,922,210.1854348544321,118.88638047880434,0.0018495187112672,False
0.36,0.8934543732017546,1.2,1486.0,90.5814,0.3,68900.0,0.33,276.0,2700.0,24.365935426887297,4.28815227894246,11578.01115314464,16.76772728502633,5.996857092149292,7.598208141860969,1.7087048132068323,2266,86,752,1132,219.2235239814268,123.253134609319,0.0021385466940892,False
0.37,0.9742811475493504,1.2,1487.0,90.5814,0.3,68900.0,0.33,276.0,2700.0,28.419058722003616,5.151438468449147,13908.883864812697,19.27420428423746,7.452327705511608,9.144854437766156,2.300889237062461,2799,96,928,1401,227.36120624252544,127.63452499886476,0.0024499164184518,False
0.38,0.8877400122288877,1.2,1488.0,90.5814,0.3,68900.0,0.33,276.0,2700.0,23.664615467427453,4.381353290752699,11829.653885032289,16.596736626482237,5.9015291877273786,7.067878840945216,1.5201758969746797,2124,84,708,1056,209.098446342658,118.33852604902891,0.0019705170328015,False
0.39,0.8247546709355715,1.2,1489.0,90.5814,0.3,68900.0,0.33,276.0,2700.0,20.419566803084383,3.857578103522596,10415.460879511009,14.766403693951297,4.9143434709099845,5.653163109133088,1.056765367387389,2069,80,684,1037,191.22208016343112,108.46066271222725,0.0017246631308766,False
0.4,0.98662990335587,1.2,1490.0,90.5814,0.3,68900.0,0.33,276.0,2700.0,28.419212747021977,5.5498012628512345,14984.463409698334,19.67160400799705,7.692789899734644,8.747608739024926,2.14298863688341,2809,96,932,1405,238.1614044923005,126.918044303696,0.0022796556082013,False
0.4100000000000001,0.9010564936915632,1.2,1491.0,90.5814,0.3,68900.0,0.33,276.0,2700.0,23.72916656644415,4.720131341269011,12744.35462142633,16.99647745477467,6.125195948327599,6.73268911166948,1.4050646070585886,2168,84,722,1079,197.10339668081173,111.42711132613124,0.0018736456694343,False
0.42,0.7439579383288704,1.2,1492.0,90.5814,0.3,68900.0,0.33,276.0,2700.0,16.325872895488313,3.273263763706441,8837.81216200739,12.564462750271696,3.811325805855735,3.761410145216617,0.5380620421492943,1485,66,498,732,170.7589841556116,96.92787502867913,0.0013888316181538,False
0.43,1.005333492292959,1.2,1493.0,90.5814,0.3,68900.0,0.33,276.0,2700.0,28.77829873633552,6.0208151569061625,16256.200923646638,20.28080931385056,8.066402954081166,8.497489422484957,2.045587797175004,2977,98,964,1507,200.23943441209727,112.7559372912346,0.0021589449068005,False
0.44,0.7880913374957149,1.2,1494.0,90.5814,0.2,68900.0,0.33,276.0,2700.0,17.894073697076532,3.758287260954576,10147.375604577355,13.746890137136065,4.391750489078114,4.147183559940469,0.6334632281235382,4992,104,1268,2778,185.48355599688503,105.5119509802575,0.0014884734656399,False
0.45,0.9318242120805256,1.2,1495.0,90.5814,0.3,68900.0,0.33,276.0,2700.0,24.487332283961877,5.31879801018584,14360.754627501768,17.937122928612254,6.662548535723546,6.550209355349619,1.3437505255377058,2253,86,744,1127,186.95841083402908,105.37651988657764,0.0018120341961712,False
0.46,1.0997350575402514,1.2,1496.0,90.5814,0.3,68900.0,0.33,276.0,2700.0,33.45620510372908,7.491067132171143,20225.881256862085,23.489791708547934,10.130647617618356,9.96641339518115,2.6395804854472136,3140,104,1024,1580,199.47936196323545,112.633920770343,0.0023722667147327,False
0.4700000000000001,0.8853049601810965,1.2,1497.0,90.5814,0.3,68900.0,0.33,276.0,2700.0,21.822872742153923,4.910928711690404,13259.50752156409,16.524122004437725,5.861203710650576,5.2987507377161975,0.9502749989601726,2237,80,672,1171,172.64823248125072,96.96603529227048,0.0016363016688633,False
0.4800000000000001,1.0502025242416138,1.2,1498.0,90.5814,0.3,68900.0,0.33,276.0,2700.0,30.163050459312203,7.007508767071067,18920.27367109188,21.77810909043236,9.009785240651665,8.384941368879847,2.002276473580596,2670,94,878,1333,186.0210563291809,104.83982705685771,0.0020502133228276,False
0.49,1.020706298753831,1.2,1499.0,90.5814,0.3,68900.0,0.33,276.0,2700.0,28.328847832966726,6.694164229675378,18074.24342012352,20.788108687430626,8.382067609243283,7.540739145536101,1.6879033795679046,2824,94,890,1449,181.670113398975,102.35744558719708,0.0019339901156872,False
0.5,1.0007161665572055,1.2,1500.0,90.5814,0.3,68900.0,0.33,276.0,2700.0,27.055508091711577,6.50207763512879,17555.609614847734,20.12959842558412,7.9731091524296,6.925909666127456,1.4710315173008102,2673,90,818,1384,177.30372776838112,99.95469126651106,0.0018557844769909,False
0.01,0.5329521843343312,1.6,1501.0,3.01938,0.05,68900.0,0.33,276.0,2700.0,17.621073974590274,0.0881032754778475,237.87884379018843,8.927146897902645,2.061824434828897,8.693927076687629,1.97372115935105,53916,398,17884,27084,171.69610049892864,97.72582178852404,0.0012329191623338,False
0.02,0.5574614700371663,1.6,1502.0,3.01938,0.1,68900.0,0.33,276.0,2700.0,18.54251518356011,0.1854083966747453,500.60267102181245,9.509380631286252,2.287726659648804,9.033134552273856,2.1023182629740584,14422,208,4776,7252,79.61234695977708,45.30444198179723,0.0006658849392808,False
0.03,0.6357085553318687,1.6,1503.0,3.01938,0.1,68900.0,0.33,276.0,2700.0,22.16886105556562,0.332476367165721,897.6861913474467,11.469228587649235,3.1074807974663465,10.699632467916386,2.7750044303006254,17414,230,5748,8786,71.86926586222427,40.941935278523815,0.0005564453491161,False
0.04,0.6550138433526449,1.6,1504.0,3.01938,0.1,68900.0,0.33,276.0,2700.0,22.91235542474436,0.4581130672083504,1236.905281462546,11.976432414234663,3.333778347600429,10.935923010509695,2.875665280392078,18388,236,6060,9292,57.108938558887935,32.54491824234928,0.00043869412768,False
0.05,0.6828145114288893,1.6,1505.0,3.01938,0.2,68900.0,0.33,276.0,2700.0,24.11729153861021,0.6026704890774593,1627.2103205091405,12.723290228898245,3.677067741766483,11.39400130971197,3.074397252689024,4794,122,1584,2412,39.86970431025035,22.798217059003843,0.00037889576226,False
0.06,0.4774116122915539,1.6,1506.0,3.01938,0.1,68900.0,0.33,276.0,2700.0,14.049364217957168,0.4210285371965976,1136.7770504308137,7.663615411956622,1.601453050925949,6.385748806000546,1.1804245137293514,11211,176,3688,5673,25.08683958125232,14.36927689989632,0.0001726892450414,False
0.0699999999999999,0.7494525193214268,1.6,1507.0,3.01938,0.2,68900.0,0.33,276.0,2700.0,27.2245246494524,0.9521399852107147,2570.77796006893,14.592585962019156,4.586585766815592,12.631938687433246,3.634445781604877,5647,132,1862,2848,43.46874039351803,25.021105619042466,0.0003820607777228,False
0.08,0.4685492289376486,1.6,1508.0,3.01938,0.2,68900.0,0.33,276.0,2700.0,13.272445442508264,0.5298254874079048,1430.5288160013429,7.469171255899893,1.5343982304354111,5.803274186608372,1.0045727430275062,2991,88,982,1512,18.500709175708455,10.679571028645409,0.0001291530081205,False
0.09,0.6495067335225249,1.6,1509.0,3.01938,0.2,68900.0,0.33,276.0,2700.0,21.389440030164703,0.9609979873277672,2594.694565784972,11.830790365908054,3.268224202108281,9.558649664256649,2.307226214780514,4567,116,1504,2305,21.827875438854942,12.508104696141094,0.0001886260798694,False
0.0999999999999999,0.484420300758759,1.6,1510.0,3.01938,0.2,68900.0,0.33,276.0,2700.0,13.540446255753729,0.6749279176852929,1822.305377750291,7.818786602624824,1.6557079960922514,5.721659653128903,0.9807800784069584,3164,90,1032,1610,15.096857247290927,8.716130550412787,0.0001097603529022,False
0.11,0.5382174706386333,1.6,1511.0,3.01938,0.2,68900.0,0.33,276.0,2700.0,15.660163318497274,0.8585213426360653,2318.0076251173764,9.050953846852051,2.109154052922256,6.6092094716452205,1.2506327102861907,3469,96,1134,1762,15.139531309440525,8.738922363071197,0.0001157167438166,False
0.12,0.6639064029952517,1.6,1512.0,3.01938,0.3,68900.0,0.33,276.0,2700.0,21.398721257014405,1.2803041606839294,3456.821233846609,12.21321581916719,3.4413308196412844,9.185505437847215,2.161026658957355,2206,78,722,1117,17.02006173555834,9.81849104704331,0.0001455803630878,False
0.13,0.7618611141276509,1.6,1513.0,3.01938,0.3,68900.0,0.33,276.0,2700.0,26.32225637077772,1.706345278060592,4607.132250763599,14.952991410827764,4.769891314250203,11.369264959949955,3.063546036189611,2698,88,878,1375,18.05290513461278,10.40901307774395,0.0001723803835758,False
0.14,0.7026537700159687,1.6,1514.0,3.01938,0.3,68900.0,0.33,276.0,2700.0,22.90280882327425,1.597449597468234,4313.113913164232,13.26814381028415,3.9348767778309024,9.6346650129901,2.3374271803626683,2342,80,768,1184,15.3699272493018,8.864160674258711,0.000136763987324,False
0.15,0.6976664924348244,1.6,1515.0,3.01938,0.3,68900.0,0.33,276.0,2700.0,22.40512892481674,1.6733160858906793,4517.953431904834,13.130245386231785,3.869048990327884,9.274883538584955,2.1957329044372047,2271,80,748,1143,14.40774350860012,8.306009109931292,0.0001252302501814,False
0.16,0.7937321731004559,1.6,1516.0,3.01938,0.2,68900.0,0.33,276.0,2700.0,27.314246916517085,2.1765611109819623,5876.714999651298,15.896414858629091,5.26142513462232,11.417832057887994,3.084864023640358,5322,130,1758,2679,14.946749772655425,8.614502412455284,0.0001491917570671,False
0.17,0.7560479660096033,1.6,1517.0,3.01938,0.3,68900.0,0.33,276.0,2700.0,24.99121236640861,2.1139632880066745,5707.700877618021,14.783667749931784,4.683459923558501,10.207544616476827,2.5694966355518263,2628,86,858,1335,16.099585904930816,9.226838247725896,0.0001536904500411,False
0.18,0.7725921972653185,1.6,1518.0,3.01938,0.3,68900.0,0.33,276.0,2700.0,25.63805674551362,2.29521059485907,6197.068606119489,15.267794232265713,4.932039607711941,10.370262513247908,2.636829012852871,2678,90,880,1352,13.46889973098807,7.75509889890709,0.0001252028323096,False
0.19,0.5747024530581232,1.6,1519.0,3.01938,0.3,68900.0,0.33,276.0,2700.0,15.655219845903728,1.4728804293535385,3976.7771592545537,9.927996663494826,2.455275672022052,5.727223182408903,0.9823952426685132,1779,68,580,903,9.878148316406794,5.702324569579425,7.667878093551058e-05,False
0.2,0.6698065596689555,1.6,1520.0,3.01938,0.3,68900.0,0.33,276.0,2700.0,19.86805430781977,1.9700502699628308,5319.135728899643,12.371416884517233,3.5138569818208447,7.4966374233025395,1.543806711858014,2115,76,696,1065,11.135307705570153,6.384771892311518,9.04112023809572e-05,False
0.21,0.6720500015861384,1.6,1521.0,3.01938,0.3,68900.0,0.33,276.0,2700.0,19.75963021428233,2.055364979456384,5549.485444532237,12.431799938876257,3.54167924632366,7.327830275406072,1.486314266867276,2125,76,700,1069,10.18986537356866,5.866727420643639,8.639011733583604e-05,False
0.22,0.5387172117946133,1.6,1522.0,3.01938,0.3,68900.0,0.33,276.0,2700.0,13.543335988339248,1.4674658396670357,3962.157767100997,9.062740870109714,2.113680132029324,4.480595118229534,0.6462142923622882,1491,60,490,750,8.027934459437562,4.624002005723463,6.151726521981042e-05,False
0.23,0.6737691589019381,1.6,1523.0,3.01938,0.3,68900.0,0.33,276.0,2700.0,19.414120229128244,2.207141321138928,5959.281567075105,12.478157288971332,3.5630913032843514,6.935962940156912,1.3559499821454235,2135,76,702,1076,9.381510969156556,5.405624537318639,7.981236677445983e-05,False
0.24,0.7919814494058341,1.6,1524.0,3.01938,0.3,68900.0,0.33,276.0,2700.0,25.221817390636524,2.997665168980899,8093.695956248427,15.84392857970665,5.233640860194439,9.377888810929871,2.23597569121354,2539,86,838,1276,10.279953677682668,5.907332998351647,9.640148908517984e-05,False
0.25,0.561036209778456,1.6,1525.0,3.01938,0.2,68900.0,0.33,276.0,2700.0,13.938154437101302,1.70954438116277,4615.769829139479,9.595562433325703,2.321874163589138,4.342592003775598,0.612329782426368,3027,88,1004,1515,7.367964447024051,4.243872664526027,5.912088895532356e-05,False
0.26,0.705990889277045,1.6,1526.0,3.01938,0.3,68900.0,0.33,276.0,2700.0,20.34390387697653,2.6078964156872857,7041.320322355671,13.360764378520534,3.979308621205251,6.9831394984559925,1.3714122055179652,2173,76,714,1096,8.746761340429957,5.0360554993868,7.63482102787675e-05,False
0.27,0.701575043465213,1.6,1527.0,3.01938,0.3,68900.0,0.33,276.0,2700.0,19.91750426984092,2.64763909762812,7148.625563595924,13.23826399506949,3.92058019752752,6.679240274771429,1.2729410998993993,2179,76,714,1102,8.415154792026605,4.839811857925325,7.321289346089322e-05,False
0.28,0.5800568995814501,1.6,1528.0,3.01938,0.2,68900.0,0.33,276.0,2700.0,14.207427895169312,1.943063744035926,5246.272108897,10.059524522025956,2.5087864071674773,4.147903373143357,0.5657226631315513,3056,90,1012,1528,7.035226108007669,4.056765745853177,5.534307132300483e-05,False
0.29,0.6156572811535123,1.6,1529.0,3.01938,0.3,68900.0,0.33,276.0,2700.0,15.558903523798904,2.2049608087985724,5953.394183756145,10.952342363088402,2.8827071485025324,4.606561160710502,0.67774633970396,1666,64,550,835,7.1063788521550455,4.085358862821778,5.779036512987958e-05,False
0.3,0.9991255802195927,1.6,1530.0,3.01938,0.3,68900.0,0.33,276.0,2700.0,35.759234052502094,5.307336440110701,14329.808388298892,22.588709521725804,9.195572989990708,13.17052453077629,3.8882365498800073,3436,104,1136,1726,10.088035931674892,5.753514840891653,0.0001182524803373,False
0.31,0.969287958596311,1.6,1531.0,3.01938,0.3,68900.0,0.33,276.0,2700.0,33.64068298197129,5.151911737709955,13910.161691816877,21.550691172270728,8.537121257098699,12.08999180970056,3.385209519388744,3360,102,1110,1689,9.63039463855824,5.482403926225885,0.0001071856683765,False
0.32,0.6359422852710434,1.6,1532.0,3.01938,0.3,68900.0,0.33,276.0,2700.0,15.905880768288522,2.476311784210942,6686.041817369543,11.475313310065747,3.110162210630676,4.430567458222773,0.633850426419734,1688,66,558,845,6.651547927451779,3.822083592115365,5.553644595723604e-05,False
0.33,0.9287356242524905,1.6,1533.0,3.01938,0.3,68900.0,0.33,276.0,2700.0,30.699784233507387,4.990198121734017,13473.534928681844,20.175790056745203,7.691207819186574,10.523994176762184,2.701009697452557,2967,96,982,1488,8.729212117116349,4.963819402070802,9.127365772625748e-05,False
0.34,1.0006329828150993,1.6,1534.0,3.01938,0.3,68900.0,0.33,276.0,2700.0,34.7675670392127,5.828168291561696,15736.05438721658,22.641744171391355,9.229663234463423,12.125822867821345,3.401494942901727,3311,102,1094,1664,9.003485143859384,5.12713367438568,0.0001022987277742,False
0.3500000000000001,0.6743127252365653,1.6,1535.0,3.01938,0.2,68900.0,0.33,276.0,2700.0,17.074892292354352,2.898308961146812,7825.434195096392,12.492830097413403,3.5698779969911363,4.582062194940949,0.6715690358443247,4367,100,1210,2362,6.921931011677231,3.987092382996643,5.6378148799613854e-05,False
0.36,0.7019108516948438,1.6,1536.0,3.01938,0.3,68900.0,0.33,276.0,2700.0,18.15387205550124,3.169980872092966,8558.94835465101,13.247562464637513,3.925027276695079,4.90630959086373,0.7550464046021128,1917,70,634,960,6.431500351213337,3.678884626118057,5.672471304057598e-05,False
0.37,0.8060663311089995,1.6,1537.0,3.01938,0.2,68900.0,0.33,276.0,2700.0,23.041733664408675,4.156633332794085,11222.90999854403,16.268373069471416,5.459783992979555,6.773360594937259,1.3031506601854703,6000,118,1580,3314,7.62825888845363,4.370500695684329,6.81180766337578e-05,False
0.38,0.772117738300662,1.6,1538.0,3.01938,0.3,68900.0,0.33,276.0,2700.0,21.127970908183908,3.899390824496423,10528.355226140342,15.253814538932437,4.924798982487011,5.874156369251471,1.0254081579905878,2279,80,750,1144,6.786012923362335,3.884053390896202,6.204104853733372e-05,False
0.39,1.0072114447179097,1.6,1539.0,3.01938,0.3,68900.0,0.33,276.0,2700.0,33.86590602912161,6.479614252599854,17494.958482019603,22.873861342705084,9.379373976637789,10.992044686416529,2.899759724037935,3440,102,1146,1715,7.973143323253401,4.533564855331139,8.775169107481633e-05,False
0.4,0.91245302908256,1.6,1540.0,3.01938,0.3,68900.0,0.33,276.0,2700.0,28.0871387392522,5.483386461297276,14805.143445502648,19.635368191433276,7.367102373957067,8.451770547818928,1.8837159126597909,2760,90,920,1374,7.2560462961951,4.122391180472205,7.39807711428593e-05,False
0.4100000000000001,0.9503342558661876,1.6,1541.0,3.01938,0.3,68900.0,0.33,276.0,2700.0,30.003857485500788,6.006442979675619,16217.396045124173,20.902933584730064,8.134808826067127,9.100923900770724,2.1283658463915085,2790,92,928,1392,7.377584712809088,4.192588048898868,7.709831020355116e-05,False
0.42,0.7352032240211837,1.6,1542.0,3.01938,0.3,68900.0,0.33,276.0,2700.0,18.60076706035732,3.750991538328927,10127.677153488105,14.183491104971726,4.381572416488223,4.417275955385591,0.6305808781592956,1932,70,646,957,5.804645381524379,3.318667786725515,5.304933517146477e-05,False
0.43,1.001914229727311,1.6,1543.0,3.01938,0.3,68900.0,0.33,276.0,2700.0,32.54665833360776,6.831012470319695,18443.733669863177,22.6868669290342,9.258701801561944,9.859791404573564,2.4276893312422496,3023,96,1010,1502,7.380073180708218,4.189997816542044,7.957504539961549e-05,False
0.44,1.079678344452201,1.6,1544.0,3.01938,0.3,68900.0,0.33,276.0,2700.0,37.07555675804726,7.978213534368136,21541.176542793968,25.50279574878188,11.131430120613764,11.572761009265385,3.1532165862456285,3513,106,1166,1754,7.36623922945737,4.175358023799398,8.694508268333811e-05,False
0.45,0.986400216767026,1.6,1545.0,3.01938,0.2,68900.0,0.33,276.0,2700.0,31.151416083654468,6.818216865116676,18409.185535815024,22.143271541798423,8.91096194737576,9.008144541856044,2.0927450822590847,8132,138,2008,4586,7.294838950959245,4.165083820857697,7.605785314175418e-05,False
0.46,0.8326597410617604,1.6,1546.0,3.01938,0.2,68900.0,0.33,276.0,2700.0,22.574895605407733,4.9883659475572335,13468.58805840453,17.08335299959243,5.903212665451985,5.491542605815301,0.9148467178947516,5918,114,1486,3311,6.505105550393381,3.727753677685079,5.933488375235937e-05,False
0.4700000000000001,1.1007964260869108,1.6,1547.0,3.01938,0.3,68900.0,0.33,276.0,2700.0,37.6354152300445,8.626876196344691,23292.565730130664,26.293747110915778,11.678332205640327,11.341668119128723,3.051456009295638,4064,108,1268,2094,7.499252025319903,4.27385798249424,8.416209923091866e-05,False
0.4800000000000001,0.922899684647872,1.6,1548.0,3.01938,0.3,68900.0,0.33,276.0,2700.0,26.898862359367392,6.2241036230843045,16805.079782327623,19.98132819190345,7.574030977074467,6.917534167463938,1.3499273539901626,2900,88,886,1507,6.8027494508262665,3.888681258493129,6.493819799245081e-05,False
0.49,1.0058177534678197,1.6,1549.0,3.01938,0.3,68900.0,0.33,276.0,2700.0,31.353669136013245,7.435245448921787,20075.162712088822,22.8245949598508,9.34752921296172,8.529074176162446,1.912283764039934,3339,96,1032,1725,6.926355830097377,3.954773902264769,7.153945501662841e-05,False
0.5,1.0819528789516122,1.6,1550.0,3.01938,0.3,68900.0,0.33,276.0,2700.0,35.69371754007399,8.661629997219347,23386.40099249224,25.587446998203355,11.189533355824006,10.106270541870636,2.527903358604659,3974,104,1152,2110,7.022822965031595,4.029810841591305,7.848967106764461e-05,False
0.01,0.4892469125619689,1.6,1551.0,6.03876,0.05,68900.0,0.33,276.0,2700.0,15.63049416608523,0.0781503764353239,211.0060163753747,7.926364827221181,1.6937056274623743,7.704129338864049,1.6155552510270503,50046,374,16580,25170,325.9819230076697,185.45204669106323,0.0021288671201465,True
0.02,0.3821367978895772,1.6,1552.0,6.03876,0.08,68900.0,0.33,276.0,2700.0,10.965295231911329,0.1096361971582943,296.0177323273947,5.676706759300964,0.9677660021416702,5.288588472610365,0.8581298049833759,14000,192,4616,7070,122.4845419111371,69.92613669256777,0.0007165730318598,False
0.03,0.6531576266573772,1.6,1553.0,6.03876,0.1,68900.0,0.33,276.0,2700.0,23.071762395889422,0.3460198872705761,934.2536956305556,11.927257402725717,3.3115931469370854,11.144504993163707,2.965573259666509,18640,238,6164,9388,140.47263002046842,80.00980889456922,0.0011676209157556,False
0.04,0.575577888432538,1.6,1554.0,6.03876,0.1,68900.0,0.33,276.0,2700.0,18.938251900253043,0.3786309967185079,1022.3036911399714,9.949451786003724,2.4639763813797737,8.988800114249319,2.0853453846612657,15094,212,4958,7651,96.08309263381408,54.80429305167144,0.0006978067255408,False
0.05,0.6885357248659986,1.6,1555.0,6.03876,0.2,68900.0,0.33,276.0,2700.0,24.4223200156666,0.6102962010031651,1647.7997427085456,12.879399211846426,3.7503065749801583,11.542920803820174,3.140010373976993,5192,126,1712,2618,79.46489867036149,45.879074029079945,0.000768338676215,False
0.06,0.7209869854650062,1.6,1556.0,6.03876,0.2,68900.0,0.33,276.0,2700.0,25.9156915247964,0.7770183564017757,2097.9495622847944,13.780430570085946,4.1828075431919824,12.135260954710455,3.405789186790207,5399,128,1780,2723,71.02126413618599,40.55815413321402,0.0006924439706243,False
0.0699999999999999,0.6146123105075036,1.6,1557.0,6.03876,0.2,68900.0,0.33,276.0,2700.0,20.127939813605,0.7037595159560537,1900.150693081345,10.92568190145832,2.8712762043178257,9.20225791214668,2.167516688361772,4302,112,1412,2178,54.85843855760172,31.372504214450977,0.0004444111155101,False
0.08,0.4166086774340459,1.6,1558.0,6.03876,0.1,68900.0,0.33,276.0,2700.0,11.177058763649663,0.4460100202535605,1204.2270546846134,6.369261578861912,1.1753037935905857,4.807797184787753,0.7292937733370252,9189,156,3020,4653,30.78458868029001,17.766440165966213,0.0002210205373475,False
0.09,0.496434732765912,1.6,1559.0,6.03876,0.2,68900.0,0.33,276.0,2700.0,14.249412381311876,0.6396967431293895,1727.1812064493515,8.087656187184624,1.7512578015909492,6.161756194127252,1.1115610584615596,3182,90,1040,1616,34.79049382082427,20.086235732014558,0.000250409459546,False
0.0999999999999999,0.5051463384902989,1.6,1560.0,6.03876,0.2,68900.0,0.33,276.0,2700.0,14.420545138886135,0.7189328618418209,1941.1187269729164,8.284881151341075,1.8225719618992948,6.13566398754506,1.103639100057474,3202,90,1044,1630,31.26292816890455,18.049400250995536,0.0002318876624994,False
0.11,0.7679038131075004,1.6,1561.0,6.03876,0.3,68900.0,0.33,276.0,2700.0,27.183067675245624,1.4922810822572237,4029.158922094504,15.129901632723476,4.86078178568628,12.053166042522149,3.3685007034290564,2810,92,924,1418,42.34355707049873,24.43780838276747,0.0004162361080132,False
0.12,0.6417304399771233,1.6,1562.0,6.03876,0.3,68900.0,0.33,276.0,2700.0,20.292040978243197,1.213903343957657,3277.5390286856737,11.62643511537965,3.177020051421354,8.665605862863544,1.963116707463697,2077,76,682,1048,33.13717177407322,19.051736722965977,0.0002733830365438,False
0.13,0.6578404605642144,1.6,1563.0,6.03876,0.3,68900.0,0.33,276.0,2700.0,20.859099039208576,1.351240051508597,3648.348139073212,12.05148167409381,3.367737158060661,8.807617365114766,2.0164971065520643,2205,78,722,1116,31.878169714806656,18.40336348213896,0.0002625082531826,False
0.14,0.7687554834323412,1.6,1564.0,6.03876,0.3,68900.0,0.33,276.0,2700.0,26.44375580003562,1.845315885841385,4982.352891771739,15.154909506729506,4.873678121862989,11.288846293306117,3.028362236021604,2761,92,908,1393,33.805194952986,19.507501372693877,0.0003233236277017,False
0.15,0.6693770681080704,1.6,1565.0,6.03876,0.3,68900.0,0.33,276.0,2700.0,20.97102954816596,1.565758632641869,4227.548308133047,12.359871389322862,3.508546042185059,8.611158158843097,1.9427874095431896,2150,78,712,1076,27.90152684174666,16.09938976946745,0.0002348328245674,False
0.16,0.5918475025820437,1.6,1566.0,6.03876,0.3,68900.0,0.33,276.0,2700.0,17.036627447347662,1.3543515534484103,3656.749194310709,10.351691909469638,2.629113249074992,6.684935537878024,1.274761695626581,1950,72,636,990,24.00515876822736,13.858217892116024,0.0001865042754119,False
0.17,0.7308144622020264,1.6,1567.0,6.03876,0.3,68900.0,0.33,276.0,2700.0,23.648725476471352,1.999851902362008,5399.600136377422,14.058518399636531,4.319598867028574,9.59020707683482,2.3197469646665665,2399,82,786,1214,26.627886229689437,15.351868658498407,0.0002392687535144,False
0.18,0.4900099611211495,1.6,1568.0,6.03876,0.2,68900.0,0.33,276.0,2700.0,12.267691556679504,1.0918777278639995,2948.069865232799,7.943425678332692,1.699760336921757,4.3242658783468135,0.6078826090577574,2746,82,902,1387,17.410735082780825,10.011764002470294,0.0001302191919961,False
0.19,0.5450109564693663,1.6,1569.0,6.03876,0.3,68900.0,0.33,276.0,2700.0,14.364458056146212,1.3502580593265745,3645.696760181751,9.2117240420725,2.1711870180030166,5.152734014073712,0.8209289586764421,1530,62,500,774,18.900471746181303,10.907237614407492,0.0001489591009673,False
0.2,0.884203157054456,1.6,1570.0,6.03876,0.3,68900.0,0.33,276.0,2700.0,31.47466469714728,3.1307113088955787,8452.920534018063,18.71355949942173,6.82547344216844,12.761105197725549,3.6947621332728615,3121,98,1024,1579,26.97992484420472,15.484639659972006,0.0002922619528108,False
0.21,0.5687399069374932,1.6,1571.0,6.03876,0.3,68900.0,0.33,276.0,2700.0,15.006046692290251,1.5562387096469468,4201.844516046756,9.782379260992425,2.396514103240104,5.22366743129783,0.8402753935931571,1564,62,510,793,17.791818143094677,10.2700361778964,0.0001382951374226,False
0.22,0.8587581224685437,1.6,1572.0,6.03876,0.2,68900.0,0.33,276.0,2700.0,29.449169499206647,3.217107525862449,8686.190319828613,17.90044321850625,6.359685663290599,11.548726280700397,3.14257813742815,5832,138,1924,2940,23.790105399790768,13.66578196815966,0.0002477422254542,False
0.23,0.8652239759372176,1.6,1573.0,6.03876,0.3,68900.0,0.33,276.0,2700.0,29.562140439248942,3.3741636453028123,9110.241842317591,18.1055225969887,6.476089746615038,11.456617842260249,3.101926101312226,3057,96,1004,1545,23.444287032404755,13.438109572495671,0.0002401440370402,False
0.24,0.6759154175744431,1.6,1574.0,6.03876,0.3,68900.0,0.33,276.0,2700.0,19.30632553744766,2.2878061465982342,6177.076595815232,12.536135747896717,3.5899348542614216,6.770189789550944,1.3021287076631871,2114,76,696,1064,18.117633787055848,10.437026422573243,0.0001544289514303,False
0.25,0.8474288511974186,1.6,1575.0,6.03876,0.3,68900.0,0.33,276.0,2700.0,28.03485721097053,3.471632227896424,9373.407015320345,17.543642838584308,6.158910875883294,10.491214372386224,2.6872786479868696,2868,92,942,1449,21.04493415930342,12.069430604342829,0.0002101557508016,False
0.26,0.6377143609968244,1.6,1576.0,6.03876,0.3,68900.0,0.33,276.0,2700.0,17.111510278804385,2.1876852479249065,5906.750169397247,11.52149065819039,3.130538238017206,5.590019620613996,0.9428529900922996,1747,68,578,874,16.087304679928618,9.255854542137932,0.000132746943501,False
0.27,0.6757532152064756,1.6,1577.0,6.03876,0.3,68900.0,0.33,276.0,2700.0,18.679699102834107,2.4805354000821915,6697.445580221917,12.53175001232938,3.58790181905524,6.147949090504728,1.1073664189730483,2025,74,670,1014,16.430977010360277,9.440380448048376,0.0001394323627593,False
0.28,0.6044527421673367,1.6,1578.0,6.03876,0.2,68900.0,0.33,276.0,2700.0,15.252521389554806,2.089376833249936,5641.317449774827,10.667910085046072,2.761587613832724,4.5846113045087336,0.6722107805827884,3117,92,1034,1560,14.099383771612573,8.113923747194672,0.0001163618946734,False
0.29,0.6401979249928504,1.6,1579.0,6.03876,0.2,68900.0,0.33,276.0,2700.0,16.648036486784722,2.362885088431517,6379.789738765096,11.586341024005346,3.159233095329554,5.061695462779376,0.7963480068980369,3499,98,1170,1736,14.44666635764939,8.303909597263669,0.000121421849676,False
0.3,0.60387894312778,1.6,1580.0,6.03876,0.3,68900.0,0.33,276.0,2700.0,14.868762176627392,2.173765658729492,5869.167278569626,10.653428866055997,2.7554705323222963,4.215333310571397,0.581704873592805,1650,64,546,825,13.471363621971738,7.755593113357785,0.0001096500737259,False
0.31,0.926489583040614,1.6,1581.0,6.03876,0.3,68900.0,0.33,276.0,2700.0,31.07444403932266,4.754144701599618,12836.190694318968,20.10084742377966,7.645976349088805,10.973596615543002,2.8918316474891874,3009,96,996,1509,18.53878244858828,10.596108751887082,0.0001954539394277,False
0.32,0.8746843293227575,1.6,1582.0,6.03876,0.3,68900.0,0.33,276.0,2700.0,27.850122214498903,4.387390415604603,11845.954122132429,18.40747275534166,6.648800892920063,9.44264945915724,2.26141047731546,2687,90,890,1346,17.170074432210495,9.815080751589456,0.0001710434304827,False
0.33,0.9345104413482992,1.6,1583.0,6.03876,0.3,68900.0,0.33,276.0,2700.0,31.0384245297269,5.046073770610238,13624.399180647642,20.369057807167465,7.8082769561404435,10.669366722559436,2.762203185530206,2995,96,992,1501,17.638811545106098,10.072493944749684,0.0001846616306821,False
0.34,0.6665314145592345,1.6,1584.0,6.03876,0.3,68900.0,0.33,276.0,2700.0,16.906005285759452,2.791702793474646,7537.597542381543,12.283492290620517,3.4734828527914465,4.622512995138937,0.6817800593168006,1744,66,574,877,13.271903674990268,7.621156724818099,0.0001120836157162,False
0.3500000000000001,0.9355462727773396,1.6,1585.0,6.03876,0.3,68900.0,0.33,276.0,2700.0,30.59892775191784,5.265015166570512,14215.540949740383,20.403812978550548,7.829393864318773,10.195114773367294,2.564378697748261,2982,96,988,1494,16.765973525264016,9.540078917266964,0.000173950563205,False
0.36,0.8788442493460894,1.6,1586.0,6.03876,0.3,68900.0,0.33,276.0,2700.0,27.139808876623192,4.7874494998949215,12926.113649716288,18.540958708818096,6.725652002089774,8.598850167805097,1.9382025021948524,2585,88,860,1289,15.714819203597878,8.965699928292807,0.0001544883945464,False
0.37,0.7240387320370748,1.6,1587.0,6.03876,0.2,68900.0,0.33,276.0,2700.0,19.000823363161903,3.40906492706343,9204.47530307126,13.866525910946796,4.224993236000913,5.13429745221511,0.8159283089374827,4793,104,1280,2627,14.07480845510666,8.090957308518007,0.0001180051311685,False
0.38,0.7255651368059126,1.6,1588.0,6.03876,0.2,68900.0,0.33,276.0,2700.0,18.884292516703585,3.473091930115161,9377.348211310937,13.909676390682954,4.246192092379138,4.974616126020631,0.7731001622639768,4730,102,1244,2608,14.03123006286245,8.065763338227502,0.0001158420496766,False
0.39,0.8421676030718093,1.6,1589.0,6.03876,0.2,68900.0,0.33,276.0,2700.0,24.49399233200075,4.652091081661003,12560.645920484709,17.379043682264914,6.067042721401787,7.114948649735837,1.4149516397407842,6752,122,1708,3774,14.875670088350924,8.534633379585374,0.0001382112664453,False
0.4,0.9667207330934672,1.6,1590.0,6.03876,0.3,68900.0,0.33,276.0,2700.0,31.19569508597601,6.105097730642036,16483.763872733496,21.46242559719174,8.481909107371296,9.733269488784266,2.37681137672926,3062,96,1022,1523,15.131348366022651,8.620947064656262,0.000160307775979,False
0.4100000000000001,0.9556948571605656,1.6,1591.0,6.03876,0.3,68900.0,0.33,276.0,2700.0,30.313193693252,6.069856902264552,16388.61363611429,21.085220642663817,8.247349380391269,9.22797305058818,2.177492478126717,2953,94,984,1471,14.77915851805588,8.40219746165849,0.0001553209285957,False
0.42,0.8412976592483679,1.6,1592.0,6.03876,0.3,68900.0,0.33,276.0,2700.0,23.81766707488261,4.846540541379246,13085.659461723966,17.35189434937247,6.051935740268839,6.465772725510146,1.205395198889593,2490,82,814,1253,12.89455595302901,7.350309904662226,0.0001278194461006,False
0.43,1.0419441397992877,1.6,1593.0,6.03876,0.3,68900.0,0.33,276.0,2700.0,34.97514799485181,7.353137747487163,19853.471918215346,24.11741495447451,10.195353056751808,10.8577330403773,2.8422153092646445,3368,102,1112,1688,15.07328307056034,8.555109602501625,0.0001687613871562,False
0.44,1.127904882223168,1.6,1594.0,6.03876,0.3,68900.0,0.33,276.0,2700.0,40.18763476343765,8.662870695554021,23389.75087799586,27.32548907219111,12.405057838950984,12.86214569124654,3.742187143396963,3762,110,1246,1885,15.218057481068534,8.639214233723447,0.0001896378545833,False
0.45,0.8711570623634296,1.6,1595.0,6.03876,0.3,68900.0,0.33,276.0,2700.0,24.757499327284,5.37958559493332,14524.881106319965,18.294628478561656,6.584071930322228,6.462870848722343,1.204486335388908,2719,84,850,1400,13.281348500511038,7.65312546939692,0.0001262090440581,False
0.46,0.8776579063583344,1.6,1596.0,6.03876,0.3,68900.0,0.33,276.0,2700.0,24.893655692069224,5.521680767489378,14908.53807222132,18.502846309081328,6.703678676425349,6.3908093829878965,1.181997908935971,2687,84,830,1390,12.95259951749204,7.361004707684954,0.0001252416031456,False
0.4700000000000001,1.1485168943175654,1.6,1597.0,6.03876,0.3,68900.0,0.33,276.0,2700.0,40.72890480622932,9.35384624674812,25255.384866219923,28.12233825115645,12.976485141785904,12.606566555072868,3.6226388950377846,4261,114,1352,2175,15.311511517199536,8.731891713331544,0.0001813647607974,False
0.4800000000000001,0.8520474396727966,1.6,1598.0,6.03876,0.2,68900.0,0.33,276.0,2700.0,23.168366680662796,5.328784660195204,14387.718582527052,17.6887096793274,6.240272538191714,5.479657001335394,0.9114878779965104,6042,114,1478,3417,12.892548515917976,7.384811616118496,0.0001178453003716,False
0.49,1.090280394992347,1.6,1599.0,6.03876,0.3,68900.0,0.33,276.0,2700.0,36.46128066068649,8.686610272466739,23453.847735660194,25.89848126185526,11.403907093055189,10.562799398831231,2.71729682058845,3701,104,1138,1918,14.131900843407715,8.052681303212301,0.0001602915739205,False
0.5,1.1701130677756262,1.6,1600.0,6.03876,0.3,68900.0,0.33,276.0,2700.0,41.348348464729625,10.075287728383255,27203.27686663479,28.968689263628395,13.592937912878323,12.37965920110123,3.517650184495068,4675,114,1354,2486,14.959441236899218,8.515622680738696,0.0001754251826437,False
0.01,0.3782139564473612,1.6,1601.0,9.05814,0.04,68900.0,0.33,276.0,2700.0,11.005245930493006,0.0550241352573629,148.56516519488,5.599787896655628,0.9456481782951398,5.405458033837378,0.8906240430377769,55089,376,18168,27831,379.7334806576712,215.5940652875136,0.0020944693985649,True
0.02,0.4082505593524523,1.6,1602.0,9.05814,0.08,68900.0,0.33,276.0,2700.0,11.995956801188632,0.1199428128510677,323.8455946978829,6.198600648033166,1.122783178208576,5.797356153155468,1.0028403653575082,15311,202,5048,7733,195.05402639024965,111.24870344471448,0.0011854547869385,False
0.03,0.3966674200134161,1.6,1603.0,9.05814,0.1,68900.0,0.33,276.0,2700.0,11.340620573748506,0.1700527599384633,459.1424518338511,5.96499196178601,1.052340139075714,5.375628611962496,0.8822873791372507,9278,156,3046,4703,119.31504218458876,68.1415216276786,0.0007704481779443,False
0.04,0.4331221944487806,1.6,1604.0,9.05814,0.1,68900.0,0.33,276.0,2700.0,12.605771290825665,0.2519813845299571,680.3497382308843,6.711605439421003,1.2832999222018224,5.89416585140466,1.0313185376718652,10082,166,3314,5105,103.29602250364124,58.95100517186334,0.0006616716786986,False
0.05,0.3630196130813031,1.6,1605.0,9.05814,0.1,68900.0,0.33,276.0,2700.0,9.683593655528671,0.2418280420004186,652.9357134011303,5.305508226696619,0.8628061182967431,4.378085428832052,0.6209780762963245,7878,140,2586,3993,66.04800198625497,37.84272191689606,0.0004290567941899,False
0.06,0.5356255970994271,1.6,1606.0,9.05814,0.1,68900.0,0.33,276.0,2700.0,16.614192667330535,0.4979733906777998,1344.5281548300595,8.98992194712537,2.0857742550919984,7.624270720205164,1.5878008644141983,13127,194,4304,6665,86.02659042891959,49.24438998345588,0.0006129862605393,False
0.0699999999999999,0.5130571772328583,1.6,1607.0,9.05814,0.2,68900.0,0.33,276.0,2700.0,15.386500591103806,0.5378091431685126,1452.084686554984,8.465629729231335,1.88882622024057,6.920870861872471,1.3510170770720575,3424,96,1128,1726,66.99207078154727,38.6765144997689,0.0004956895736035,False
0.08,0.6165572823350879,1.6,1608.0,9.05814,0.2,68900.0,0.33,276.0,2700.0,19.98716747924092,0.7984143688772123,2155.7187959684734,10.975326198498388,2.892574610783026,9.01184128074253,2.094160241905814,4152,110,1364,2100,68.9184619337405,39.7820035088594,0.0005831916607985,False
0.09,0.6191122637150561,1.6,1609.0,9.05814,0.2,68900.0,0.33,276.0,2700.0,19.877980211105285,0.8929822954700966,2411.0521977692606,11.040685120877866,2.920699825342245,8.83729509022742,2.027717529872149,4176,110,1372,2112,62.0532817605624,35.80472106589401,0.0005201147876392,False
0.0999999999999999,0.5093001853475321,1.6,1610.0,9.05814,0.2,68900.0,0.33,276.0,2700.0,14.599529169581514,0.727882063376683,1965.281571117044,8.37959304459722,1.8571826486722312,6.219936124984294,1.1293005852955482,3145,90,1026,1600,48.256258383436325,27.857961338571787,0.0003525502348077,False
0.11,0.542386737999194,1.6,1611.0,9.05814,0.2,68900.0,0.33,276.0,2700.0,15.845696288875272,0.8687256560068533,2345.559271218504,9.149483513513797,2.1470951458513627,6.696212775361476,1.2783694898445097,3589,98,1174,1822,45.761481675770014,26.40768754184821,0.0003513291928651,False
0.12,0.807497109678893,1.6,1612.0,9.05814,0.3,68900.0,0.33,276.0,2700.0,29.1627666519018,1.7461468843771728,4714.596587818367,16.311768201046608,5.483091470812081,12.85099845085519,3.736944586434908,2929,94,960,1483,61.946010134322606,35.73982036365643,0.0006260516790305,False
0.13,0.6021482732450691,1.6,1613.0,9.05814,0.2,68900.0,0.33,276.0,2700.0,18.15769895702361,1.175649046166576,3174.2524246497555,10.609801306398362,2.7370707271447765,7.547897650625247,1.5614216809782004,3687,102,1212,1863,42.67979028973653,24.60972518997109,0.0003473342635099,False
0.14,0.6567499336631002,1.6,1614.0,9.05814,0.3,68900.0,0.33,276.0,2700.0,20.573044498190445,1.434366094712363,3872.788455723381,12.022503400909896,3.354610496606237,8.550541097280549,1.9202444018938736,2084,76,684,1052,44.476869889722245,25.676907921761376,0.0003667849999221,False
0.15,0.8258458736947458,1.6,1615.0,9.05814,0.3,68900.0,0.33,276.0,2700.0,29.407097317100085,2.1984637153119277,5935.852031342204,16.872842023878164,5.787526823444791,12.53425529322192,3.589063108132864,3059,96,1006,1544,50.21032175697904,28.91211552886928,0.0005185396740706,False
0.16,0.5443269321327857,1.6,1616.0,9.05814,0.3,68900.0,0.33,276.0,2700.0,14.915302888642584,1.184645588752004,3198.5430896304106,9.19548385410572,2.164891529588582,5.719819034536865,0.9802459408365782,1682,66,552,848,33.162396542867725,19.146318165256154,0.0002498831368599,False
0.17,0.5061780046003169,1.6,1617.0,9.05814,0.3,68900.0,0.33,276.0,2700.0,13.108190172597174,1.1039064015326858,2980.547284138252,8.308363701147043,1.8311313037843115,4.799826471450132,0.7272249022516255,1425,60,468,717,29.689851550201645,17.113835036653803,0.0002146580651093,False
0.18,0.8113663199665302,1.6,1618.0,9.05814,0.3,68900.0,0.33,276.0,2700.0,27.78581430340952,2.488508775069702,6718.973692688196,16.429378010513467,5.546432539369377,11.35643629289605,3.057923764299675,2841,92,930,1440,41.93789535315914,24.15242972090606,0.0004128593735426,False
0.19,0.7712455060283387,1.6,1619.0,9.05814,0.3,68900.0,0.33,276.0,2700.0,25.316948872007558,2.390744686833389,6455.010654450151,15.228129417153989,4.911505316256003,10.088819454853567,2.5207606294226137,2717,90,892,1373,38.360511001087616,22.08782644753881,0.0003535538180514,False
0.2,0.8267794616514847,1.6,1620.0,9.05814,0.3,68900.0,0.33,276.0,2700.0,28.13942020143577,2.79718685932443,7552.40452017596,16.90161576387002,5.803292535258593,11.23780443756575,3.006105675934163,2975,94,976,1505,38.041709415159495,21.855732174719066,0.0003831260439763,False
0.21,0.7628511136127316,1.6,1621.0,9.05814,0.3,68900.0,0.33,276.0,2700.0,24.38061827615571,2.5405687259530856,6859.535560073331,14.98191245925659,4.78470908192668,9.398705816899122,2.2441403559735944,2402,82,790,1211,34.030123808438994,19.578944373544875,0.0003102468823139,False
0.22,0.7324823335731834,1.6,1622.0,9.05814,0.3,68900.0,0.33,276.0,2700.0,22.55839762265144,2.459122619440945,6639.631072490552,14.105955040394749,4.34308621677885,8.452442582256694,1.8839635973379052,2266,80,746,1141,31.488596373246217,18.118674324735824,0.0002803115659453,False
0.23,0.8238741899129955,1.6,1623.0,9.05814,0.2,68900.0,0.33,276.0,2700.0,27.2144100087418,3.104174645794489,8381.271543645122,16.81214553245402,5.754318767671677,10.40226447628778,2.6501441218771875,5374,130,1780,2698,33.187041121816875,19.0717184523417,0.0003256200392973,False
0.24,0.5544473392426132,1.6,1624.0,9.05814,0.3,68900.0,0.33,276.0,2700.0,13.840659957412791,1.6319262769940526,4406.200947883942,9.436963864247655,2.2591733368060343,4.403696093165136,0.6272470598119817,1453,60,480,727,22.093017398891256,12.715781929088344,0.0001780921140175,False
0.25,0.6223974562445123,1.6,1625.0,9.05814,0.2,68900.0,0.33,276.0,2700.0,16.61141480456547,2.0437019270957903,5517.995203158634,11.12496465817066,2.9571089646169484,5.4864501463948105,0.913407037521158,3342,96,1108,1674,24.31792258744572,14.004217058390031,0.000200466737741,False
0.26,0.7203556655538026,1.6,1626.0,9.05814,0.3,68900.0,0.33,276.0,2700.0,21.05380651132723,2.7001837581528774,7290.496147012769,13.762649102342268,4.174113296412444,7.291157408984963,1.4739295382595667,2196,78,724,1104,26.79498337644536,15.411894837760558,0.0002350964797885,False
0.27,0.6766618183201691,1.6,1627.0,9.05814,0.3,68900.0,0.33,276.0,2700.0,18.7226853432247,2.4863385425346247,6713.114064843487,12.55632595026074,3.599299369452463,6.166359392963962,1.1129608269178384,2011,74,666,1006,24.633286550598523,14.150663298284082,0.0002095489262609,False
0.28,0.7742878970240226,1.6,1628.0,9.05814,0.2,68900.0,0.33,276.0,2700.0,23.357149602165272,3.224024783015404,8704.86691414159,15.317803411148644,4.957971592771939,8.039346191016628,1.7339468097565347,4902,120,1632,2448,26.613620589425675,15.274699614136782,0.0002433570263544,False
0.29,0.6798716269174852,1.6,1629.0,9.05814,0.3,68900.0,0.33,276.0,2700.0,18.472815095437003,2.6274779866861,7094.190564052469,12.643311116519774,3.6397423060432503,5.829503978917229,1.012264319357151,2008,74,662,1009,22.67983783967353,13.04157416215842,0.0001982578572942,False
0.3,0.7142839429959897,1.6,1630.0,9.05814,0.3,68900.0,0.33,276.0,2700.0,19.913764720770185,2.930516040350913,7912.393308947466,13.592147181934054,4.09106839838794,6.321617538836131,1.1605523580370265,2088,74,686,1053,23.23739384272221,13.341868179077398,0.0002055616394488,False
0.31,0.9185428695882308,1.6,1631.0,9.05814,0.3,68900.0,0.33,276.0,2700.0,30.608085070067325,4.681859061365043,12641.019465685617,19.83671092176528,7.487291234053778,10.771374148302048,2.805432172688735,3096,96,1024,1554,27.47370585382385,15.708891595341791,0.0002885720982906,False
0.32,0.6851550300347846,1.6,1632.0,9.05814,0.3,68900.0,0.33,276.0,2700.0,18.13357010676233,2.832742078366753,7648.403611590234,12.78705416799099,3.706921432765213,5.346515938771342,0.8741793543984602,1913,70,634,956,21.555305805940773,12.355600980737767,0.0001832568040394,False
0.33,0.95870927381823,1.6,1633.0,9.05814,0.3,68900.0,0.33,276.0,2700.0,32.4756945727675,5.283223327711934,14264.70298482222,21.188043022780903,8.311063938106896,11.2876515499866,3.0278406103949624,3408,102,1126,1713,26.68288257685981,15.172327435882066,0.0002919677607517,False
0.34,0.8849458883612518,1.6,1634.0,9.05814,0.3,68900.0,0.33,276.0,2700.0,27.947717170973306,4.668793813961001,12605.743297694702,18.73753848984181,6.83938149278556,9.210178681131492,2.1705876788245595,2700,90,898,1347,24.93458938185997,14.239883014237094,0.0002470021345807,False
0.3500000000000001,0.7836462533905594,1.6,1635.0,9.05814,0.3,68900.0,0.33,276.0,2700.0,22.31767979624961,3.8157967743285743,10302.65129068715,15.595097821736518,5.102616849248856,6.722581974513096,1.2868200749202812,2396,82,792,1202,22.833521667670976,13.180171231184882,0.0001956593495079,False
0.36,0.94882047396197,1.6,1636.0,9.05814,0.3,68900.0,0.33,276.0,2700.0,31.12793800284433,5.505312742614724,14864.344405059755,20.851588254106712,8.103205213542896,10.27634974873762,2.597892470928172,2988,96,988,1500,24.52048839111578,13.921290226022563,0.0002594224176622,False
0.37,0.6838693536499519,1.6,1637.0,9.05814,0.3,68900.0,0.33,276.0,2700.0,17.145332760093748,3.0657991654958208,8277.657746838717,12.75201078983314,3.6905039508626807,4.393321970260608,0.6247047853668599,1828,68,610,907,17.957773403125174,10.308659035280808,0.0001615242597565,False
0.38,0.8317180139027983,1.6,1638.0,9.05814,0.3,68900.0,0.33,276.0,2700.0,24.159511525433533,4.475383541773849,12083.535562789391,17.054189325292317,5.8871385418273805,7.105322200141217,1.4117550000535315,2557,84,848,1279,21.48590568860105,12.220735634183535,0.0002051060852644,False
0.39,0.8363431217112427,1.6,1639.0,9.05814,0.3,68900.0,0.33,276.0,2700.0,24.18826530771636,4.592474311925829,12399.68064219974,17.197635059471693,5.966347524818666,6.990630248244667,1.3738732128928364,2555,84,846,1280,20.640471721238324,11.74554919938734,0.0002019097701297,False
0.4,0.9308364996875238,1.6,1640.0,9.05814,0.3,68900.0,0.33,276.0,2700.0,29.12359909189752,5.69067853182634,15364.832035931116,20.24600376967599,7.733668376611069,8.877595322221527,2.0429898447847297,2776,92,924,1384,21.901802251997072,12.443285079257034,0.0002295126626108,False
0.4100000000000001,0.8554493336243769,1.6,1641.0,9.05814,0.3,68900.0,0.33,276.0,2700.0,24.767532402506458,4.932996337661786,13319.09011168682,17.79590381280475,6.300629901742493,6.971628589701709,1.3676335640807071,2559,84,842,1288,20.0303721307025,11.367707801999536,0.0001996998758049,False
0.42,1.0897599933794644,1.6,1642.0,9.05814,0.3,68900.0,0.33,276.0,2700.0,38.24915798627446,7.877153632771527,21268.314808483123,25.878993110316436,11.390434552763224,12.370164875958029,3.5132809199916952,3631,108,1208,1813,23.8070199550083,13.495921019585255,0.0002817621447054,False
0.43,1.044872986050173,1.6,1643.0,9.05814,0.3,68900.0,0.33,276.0,2700.0,35.15599414360163,7.392019669468333,19958.4531075645,24.223664164857684,10.266144798303406,10.932329978743947,2.8741251288350727,3379,102,1114,1696,22.669314002732136,12.86465036969768,0.0002541436411654,False
0.44,0.9912269979570534,1.6,1644.0,9.05814,0.3,68900.0,0.33,276.0,2700.0,31.67159388862648,6.789341703095564,18331.222598358025,22.31174885745676,9.018249039986484,9.359845031169726,2.2289073368909182,2993,96,1004,1481,21.13029185172027,12.006015484545374,0.000230489003681,False
0.45,0.770158433160257,1.6,1645.0,9.05814,0.2,68900.0,0.33,276.0,2700.0,19.702799009423245,4.24227802341465,11454.150663219556,15.196144526882083,4.894968617578684,4.50665448254116,0.6526905941640333,5556,108,1408,3100,18.768467573967783,10.80082429059228,0.000162885556718,False
0.46,1.110400149037924,1.6,1646.0,9.05814,0.3,68900.0,0.33,276.0,2700.0,38.51151618386318,8.653788680601993,23365.22943762538,26.657150183377578,11.932593224307915,11.854366000485602,3.278804543705922,3800,108,1240,1916,22.429885773571325,12.860287230156937,0.0002611219352218,False
0.4700000000000001,1.0634431307775367,1.6,1647.0,9.05814,0.2,68900.0,0.33,276.0,2700.0,35.29384631789176,8.076607501988704,21806.8402553695,24.902346839152536,10.722269953077088,10.391499478739227,2.645662451088384,9630,150,2390,5419,21.94171899653486,12.467470124830497,0.0002446837700728,False
0.4800000000000001,1.037461049766884,1.6,1648.0,9.05814,0.3,68900.0,0.33,276.0,2700.0,33.464570809843124,7.799873651198487,21059.658858235915,23.95520029178412,10.0875963143392,9.509370518059004,2.2877226631407144,3196,98,1042,1607,21.07324425845403,12.037005336818272,0.0002276986167566,False
0.49,1.0410873734427502,1.6,1649.0,9.05814,0.3,68900.0,0.33,276.0,2700.0,33.44288223937513,7.947102659245456,21457.17717996273,24.086374958387708,10.174703365341514,9.356507280987422,2.2276007060960588,3355,98,1048,1727,21.455823786541952,12.259051284858412,0.0002250215619231,False
0.5,0.9400402468982072,1.6,1650.0,9.05814,0.3,68900.0,0.33,276.0,2700.0,27.411972727184384,6.591193793996949,17796.223243791763,20.554911227137417,7.921427397534752,6.857061500046967,1.3302336035378035,3085,88,878,1652,21.17856920831175,12.099364061723348,0.0001936805337591,False
0.01,0.584661311095779,1.6,1651.0,12.07752,0.05,68900.0,0.33,276.0,2700.0,20.100193407028065,0.1004988726400015,271.34695612800414,10.173204574631775,2.555366108129458,9.926988832396283,2.4548672354894565,62918,434,20854,31631,809.6854214445137,459.7239028140548,0.0058043347567369,True
0.02,0.4601319383611009,1.6,1652.0,12.07752,0.1,68900.0,0.33,276.0,2700.0,14.14531780635002,0.1414364229026795,381.8783418372347,7.2863203633459905,1.4722988491936828,6.8589974430040295,1.3308624262910034,11265,176,3734,5658,387.4395065779472,221.08790921944987,0.0032595345530036,True
0.04,0.5301118904201868,1.6,1654.0,12.07752,0.1,68900.0,0.33,276.0,2700.0,16.80635587166399,0.3359930761467286,907.1813055961672,8.860650068454202,2.036563197083379,7.945705803209787,1.7005701209366504,13290,196,4370,6729,175.1574965759348,99.85773433490776,0.0012112758474228,False
0.05,0.5025832033269888,1.6,1655.0,12.07752,0.1,68900.0,0.33,276.0,2700.0,15.350507295497543,0.3835008829996391,1035.4523840990255,8.226655436645943,1.8014113471521591,7.1238518588516,1.4179104641525202,12310,186,4044,6238,132.81572230832725,75.96218529494391,0.0008840426534178,False
0.06,0.4558764139607872,1.6,1656.0,12.07752,0.1,68900.0,0.33,276.0,2700.0,13.143716204523235,0.3938590967935803,1063.4195613426668,7.194554248230968,1.4414871529752873,5.949161956292268,1.0476280561817068,10788,170,3538,5475,99.21492122994354,56.92134930651327,0.0006498374484441,False
0.0699999999999999,0.5313841959414256,1.6,1657.0,12.07752,0.2,68900.0,0.33,276.0,2700.0,16.203822871182634,0.5664154229712713,1529.3216420224326,8.890412156925118,2.0478555800084504,7.313410714257516,1.481440157037179,3568,98,1172,1804,156.67835136326397,87.78523397394281,0.0006957586535121,False
0.08,0.46888432727465,1.6,1658.0,12.07752,0.2,68900.0,0.33,276.0,2700.0,13.286404248124656,0.5303838396325612,1432.0363670079153,7.476487536299691,1.5369023630599297,5.809916711824965,1.0065185234273684,2991,88,982,1512,74.05536096477077,42.74853334029181,0.0005171050373568,False
0.09,0.5991003711389413,1.6,1659.0,12.07752,0.2,68900.0,0.33,276.0,2700.0,18.90817849805826,0.8493412183829792,2293.221289634044,10.533151347061796,2.7048499614846064,8.375027150996464,1.8555087431016275,3914,104,1274,1997,80.73068482781999,46.59614422963199,0.0006549996838732,False
0.0999999999999999,0.5171896695878118,1.6,1660.0,12.07752,0.2,68900.0,0.33,276.0,2700.0,14.941865115594831,0.7449988606773499,2011.4969238288447,8.56067523589583,1.9240066099843895,6.381189879699001,1.17900774930704,3493,96,1146,1768,64.24033337428118,37.08356337799489,0.0004792240446917,False
0.11,0.7411299197729785,1.6,1661.0,12.07752,0.3,68900.0,0.33,276.0,2700.0,25.703334945382185,1.4108957821147348,3809.418611709784,14.353025694484352,4.466135606921339,11.350309250897832,3.0552398248066046,2680,88,872,1366,81.67068771244263,47.12521675455398,0.0007777937213413,False
0.12,0.7573186693710796,1.6,1662.0,12.07752,0.3,68900.0,0.33,276.0,2700.0,26.331780635814123,1.576287723411917,4255.976853212176,14.82060788767176,4.702269045544637,11.511172748142362,3.12598132213272,2673,88,868,1365,78.16125808962659,45.10700304298364,0.0007403161586633,False
0.13,0.4337513598038586,1.6,1663.0,12.07752,0.2,68900.0,0.33,276.0,2700.0,10.937860797675556,0.7063595658089533,1907.170827684174,6.7247842835242,1.2875267771357022,4.213076514151356,0.5811672113267489,2494,78,814,1267,42.953678777304624,24.77361516984291,0.000297996780272,False
0.14,0.4846032779709061,1.6,1664.0,12.07752,0.2,68900.0,0.33,276.0,2700.0,12.779458572954336,0.8888150799458362,2399.800715853757,7.82285422372876,1.6571390279953266,4.956604349225574,0.7683239480494904,2788,84,914,1411,43.44757995695952,25.07954133391233,0.0003215085682091,False
0.15,0.716747353203738,1.6,1665.0,12.07752,0.3,68900.0,0.33,276.0,2700.0,23.3951275360519,1.7475659817333176,4718.428150679957,13.661211267058835,4.124636467778301,9.733916268993063,2.377070486044984,2370,82,778,1197,59.074196283575965,34.08367142596755,0.0005270179137496,False
0.16,0.7743147746422816,1.6,1666.0,12.07752,0.3,68900.0,0.33,276.0,2700.0,26.236692514102565,2.0903567587888023,5643.963248729767,15.318596661359097,4.958383309504889,10.918095852743468,2.8680265507160865,2763,90,908,1395,59.51503941252287,34.28199374866915,0.0005696451628952,False
0.17,0.6450110644291158,1.6,1667.0,12.07752,0.3,68900.0,0.33,276.0,2700.0,19.323213690759093,1.6321834005764646,4406.895181556454,11.712462166394836,3.215303056025624,7.610751524364257,1.5831196554491591,2022,74,660,1026,47.7599230209898,27.54648748761303,0.0003956923488781,False
0.18,0.8041044488047351,1.6,1668.0,12.07752,0.3,68900.0,0.33,276.0,2700.0,27.37781690431139,2.4517890091508705,6619.83032470735,16.208953345377292,5.427925662803299,11.1688635589341,2.976136653652428,2849,92,934,1442,55.67439811393023,32.041533368182776,0.0005412911693183,False
0.19,0.7391690124849004,1.6,1669.0,12.07752,0.3,68900.0,0.33,276.0,2700.0,23.60753385061592,2.2283502598011955,6016.545701463228,14.296835736341746,4.438045761672005,9.31069811427417,2.2096955018708098,2357,82,776,1187,48.310774522283566,27.86195884140868,0.0004346401907835,False
0.2,0.5857595737852102,1.6,1670.0,12.07752,0.3,68900.0,0.33,276.0,2700.0,15.948484168305333,1.5780932560113874,4260.851791230746,10.200398700033018,2.566553889517892,5.748085468272313,0.9884606335065048,1867,70,614,940,38.412127434367605,22.171685350391403,0.000299257634981,False
0.21,0.5637273244033596,1.6,1671.0,12.07752,0.3,68900.0,0.33,276.0,2700.0,14.789050374319684,1.5334540962602876,4140.326059902776,9.660653208337136,2.347784464537884,5.128397165982548,0.8143303682775964,1548,62,508,780,35.36385959596732,20.41360297457787,0.0002724796089032,False
0.22,0.6132201817640588,1.6,1672.0,12.07752,0.3,68900.0,0.33,276.0,2700.0,16.786326174242745,1.8241947601164197,4925.325852314332,10.890206988212896,2.8560909469749003,5.896119186029848,1.0318961868584808,1892,70,618,959,36.60756659600239,21.12086842928334,0.0002923192162091,False
0.23,0.891594793165684,1.6,1673.0,12.07752,0.3,68900.0,0.33,276.0,2700.0,31.104288268068775,3.5515106456170917,9589.078743166148,18.9528151678188,6.96468066392848,12.15147310024998,3.4131700183113884,3005,96,986,1520,47.467423803532405,27.182594765072235,0.0005096359199934,False
0.24,0.7346763358245926,1.6,1674.0,12.07752,0.3,68900.0,0.33,276.0,2700.0,22.216540669353183,2.6370319624269016,7119.986298552634,14.168462068178629,4.374103262055955,8.04807860117456,1.737071299629053,2303,80,760,1157,39.34267836398135,22.638870412936438,0.0003464773563919,False
0.25,0.6520623036809883,1.6,1675.0,12.07752,0.3,68900.0,0.33,276.0,2700.0,17.971657078685215,2.21373221136076,5977.07697067405,11.89828066200683,3.298544820055755,6.073376416678386,1.0848126086949956,1998,72,654,1011,33.44524123598534,19.25711416654109,0.0002841557440143,False
0.26,0.7050100804101884,1.6,1676.0,12.07752,0.3,68900.0,0.33,276.0,2700.0,20.295810892539087,2.6016443277104178,7024.439684818128,13.33351333229389,3.966217631044814,6.962297560245197,1.3645733033343963,2172,76,714,1095,34.88845659037565,20.088574285485333,0.0003045684995349,False
0.27,0.6293638655416312,1.6,1677.0,12.07752,0.3,68900.0,0.33,276.0,2700.0,16.54015165854015,2.191696495102515,5917.58053677679,11.304580934861576,3.035234954006381,5.235570723678574,0.8435384589038666,1780,68,590,889,30.933518065775303,17.799572031902077,0.0002527307640648,False
0.28,0.8954473917898196,1.6,1678.0,12.07752,0.3,68900.0,0.33,276.0,2700.0,30.02504734029168,4.157530466353103,11225.332259153378,19.078062112320996,7.037939396908307,10.946985227970686,2.880408930555204,2932,94,966,1477,39.55420121108425,22.658130556106563,0.0004108571642189,False
0.29,0.7011882336391253,1.6,1679.0,12.07752,0.3,68900.0,0.33,276.0,2700.0,19.48594050772884,2.774381171468416,7490.829162964723,13.227556812954049,3.9154615778767226,6.258383694774789,1.1410804064083069,2087,74,688,1049,31.02552465638599,17.832658008118834,0.0002751736739791,False
0.3,0.7178887396376131,1.6,1680.0,12.07752,0.3,68900.0,0.33,276.0,2700.0,20.08881651525638,2.9567738095238347,7983.289285714353,13.693262842353557,4.140247477491173,6.395553672902823,1.1834736679673383,2126,76,704,1064,32.62735669285975,18.712311302063945,0.0003788598165152,False
0.31,0.8370477161024954,1.6,1681.0,12.07752,0.3,68900.0,0.33,276.0,2700.0,26.008674058589747,3.968950354586017,10716.165957382244,17.219534942413983,5.978472596559112,8.789139116175765,2.009522241973096,2679,88,888,1341,34.291339447194346,19.633205344066333,0.0003311512560324,False
0.32,0.776010581471857,1.6,1682.0,12.07752,0.2,68900.0,0.33,276.0,2700.0,22.5661229043788,3.541950525985388,9563.266420160548,15.368682416952897,4.984403148012122,7.197440487425906,1.442452622026734,5070,118,1606,2595,32.417448143718616,18.560353370371903,0.0003006407493541,False
0.33,0.6593875925951511,1.6,1683.0,12.07752,0.3,68900.0,0.33,276.0,2700.0,16.767413008415247,2.691356869593778,7266.663547903202,12.092644471481195,3.3864142257640397,4.674768536934051,0.6950573561702607,1766,66,582,887,25.9891406250756,14.933839979200584,0.0002267423829839,False
0.34,0.9064472363802002,1.6,1684.0,12.07752,0.3,68900.0,0.33,276.0,2700.0,29.164342584224418,4.875620134213692,13164.174362376967,19.43771712515828,7.249770402331416,9.726625459066142,2.374150268117724,2704,90,896,1354,33.80843115261131,19.329818918066596,0.0003402908771568,False
0.3500000000000001,0.8212075340712972,1.6,1685.0,12.07752,0.3,68900.0,0.33,276.0,2700.0,24.257498651242187,4.155265073952273,11219.215699671136,16.73021039005724,5.709595847704584,7.527288261184946,1.554330773752311,2543,84,844,1271,30.67959141287444,17.53540507260814,0.0002891673426656,False
0.36,0.9002597309416863,1.6,1686.0,12.07752,0.2,68900.0,0.33,276.0,2700.0,28.33419667320277,5.002439303279241,13506.58611885395,19.23503396340937,7.130126969631329,9.0991627097934,2.127687666352088,7305,134,1986,3988,33.07918017643255,18.93109820746244,0.0003244196157171,False
0.37,0.8190767722824697,1.6,1687.0,12.07752,0.2,68900.0,0.33,276.0,2700.0,23.713740902896998,4.280954671914421,11558.577614168938,16.66486947820317,5.674017387906631,7.048871424693825,1.393062715992209,6295,120,1632,3493,30.762519802734428,17.597563690652397,0.000278483640846,False
0.38,0.9519800957580358,1.6,1688.0,12.07752,0.2,68900.0,0.33,276.0,2700.0,30.82022384261845,5.740918882038987,15500.480981505269,20.95882348263476,8.169257691591985,9.86140035998369,2.428338809552998,7757,138,2008,4305,32.781653397098346,18.69084491266449,0.0003355610464922,False
0.39,0.732083963010856,1.6,1689.0,12.07752,0.3,68900.0,0.33,276.0,2700.0,19.004156303094724,3.5815730560246104,9670.247251266448,14.094618458174436,4.3374690777495495,4.909537844920289,0.7558960217249391,1970,72,654,983,25.107014533019694,14.368043235361013,0.0002235853568434,False
0.4,0.9191203472691678,1.6,1690.0,12.07752,0.3,68900.0,0.33,276.0,2700.0,28.46107898811544,5.558174511069924,15007.071179888797,19.855851912399604,7.498752018218405,8.605227075715835,1.9405775071484808,2693,90,900,1337,28.979478963008894,16.499921566171942,0.0002988624422758,False
0.4100000000000001,0.936481224556605,1.6,1691.0,12.07752,0.3,68900.0,0.33,276.0,2700.0,29.21115081805588,5.843938112849423,15778.63290469344,20.43520649752452,7.848485119568386,8.775944320531359,2.004547006718964,2768,92,922,1379,29.19446000502173,16.61969150082678,0.0003021908049509,False
0.42,1.042782174241814,1.6,1692.0,12.07752,0.3,68900.0,0.33,276.0,2700.0,35.28264625291082,7.25418616876517,19586.30265566596,24.14779415554064,10.215577009324106,11.134852097370183,2.961390840558936,3420,104,1130,1713,30.60791160740567,17.301888519394897,0.0003446402500642,False
0.43,0.8914080609034205,1.6,1693.0,12.07752,0.3,68900.0,0.33,276.0,2700.0,26.26068140339325,5.479527430323573,14794.724061873649,18.94675403070294,6.961142127794489,7.313927372690308,1.481614697470916,2571,86,848,1289,26.79730468914704,15.232904128307226,0.0002697013682761,False
0.44,0.8742450258057657,1.6,1694.0,12.07752,0.3,68900.0,0.33,276.0,2700.0,25.128533365348297,5.349868387974355,14444.644647530758,18.39340151622689,6.640717516349691,6.735131849121402,1.2908491283753367,2621,86,848,1325,25.55664913326836,14.561407058363418,0.0002579262337255,False
0.45,1.126664957324015,1.6,1695.0,12.07752,0.3,68900.0,0.33,276.0,2700.0,39.83430562279635,8.7718670114236,23684.04093084372,27.27789473265409,12.37120579536467,12.55641089014226,3.5993387839410698,3742,110,1242,1871,30.12891982362577,16.972583652670615,0.0003688027574422,False
0.46,0.9254808028534874,1.6,1696.0,12.07752,0.3,68900.0,0.33,276.0,2700.0,27.46953800333906,6.1141336990814406,16508.16098751989,20.06722917567296,7.625715971324601,7.402308827666104,1.5115822722431602,2658,88,872,1334,25.821577486697063,14.622113356919249,0.0002688971952053,False
0.4700000000000001,1.116042221186792,1.6,1697.0,12.07752,0.3,68900.0,0.33,276.0,2700.0,38.61128388770534,8.856205330894987,23911.754393416464,26.871726066167973,12.083599739070143,11.739557821537367,3.227394408175158,3804,108,1218,1933,29.814013561624048,16.990981442846365,0.000343213839265,False
0.4800000000000001,1.0142178665825483,1.6,1698.0,12.07752,0.3,68900.0,0.33,276.0,2700.0,32.07911921314793,7.467365267991637,20161.88622357742,23.122274915443622,9.540507423665314,8.956844297704308,2.0731421556736773,3385,98,1050,1746,28.3554903280819,16.200034598600283,0.0002933746414212,False
0.49,0.844068199396637,1.6,1699.0,12.07752,0.2,68900.0,0.33,276.0,2700.0,22.573279839057054,5.284050071167524,14266.935192152316,17.438423938221458,6.100129682522079,5.1348559008356,0.8160796113545548,6227,114,1548,3501,24.880592689454065,14.185458260440006,0.00022898080371,False
0.5,0.8811883026217053,1.6,1700.0,12.07752,0.2,68900.0,0.33,276.0,2700.0,24.274440911487293,5.806810840072674,15678.38926819622,18.6163676477118,6.769201351394379,5.658073263775492,0.9623905113217052,6219,116,1526,3512,25.43806929359935,14.571642997945515,0.00023806522732,False
0.02,0.3900690221353015,1.6,1702.0,15.0969,0.08,68900.0,0.33,276.0,2700.0,11.274740716940256,0.1127306520085835,304.3727604231755,5.833423087208787,1.0134154223553398,5.441317629731469,0.9006847703467562,14250,194,4702,7191,300.5743815034721,171.54898448134256,0.0018416933267617,True
0.03,0.4256477598353831,1.6,1703.0,15.0969,0.1,68900.0,0.33,276.0,2700.0,12.500391903981104,0.1874493298919495,506.1131907082639,6.555802957624292,1.233717608493487,5.944588946356812,1.0462682786015378,9751,164,3208,4933,217.8934501333473,124.10077759645372,0.0014087253035136,False
0.04,0.6625929246037101,1.6,1704.0,15.0969,0.1,68900.0,0.33,276.0,2700.0,23.30810437721036,0.4660280462576527,1258.2757248956625,12.178116552224331,3.4253120803819157,11.129987824986024,2.9592840341242623,18560,238,6116,9380,281.92313006218234,160.7498479345153,0.002239184265218,True
0.05,0.5231868126636287,1.6,1705.0,15.0969,0.1,68900.0,0.33,276.0,2700.0,16.270045726925694,0.4064893437853421,1097.5212282204238,8.699370281905905,1.975761639473646,7.570675445019789,1.5692722956883038,12963,192,4266,6558,172.44267608626643,98.54805652522649,0.0011821900176274,False
0.06,0.631036152697016,1.6,1706.0,15.0969,0.2,68900.0,0.33,276.0,2700.0,21.18623179726813,0.6351345645758675,1714.8633243548422,11.34787937622379,3.0541756534198927,9.838352421044345,2.419041088844025,4227,112,1388,2139,159.18796719490766,90.9452774677468,0.0013620267084903,False
0.0699999999999999,0.5946972869093253,1.6,1707.0,15.0969,0.2,68900.0,0.33,276.0,2700.0,19.157278252074235,0.6697863613024786,1808.4231755166925,10.422832950979949,2.6587146582796004,8.734445301094288,1.9889282969771216,4105,108,1346,2080,126.85136900976656,73.23506532543753,0.001047020835891,False
0.08,0.7548601991074761,1.6,1708.0,15.0969,0.2,68900.0,0.33,276.0,2700.0,27.25679121201453,1.089199318188154,2940.838159108016,14.749175321621887,4.665920860305002,12.507615890392644,3.5767215421168483,5607,132,1846,2832,148.63071229193648,85.01503903282662,0.0013991793981091,False
0.09,0.6377725248093036,1.6,1709.0,15.0969,0.2,68900.0,0.33,276.0,2700.0,20.800416749568125,0.9344919397005884,2523.1282371915886,11.523007648209306,3.131208415956088,9.27740910135882,2.1967164762555,4390,114,1442,2221,107.51318743702237,61.62376663170591,0.0009139218671626,False
0.0999999999999999,0.49792067072177,1.6,1710.0,15.0969,0.2,68900.0,0.33,276.0,2700.0,14.111266742449,0.7034689420200563,1899.366143454152,8.121161911211075,1.7633004437353068,5.990104831237924,1.0598315017152506,3174,90,1040,1608,78.80845715422898,45.49841152607873,0.0005696092394346,False
0.11,0.49313575529624,1.6,1711.0,15.0969,0.2,68900.0,0.33,276.0,2700.0,13.709823489202751,0.751252652024866,2028.3821604671384,8.0134674424832,1.7246992547419429,5.696356046719552,0.9734466027170768,3026,88,998,1523,70.4282261961524,40.65719095547746,0.0005138302886679,False
0.12,0.5385517962463781,1.6,1712.0,15.0969,0.2,68900.0,0.33,276.0,2700.0,15.468027488970352,0.9244625346012858,2496.048843423472,9.05883864155033,2.112181336533898,6.409188847420023,1.1877188019326124,3470,96,1136,1760,69.52904571635526,40.11544961094533,0.0005340918603901,False
0.13,0.6453426554348638,1.6,1713.0,15.0969,0.3,68900.0,0.33,276.0,2700.0,20.23931412799704,1.3109540322798323,3539.575887155548,11.721172451842246,3.219188247185013,8.518141676154794,1.9082342149051803,2040,76,672,1026,77.6016144307093,44.79451311571448,0.0006389559580014,False
0.14,0.5104566346399534,1.6,1714.0,15.0969,0.2,68900.0,0.33,276.0,2700.0,13.854859773774455,0.964093164003246,2603.051542808764,8.40603842475281,1.8668885112508131,5.448821349021646,0.9027953472475674,3005,88,990,1514,57.25080571332371,33.03823070521908,0.0004305870960085,False
0.15,0.5527776568155731,1.6,1715.0,15.0969,0.3,68900.0,0.33,276.0,2700.0,15.484749712082891,1.1542876449353003,3116.576641325311,9.396946758923264,2.2434500217552023,6.087802953159626,1.089162376819902,1689,66,554,852,59.173829622113296,34.14385698563841,0.00045146052368,False
0.16,0.652266945172508,1.6,1716.0,15.0969,0.3,68900.0,0.33,276.0,2700.0,19.897666947559525,1.5832347134653593,4274.733726356471,11.90369215684033,3.3009802556471866,7.993974790719195,1.7177455421818273,2128,76,696,1078,91.04686987692328,52.03132973770783,0.0007183306666076,False
0.17,0.5590152954855365,1.6,1717.0,15.0969,0.3,68900.0,0.33,276.0,2700.0,15.359315265245826,1.2952520344078366,3497.180492901159,9.546801653990196,2.3025316422832844,5.81251361125563,1.0072796078754478,1687,66,552,853,53.06483736495152,30.635027594290587,0.0004087987531089,False
0.18,0.7629692423888872,1.6,1718.0,15.0969,0.3,68900.0,0.33,276.0,2700.0,25.11673154972145,2.2482913272377747,6070.386583541992,14.985365023240776,4.78647908083009,10.131366526480678,2.5381877535923154,2628,86,858,1335,65.71766593954094,37.8405641091822,0.0006109820442923,False
0.19,0.6594328573530515,1.6,1719.0,15.0969,0.3,68900.0,0.33,276.0,2700.0,19.582319498359283,1.8459548963368184,4984.078220109411,12.093849685630774,3.3869616236650475,7.488469812728509,1.5410067273282289,2067,74,674,1050,54.83184148159016,31.626430667085717,0.0004614222793268,False
0.2,0.7019994435417656,1.6,1720.0,15.0969,0.2,68900.0,0.33,276.0,2700.0,21.46343351371601,2.12958819055226,5749.888114491103,13.250016029443303,3.926201011402582,8.213417484272707,1.7966128208503216,4484,114,1486,2249,54.79018289419224,31.586843867516425,0.0004799182073007,False
0.21,0.8226235417452721,1.6,1721.0,15.0969,0.3,68900.0,0.33,276.0,2700.0,27.6487141320656,2.8837187908236253,7786.040735223788,16.7736961089426,5.733316736113528,10.875018023122998,2.8495979452899025,2908,92,958,1465,60.40714713485484,34.76013251103731,0.0006004294755239,False
0.22,0.6891423426630342,1.6,1722.0,15.0969,0.3,68900.0,0.33,276.0,2700.0,20.37812238674839,2.219292343492041,5992.08932742851,12.895999617039616,3.758124482339892,7.482122769708773,1.5388321388478508,2092,76,690,1051,49.68069377413399,28.630563031178355,0.000428602917699,False
0.23,0.5914392866434905,1.6,1723.0,15.0969,0.3,68900.0,0.33,276.0,2700.0,15.616752105861366,1.7704439869632391,4780.198764800745,10.341518059228417,2.624889600152939,5.275234046632949,0.8544456131896998,1710,66,562,861,42.3250561507005,24.38940273492336,0.0003351761979533,False
0.24,0.9072669105073514,1.6,1724.0,15.0969,0.3,68900.0,0.33,276.0,2700.0,31.76785319337124,3.7831894653090647,10214.611556334476,19.46463924042976,7.265714028677055,12.30321395294148,3.4825245633679907,2999,96,984,1517,57.83448671457567,33.113100571634526,0.0006290648045511,False
0.25,0.69738990281815,1.6,1725.0,15.0969,0.3,68900.0,0.33,276.0,2700.0,20.13552598589668,2.48421582476219,6707.3827268579125,13.122615968066729,3.865418355942906,7.012910017829952,1.381202531180716,2172,76,714,1095,44.89471942146312,25.830346294660245,0.0003885540015391,False
0.26,0.8357582937000301,1.6,1726.0,15.0969,0.3,68900.0,0.33,276.0,2700.0,27.133342719064533,3.490523465158725,9424.413355928556,17.179467176951622,5.956295179071509,9.953875542112913,2.465771713912784,2907,92,956,1467,50.06065471116197,28.718576309927684,0.0004877688004598,False
0.27,0.6365716929620197,1.6,1727.0,15.0969,0.3,68900.0,0.33,276.0,2700.0,16.865489805439147,2.2356171449338804,6036.166291321477,11.491705590597087,3.1173900192758914,5.373784214842059,0.881772874342011,1758,68,582,879,39.08171825627972,22.475944391601463,0.0003209210055919,False
0.28,0.6409593613354162,1.6,1728.0,15.0969,0.2,68900.0,0.33,276.0,2700.0,16.872307142613835,2.3161468386782,6253.59646443114,11.606254559351727,3.1680629369827407,5.266052583262107,0.8519160983045406,3617,100,1206,1802,37.25114200879451,21.41026300537163,0.0003146420235503,False
0.29,0.9790872522056112,1.6,1729.0,15.0969,0.3,68900.0,0.33,276.0,2700.0,34.78362202692713,4.992544991752168,13479.871477730854,21.889130370148404,8.749959069111691,12.894491656778722,3.757414077359523,3412,104,1130,1711,50.82794888946112,28.96986078264646,0.0005902140994269,False
0.3,0.6829590253599985,1.6,1730.0,15.0969,0.3,68900.0,0.33,276.0,2700.0,18.420101286517948,2.7064665252130773,7307.459618075309,12.727223307464492,3.6789067186401065,5.692877979053455,0.9724401934270293,1893,72,628,945,37.34727059241559,21.46692789453787,0.0003214776796165,False
0.31,0.9315117453863032,1.6,1731.0,15.0969,0.3,68900.0,0.33,276.0,2700.0,31.370810426195003,4.800081491564833,12960.220027225048,20.26859482674547,7.7473470301862495,11.102215599449533,2.9472655386214166,3082,98,1014,1555,46.751065089425175,26.714253532473897,0.0004945002233892,False
0.32,0.920924989707992,1.6,1732.0,15.0969,0.3,68900.0,0.33,276.0,2700.0,30.4947319425178,4.810527972087576,12988.425524636456,19.91572234762421,7.534638741293393,10.579009594893588,2.724110769205817,3025,96,1000,1519,44.61637455513559,25.47255877819002,0.0004652681875182,False
0.33,0.8792754319141225,1.6,1733.0,15.0969,0.3,68900.0,0.33,276.0,2700.0,27.868056539775147,4.522963052268164,12212.000241124042,18.554819624377192,6.733649528404344,9.313236915397956,2.21068647613618,2672,90,888,1334,42.14368046204782,24.078741555162956,0.000418504366878,False
0.34,0.9668283854993168,1.6,1734.0,15.0969,0.3,68900.0,0.33,276.0,2700.0,32.70519052834037,5.477564284713401,14789.423568726184,21.466123542519828,8.48421978816595,11.23906698582054,3.0066555034525484,3320,102,1100,1664,43.69348465478087,24.79174334429115,0.000477504307324,False
0.3500000000000001,0.8381374927380694,1.6,1735.0,15.0969,0.3,68900.0,0.33,276.0,2700.0,25.15501709268524,4.312330801204704,11643.2931632527,17.253431458061225,5.997256510520346,7.901585634624016,1.6849257093156425,2594,86,860,1298,37.96554453295352,21.671821301752598,0.0003700732804399,False
0.36,0.7593846842837908,1.6,1736.0,15.0969,0.3,68900.0,0.33,276.0,2700.0,20.90024585235789,3.664328155527163,9893.68601992334,14.88075485620436,4.732950756253313,6.019490996153531,1.06862260072615,2203,76,724,1111,33.67363047730691,19.300517790903307,0.0003154578018754,False
0.37,1.0656151541747594,1.6,1737.0,15.0969,0.3,68900.0,0.33,276.0,2700.0,38.05600111905416,6.934272811903498,18722.536592139444,24.982293876965237,10.776445235014512,13.073707242088926,3.8421724231110153,3665,108,1218,1832,43.75561320453525,24.831558686051636,0.0005241058407812,False
0.38,0.8828788970534225,1.6,1738.0,15.0969,0.2,68900.0,0.33,276.0,2700.0,26.90420448974965,4.996875204993914,13491.563053483567,18.67084032252928,6.800720114358846,8.233364167220376,1.8038449093649325,6831,126,1734,3820,39.5730172371266,22.646880195469308,0.0003767792687517,False
0.39,0.9935618978421854,1.6,1739.0,15.0969,0.3,68900.0,0.33,276.0,2700.0,33.03888895741141,6.318345923616338,17059.53399376411,22.393457953594183,9.070440104450268,10.645431003817226,2.7520941808339305,3237,100,1074,1620,39.574963993998885,22.435828737651185,0.0004295696959825,False
0.4,0.7556524781450331,1.6,1740.0,15.0969,0.3,68900.0,0.33,276.0,2700.0,19.937091329339648,3.853376979314765,10404.117844149869,14.772178952230332,4.677615434339154,5.164912377109316,0.8242384550243891,2029,72,674,1012,30.61769952000917,17.540129822739924,0.0002853478743713,False
0.4100000000000001,0.8638833179281187,1.6,1741.0,15.0969,0.2,68900.0,0.33,276.0,2700.0,25.21464584124628,5.024654592603484,13566.567400029406,18.06291420690647,6.451844999422961,7.151731634339807,1.4271904068194772,6966,124,1712,3938,36.34688053220985,20.838683745254315,0.0003429923920221,False
0.42,0.7765878289334235,1.6,1742.0,15.0969,0.2,68900.0,0.33,276.0,2700.0,20.56843513982957,4.164201835018104,11243.34495454888,15.385747943591392,4.993279606038045,5.182687196238183,0.8290777710199411,5735,110,1442,3208,33.83570490794181,19.415842805194053,0.0002915345854334,False
0.43,1.1287100416757998,1.6,1743.0,15.0969,0.3,68900.0,0.33,276.0,2700.0,40.51546354219199,8.544305590165306,23069.625093446328,27.356415694402436,12.42707166411315,13.159047847789555,3.882766073947844,3790,110,1260,1894,39.66927904030732,22.448784255331528,0.0004886563903214,False
0.44,0.8249867008641016,1.6,1744.0,15.0969,0.3,68900.0,0.33,276.0,2700.0,22.579211212936823,4.789017514443841,12930.34728899837,16.846381158514994,5.773041504558734,5.732830054421829,0.9840239901148936,2692,82,820,1402,32.42821187078443,18.65449656172011,0.0003001215359126,False
0.45,1.12077312728421,1.6,1745.0,15.0969,0.3,68900.0,0.33,276.0,2700.0,39.44968260233275,8.685326831819289,23450.38244591208,27.05226570847764,12.211154188047754,12.397416893855112,3.525827356228465,3761,110,1250,1878,37.679475117294,21.28910619633695,0.0004556585288162,False
0.46,0.8671216195600384,1.6,1746.0,15.0969,0.2,68900.0,0.33,276.0,2700.0,24.341594045234707,5.394706588717438,14565.707789537082,18.16591015865305,6.510504858832624,6.175683886581659,1.115798270115186,6556,120,1618,3701,33.26957679752652,19.071310404774543,0.0003126159466913,False
0.4700000000000001,0.8950852709635608,1.6,1747.0,15.0969,0.3,68900.0,0.33,276.0,2700.0,25.610408622382952,5.800999643544224,15662.699037569406,19.066273778134665,7.031032967792889,6.544134844248287,1.230033324248665,2655,84,816,1377,32.473240152645324,18.581579390734426,0.0003157087363404,False
0.4800000000000001,0.999683668424462,1.6,1748.0,15.0969,0.3,68900.0,0.33,276.0,2700.0,31.226581761724443,7.262756279649999,19609.441955055,22.6083379718261,9.208184959177183,8.618243789898344,1.9454286795271865,2993,94,968,1509,35.71942757557668,20.262348754624195,0.0003606553731139,False
0.49,1.0339648554221463,1.6,1749.0,15.0969,0.3,68900.0,0.33,276.0,2700.0,33.01593785046567,7.84250128396236,21174.75346669837,23.82904570536732,10.00406489853308,9.186892145098348,2.161563614570719,3324,98,1042,1709,35.09882942456994,20.021167850754985,0.000371025002801,False
0.5,1.1038106916635675,1.6,1750.0,15.0969,0.3,68900.0,0.33,276.0,2700.0,37.05926368063808,9.003016532360368,24308.144637372992,26.40755675616424,11.75776001132686,10.651706924473835,2.754743478966491,4190,106,1208,2236,36.27901599336592,20.676439539651728,0.0004030599034077,False
0.01,0.3819294081782118,1.6,1751.0,18.11628,0.05,68900.0,0.33,276.0,2700.0,11.14999752250204,0.0557478932174085,150.51931168700315,5.6726305900946405,0.9665891342618124,5.477366932407398,0.9108412410444036,35578,302,11796,17878,721.8548155364895,410.9689977874807,0.0042571118705643,True
0.02,0.5508259365059239,1.6,1752.0,18.11628,0.1,68900.0,0.33,276.0,2700.0,18.227607103186,0.1822593158710401,492.1001528518083,9.3502588996277,2.225155386309395,8.8773482035583,2.042896070438355,14277,206,4730,7176,479.04645396124937,271.4735645520665,0.0039124609005182,True
0.03,0.6150213828360755,1.6,1753.0,18.11628,0.1,68900.0,0.33,276.0,2700.0,21.118232328962847,0.3167169362666789,855.1357279200332,10.936115344051489,2.87574773232745,10.18211698491136,2.559030796060771,16620,224,5486,8385,395.1756865419924,225.3096296707275,0.0031501689340313,True
0.04,0.6503916029042546,1.6,1754.0,18.11628,0.1,68900.0,0.33,276.0,2700.0,22.672418155802468,0.4533143218294966,1223.948668939641,11.854140388301971,3.278703235673579,10.818277767500495,2.8253889138440824,18216,234,5988,9228,339.0086208608617,193.26373313038843,0.002598244630996,True
0.05,0.7003229949403103,1.6,1755.0,18.11628,0.2,68900.0,0.33,276.0,2700.0,25.05594922984778,0.626136931357893,1690.569714666311,13.203619979151494,3.904026940725615,11.852329250696286,3.277890009367722,5076,126,1674,2559,244.6324429919096,140.99564889747535,0.002380211309737,False
0.06,0.6170252455137544,1.6,1756.0,18.11628,0.2,68900.0,0.33,276.0,2700.0,20.48617075778391,0.6141327333913997,1658.1583801567792,10.987284881343236,2.8977134572147643,9.498885876440674,2.2835807238233645,4306,112,1414,2179,186.377064948532,106.4522596159927,0.0015722224982148,False
0.0699999999999999,0.3973567801899711,1.6,1757.0,18.11628,0.1,68900.0,0.33,276.0,2700.0,10.616393109643363,0.3708553813173972,1001.3095295569724,5.978800603638253,1.0564569258654175,4.637592506005112,0.6856015445480204,8627,150,2836,4367,102.30099739966712,58.77786056477863,0.0007054468048955,False
0.08,0.7693124796325178,1.6,1758.0,18.11628,0.2,68900.0,0.33,276.0,2700.0,28.071931790615544,1.121804941332195,3028.8733415969277,15.171274627986422,4.8821239061654245,12.900657162629122,3.760318964833229,5847,136,1924,2955,175.22185814573135,100.08749618656346,0.001738428769136,False
0.09,0.6149696028425178,1.6,1759.0,18.11628,0.2,68900.0,0.33,276.0,2700.0,19.675569359764047,0.8838738071597374,2386.459279331291,10.934794456140391,2.8751814945434626,8.740774903623656,1.9913076873837248,4165,110,1366,2110,123.27672635159408,71.13365237467669,0.0010282110768535,False
0.0999999999999999,0.4687638085795138,1.6,1760.0,18.11628,0.2,68900.0,0.33,276.0,2700.0,12.889933904057242,0.6424023001004688,1734.486210271266,7.47385589845206,1.5360014651222988,5.416078005605183,0.89359916502183,2709,84,892,1365,88.78736121653306,51.21926776187152,0.0006298808962906,False
0.11,0.710969617881291,1.6,1761.0,18.11628,0.3,68900.0,0.33,276.0,2700.0,24.079599798170484,1.3215903490180942,3568.2939423488547,13.499467512423196,4.046173265149033,10.58013228574729,2.724582916130939,2479,84,814,1252,118.38916953628836,68.25193135502846,0.0010823062722413,False
0.12,0.5044737253887515,1.6,1762.0,18.11628,0.2,68900.0,0.33,276.0,2700.0,13.992298625635511,0.8359188028011957,2256.9807675632283,8.26958568969659,1.817004586893368,5.722712935938921,0.981085784092172,3174,90,1036,1614,79.4632048122838,45.86923493432262,0.0005867051068732,False
0.13,0.6230052077373169,1.6,1763.0,18.11628,0.3,68900.0,0.33,276.0,2700.0,19.151123131924216,1.2402216175351166,3348.598367344815,11.140585869780834,2.9638749249325387,8.010537262143382,1.723653307397422,2094,76,688,1056,91.98546965359976,53.10714295125948,0.0007290717091433,False
0.14,0.6766946767175153,1.6,1764.0,18.11628,0.3,68900.0,0.33,276.0,2700.0,21.572290635944228,1.504313324355128,4061.6459757588455,12.557215094410983,3.599711964807444,9.015075541533244,2.095398640452316,2272,80,744,1150,91.696280308011,52.92595678803094,0.0007652635778109,False
0.15,0.5173357946944562,1.6,1765.0,18.11628,0.2,68900.0,0.33,276.0,2700.0,13.95255667812962,1.0393731673891455,2806.307551950693,8.564043905745505,1.925257785683269,5.388512772384114,0.8858846182941238,3091,90,1024,1549,64.45442166457816,37.20099850052361,0.0004935383810444,False
0.16,0.6039045916108203,1.6,1766.0,18.11628,0.3,68900.0,0.33,276.0,2700.0,17.592911179525977,1.3988542520226757,3776.906480461224,10.654075991441344,2.755743784910745,6.938835188084633,1.3568895328880697,1975,72,646,1000,72.12069051390847,41.63519110121067,0.0005752780488398,False
0.17,0.8179391794225983,1.6,1767.0,18.11628,0.3,68900.0,0.33,276.0,2700.0,28.419505226874293,2.4053681811462604,6494.494089094903,16.630031327503044,5.655079370276607,11.789473899371249,3.249711189130347,2996,94,978,1523,88.06160100206435,50.74695570920803,0.0008924293138331,False
0.18,0.5531705766873081,1.6,1768.0,18.11628,0.2,68900.0,0.33,276.0,2700.0,14.907823355915747,1.3294895897952617,3589.6218924472064,9.406357524569188,2.247144117581644,5.501465831346561,0.9176545277863823,3221,92,1066,1616,58.37729217529839,33.67134890855192,0.0004579133110034,False
0.19,0.725574075939522,1.6,1769.0,18.11628,0.3,68900.0,0.33,276.0,2700.0,22.89863973555706,2.161005318870607,5834.714360950639,13.909929266701816,4.2463164339651005,8.988710468855245,2.0853111150944934,2384,82,782,1205,73.23395744928165,42.20391313838842,0.0006342713272854,False
0.2,0.6871247135153439,1.6,1770.0,18.11628,0.3,68900.0,0.33,276.0,2700.0,20.719813887445195,2.055226227925368,5549.110815398492,12.84082194224798,3.732160818868579,7.878991945197216,1.6769345909432114,2184,78,720,1098,65.35591436700001,37.66530522791778,0.0005584822757103,False
0.21,0.879713721914263,1.6,1771.0,18.11628,0.3,68900.0,0.33,276.0,2700.0,30.93783465444487,3.22907644567345,8718.506403318315,18.568913806245494,6.74178500879325,12.368920848199377,3.5127085631198,3098,98,1016,1568,76.96529737946972,44.26031815236768,0.0008222975688444,False
0.22,0.9128624473629924,1.6,1772.0,18.11628,0.3,68900.0,0.33,276.0,2700.0,32.64687962663371,3.5688556398787328,9635.91022767258,19.64887518188122,7.375144217498947,12.998004444752493,3.806288577620215,3309,100,1088,1671,75.40799533403913,43.10444018440528,0.0008432372704891,False
0.23,0.5940676940099887,1.6,1773.0,18.11628,0.2,68900.0,0.33,276.0,2700.0,15.732719285776652,1.7837802126530191,4816.206574163152,10.407098443636894,2.6521574703527198,5.32562084213976,0.8683772576997,3290,94,1088,1652,55.10425075611593,31.75036972125346,0.0004239897177215,False
0.24,0.6901205042856249,1.6,1774.0,18.11628,0.3,68900.0,0.33,276.0,2700.0,19.993944954032813,2.3703204765884545,6399.865286788827,12.922786988402526,3.770751953479387,7.071157965630286,1.4004314768909327,2179,76,716,1099,55.54034809824407,31.93909299490352,0.0004764754318984,False
0.25,0.7206024326448921,1.6,1775.0,18.11628,0.3,68900.0,0.33,276.0,2700.0,21.283641901073977,2.6277303141593533,7094.871848230254,13.769598238830309,4.177510322674742,7.514043662243671,1.5497800085153886,2187,78,722,1098,56.08419157948447,32.2956395671683,0.0004875743315101,False
0.26,0.6034771083239181,1.6,1776.0,18.11628,0.3,68900.0,0.33,276.0,2700.0,15.578837747012988,1.988437818791959,5368.782110738289,10.643292510759274,2.7511916505295786,4.935545236253715,0.7627538317376197,1692,66,560,846,46.4436596644991,26.649593098499608,0.0003705937662468,False
0.27,0.8885342822306009,1.6,1777.0,18.11628,0.3,68900.0,0.33,276.0,2700.0,29.879470085822494,3.9925044827856366,10779.76210352122,18.85358465576845,6.906827273930336,11.02588543005404,2.9143227911446994,2931,94,964,1479,61.07229423303732,34.92282412815474,0.0006328521743946,False
0.28,0.724724654569916,1.6,1778.0,18.11628,0.3,68900.0,0.33,276.0,2700.0,20.84214613024029,2.871924296945908,7754.19560175395,13.885909254598417,4.234511245635642,6.95623687564188,1.3625869486897346,2225,78,734,1118,50.36179825599755,28.945228118760845,0.0004437814952262,False
0.29,0.5957067514725094,1.6,1779.0,18.11628,0.2,68900.0,0.33,276.0,2700.0,14.695791802414613,2.0798096091978504,5615.485944834196,10.448081834918222,2.6692488805639725,4.247709967496389,0.5894392713661221,3105,90,1026,1556,40.4612511521482,23.244411023297094,0.0003334502478979,False
0.3,0.7885251255746822,1.6,1780.0,18.11628,0.3,68900.0,0.33,276.0,2700.0,23.650774978608368,3.49106757902664,9425.882463371929,15.74053497539279,5.1790578796318725,7.910240003215577,1.6879903006052324,2446,84,810,1225,50.65732589478864,29.044560933612757,0.0004679887909336,False
0.31,0.837979808339274,1.6,1781.0,18.11628,0.3,68900.0,0.33,276.0,2700.0,26.059392064797787,3.976811645548264,10737.391442980312,17.248524980631178,5.994536300398618,8.81086708416661,2.0177246548503542,2668,88,884,1336,51.715482595317816,29.596262385529336,0.0004964271974895,False
0.32,0.7956404698354408,1.6,1782.0,18.11628,0.3,68900.0,0.33,276.0,2700.0,23.578310909747863,3.703900606844364,10000.531638479782,15.953712884371855,5.291814867458307,7.624598025376008,1.5879142606139438,2370,82,786,1185,48.31612823476888,27.68347903203823,0.0004486343130717,False
0.33,0.8385245455033163,1.6,1783.0,18.11628,0.3,68900.0,0.33,276.0,2700.0,25.62735231438878,4.153246855079376,11213.766508714314,17.265477566988395,6.003936829993983,8.361874747400385,1.850689974914608,2587,86,860,1291,48.89152187112064,27.98333876712798,0.0004688523201474,False
0.34,0.7064608865604203,1.6,1784.0,18.11628,0.3,68900.0,0.33,276.0,2700.0,18.745481040494557,3.10441367177961,8381.916913804946,13.373831472812938,3.9855912146989394,5.371649567681615,0.8811775429193296,1920,70,632,966,41.61033260814333,23.80015292633328,0.0003606457383685,False
0.3500000000000001,1.0006461025298052,1.6,1785.0,18.11628,0.3,68900.0,0.33,276.0,2700.0,34.50306580434223,5.948239325744781,16060.24617951091,22.642206010423152,9.229960290716992,11.860859793919076,3.2817209649722106,3343,102,1102,1684,52.64144903154537,29.88899443015342,0.0005935039368934,False
0.36,0.8803842972256958,1.6,1786.0,18.11628,0.3,68900.0,0.33,276.0,2700.0,27.224931391679867,4.802771552605111,12967.4831920338,18.59048697881726,6.754244096538776,8.634444412862607,1.951472543933665,2592,88,862,1293,47.17660780414622,26.949664804342,0.0004647216695723,False
0.37,0.925942579118287,1.6,1787.0,18.11628,0.3,68900.0,0.33,276.0,2700.0,29.55547458343488,5.361675402813782,14476.523587597212,20.08261499231157,7.634986093654772,9.472859591123306,2.27331069084099,2770,92,922,1381,47.17155774945367,26.842389413580044,0.0004876743188919,False
0.38,0.7208623868524624,1.6,1788.0,18.11628,0.3,68900.0,0.33,276.0,2700.0,18.66369385279819,3.4311781839731377,9264.181096727472,13.776920389178004,4.181090739348581,4.886773463620186,0.7499125553754431,1959,72,652,975,36.625811754823616,20.95238129285312,0.0003360242734277,False
0.39,1.053428915280424,1.6,1789.0,18.11628,0.3,68900.0,0.33,276.0,2700.0,36.7357320210885,7.039230321033396,19005.92186679017,24.535280825627773,10.474732527865998,12.20045119546073,3.4355022068326013,3641,106,1214,1814,49.30412154042455,27.96117288781901,0.00057593221835,False
0.4,1.0396457610783287,1.6,1790.0,18.11628,0.2,68900.0,0.33,276.0,2700.0,35.606097691642795,6.9871782517753935,18865.381279793564,24.03418807151325,10.140017772292962,11.571909620129546,3.1528395205175688,9569,154,2390,5382,50.139206405687496,28.59866159704192,0.0005464349345127,False
0.4100000000000001,0.7242840014871437,1.6,1791.0,18.11628,0.3,68900.0,0.33,276.0,2700.0,18.27421910409378,3.601867111487167,9725.04120101535,13.873455571687686,4.228395120971608,4.400763532406096,0.6265280094844408,1884,70,630,933,34.666423883033275,19.827519202511752,0.0003180437349678,False
0.42,0.9656288057421748,1.6,1792.0,18.11628,0.3,68900.0,0.33,276.0,2700.0,30.651336690357297,6.281611160628927,16960.350133698103,21.424933488724538,8.458494169892704,9.22640320163276,2.176883009263777,3040,96,1018,1507,43.17906888037229,24.636336096445667,0.0004631143431944,False
0.43,0.8755182325648696,1.6,1793.0,18.11628,0.1,68900.0,0.33,276.0,2700.0,25.40728932355716,5.296048133158811,14299.32995952879,18.43419667786756,6.664162085498128,6.973092645689601,1.3681139523393169,40946,242,6576,25974,45.48948377601136,25.60125668234635,0.0004046166804315,False
0.44,0.9051595109186684,1.6,1794.0,18.11628,0.3,68900.0,0.33,276.0,2700.0,26.790777425538483,5.715562081216359,15432.01761928417,19.39545601232589,7.224767173903723,7.395321413212592,1.509205092687364,2547,86,840,1277,52.44656803607649,30.27780630934729,0.0004174831383993,False
0.45,1.040547934383324,1.6,1795.0,18.11628,0.3,68900.0,0.33,276.0,2700.0,34.38615865028041,7.546033942607516,20374.29164504029,24.066840954481023,10.16171550292009,10.319317695799384,2.6156815603125745,3408,102,1098,1729,42.45789566344272,24.1684493607551,0.0004850252119042,False
0.46,0.9058045383990372,1.6,1796.0,18.11628,0.2,68900.0,0.33,276.0,2700.0,26.395797313905664,5.867173340511761,15841.368019381754,19.416619584493503,7.237284601006062,6.979177729412161,1.3701112604943004,7475,126,1874,4192,40.8013823040972,23.31379994032973,0.0003967507267071,False
0.4700000000000001,1.1634806946457823,1.6,1797.0,18.11628,0.3,68900.0,0.33,276.0,2700.0,41.72251075074719,9.587343643709824,25885.827838016525,28.707520333955497,13.40167345252932,13.014990416791694,3.8143298088194975,4294,114,1366,2191,45.37599778127914,25.796638589851412,0.000558896061973,False
0.4800000000000001,1.0248446177140391,1.6,1798.0,18.11628,0.3,68900.0,0.33,276.0,2700.0,32.709176173676056,7.618578938518261,20570.163133999304,23.5014024484174,9.788234018365252,9.207773725258654,2.1696550798469927,3313,98,1044,1697,42.87220331763395,24.35397324723041,0.0004475142230725,False
0.49,1.101973234025743,1.6,1799.0,18.11628,0.3,68900.0,0.33,276.0,2700.0,37.19662568576551,8.866769803611092,23940.27846974995,26.33815268332034,11.709301020983863,10.85847300244517,2.8425312173727733,3980,106,1206,2079,43.46304561196739,24.923068055196502,0.0004893611071085,False
0.5,0.9686082240570704,1.6,1800.0,18.11628,0.3,68900.0,0.33,276.0,2700.0,28.997763726685506,6.987641543872073,18866.632168454595,21.527304621228502,8.52248045694609,7.470459105457003,1.534838913074017,3304,92,960,1752,40.708970112228975,23.24369948721989,0.0004030878674852,False
0.02,0.3877335639956472,1.6,1802.0,21.13566,0.08,68900.0,0.33,276.0,2700.0,11.183303211850555,0.1118162769576869,301.9039477857547,5.787117370013192,0.9998458061356666,5.396185841837363,0.8880295291779797,14072,192,4642,7103,430.4150647815821,245.59163766094417,0.0025553617634359,True
0.03,0.4900122218791183,1.6,1803.0,21.13566,0.1,68900.0,0.33,276.0,2700.0,15.227208823492315,0.2283515836846189,616.5492759484712,7.943476247912963,1.6997782951418223,7.283732575579354,1.4714267114572035,12160,184,4010,6139,370.77389002182827,211.6532076909052,0.0024818531568297,True
0.04,0.5544893876533179,1.6,1804.0,21.13566,0.1,68900.0,0.33,276.0,2700.0,17.93649387878836,0.358595836289216,968.2087579808832,9.437972538611673,2.259570167344824,8.49852134017669,1.900974331055608,14304,204,4696,7254,323.43150453273734,184.40717279248773,0.0022908720572919,True
0.05,0.7128113003787613,1.6,1805.0,21.13566,0.2,68900.0,0.33,276.0,2700.0,25.734882130315057,0.6431102538700748,1736.397685449202,13.5509330631099,4.071082376710927,12.183949067205155,3.427972122840852,5180,128,1708,2612,288.7906155689425,166.73311982917198,0.0028647348352858,True
0.06,0.368971423925308,1.6,1806.0,21.13566,0.1,68900.0,0.33,276.0,2700.0,9.725837171259144,0.2913227257956568,786.5713596482734,5.420089912817541,0.8947240423778205,4.305747258441603,0.6034013165821637,8064,142,2640,4098,131.36890654414574,75.56522543175421,0.0008635771749586,False
0.0699999999999999,0.4177970853132877,1.6,1807.0,21.13566,0.2,68900.0,0.33,276.0,2700.0,11.410170942987126,0.3986376054844288,1076.3215348079575,6.393669751785646,1.1828875741531248,5.016501191201479,0.7842499686686961,2539,80,834,1282,133.2149930698607,76.8688472696732,0.0008803536933751,False
0.08,0.5898737810580106,1.6,1808.0,21.13566,0.2,68900.0,0.33,276.0,2700.0,18.69524591547093,0.7467375063264121,2016.1912670813128,10.302540235306475,2.6087304139050818,8.392705680164458,1.8619929075786696,4023,106,1312,2049,156.37689470100435,90.27660254536184,0.0012593133232142,False
0.09,0.5678256044747321,1.6,1809.0,21.13566,0.2,68900.0,0.33,276.0,2700.0,17.432875983591774,0.7829526052319862,2113.972034126363,9.760129162038345,2.38758022305086,7.67274682155343,1.6046276178188736,3855,102,1266,1950,134.22145195954212,77.4837838582773,0.0010533661997738,False
0.0999999999999999,0.5168832214756702,1.6,1810.0,21.13566,0.2,68900.0,0.33,276.0,2700.0,14.928509492364826,0.7443310795158486,2009.6939146927916,8.553612330225702,1.921384289487021,6.374897162139124,1.1770532099711724,3494,96,1146,1769,112.4027776537842,64.88576746739611,0.0008380423774874,False
0.11,0.6505642534674259,1.6,1811.0,21.13566,0.3,68900.0,0.33,276.0,2700.0,20.96505874280022,1.150290590972726,3105.78459562636,11.858698603142852,3.280750253165931,9.106360139657369,2.1304596621932053,2203,78,728,1105,127.3786822979946,73.54200695111186,0.0010735343441855,False
0.12,0.4612805913410499,1.6,1812.0,21.13566,0.2,68900.0,0.33,276.0,2700.0,12.205730507017932,0.7287247156841403,1967.556732347179,7.311167918735108,1.4806825702270403,4.894562588282825,0.7519578545429,2644,82,872,1330,86.47714351762929,49.92444082837438,0.0006082037082165,False
0.13,0.6645584975978442,1.6,1813.0,21.13566,0.3,68900.0,0.33,276.0,2700.0,21.195501031548048,1.373106181010665,3707.386688728796,12.230657444875076,3.4493006779715025,8.964843586672972,2.076194496960837,2213,78,724,1121,112.6883867565372,65.05445843003824,0.0009356030011137,False
0.14,0.5971712872365272,1.6,1814.0,21.13566,0.2,68900.0,0.33,276.0,2700.0,17.70718727772185,1.2337560892795625,3331.141441054818,10.484758561437856,2.684577320686462,7.222428716283993,1.4508212314068991,3813,102,1246,1938,92.02552300410709,53.0650892788658,0.0007474599347526,False
0.15,0.7257082674938458,1.6,1815.0,21.13566,0.3,68900.0,0.33,276.0,2700.0,23.866374362789763,1.782909493738657,4813.855633094374,13.913725605929718,4.248183283707203,9.952648756860045,2.465273789968545,2580,86,844,1308,105.11315580937628,60.63436758501554,0.0009454862821923,False
0.16,0.5691238086889735,1.6,1816.0,21.13566,0.3,68900.0,0.33,276.0,2700.0,16.00807702993728,1.2720675200555809,3434.5823041500685,9.791728003294436,2.400271370152657,6.216349026642844,1.1282038500970757,1698,66,558,855,83.04785066563697,47.90552377306905,0.0007050734384863,False
0.17,0.599427097648129,1.6,1817.0,21.13566,0.3,68900.0,0.33,276.0,2700.0,17.17576353298904,1.4496501371660109,3914.055370348229,10.541356834000585,2.7082927616569794,6.6344066989884585,1.2586426244909683,1827,70,602,918,78.3474044218515,45.225498958476166,0.0006263931170079,False
0.18,0.842150688157943,1.6,1818.0,21.13566,0.3,68900.0,0.33,276.0,2700.0,29.544824317371376,2.6468196763262672,7146.413126080922,17.378515617862387,6.066748760840541,12.166308699508988,3.419929084514274,2974,94,976,1504,100.5493587036153,57.752073060351215,0.001040094561413,False
0.19,0.6145287949408527,1.6,1819.0,21.13566,0.3,68900.0,0.33,276.0,2700.0,17.45615162764607,1.6439689486190625,4438.716161271468,10.923552343105383,2.8703638287296345,6.532599284540684,1.2263948801105722,1866,70,614,939,72.76330397948671,41.97014818291255,0.0005850974109878,False
0.2,0.8303453871467231,1.6,1820.0,21.13566,0.3,68900.0,0.33,276.0,2700.0,28.34170707705277,2.817415546886132,7607.021976592556,17.01172134994979,5.863758657012394,11.329985727102985,3.0463431101262617,2980,94,974,1513,89.32300956735195,51.37168545289297,0.000900726325192,False
0.21,0.6109938391898608,1.6,1821.0,21.13566,0.3,68900.0,0.33,276.0,2700.0,16.88542808908073,1.7535737563102125,4734.649142037573,10.833575459633408,2.831908679218617,6.051852629447323,1.078334922908405,1889,70,622,950,65.66463183965313,37.893176104281785,0.000530451344554,False
0.22,0.5881726891922392,1.6,1822.0,21.13566,0.3,68900.0,0.33,276.0,2700.0,15.664917719415188,1.700839830085357,4592.267541230465,10.260256424383236,2.5912408211473474,5.404661295031952,0.8904009910619901,1690,66,560,844,60.90445894590293,35.1264136518308,0.0004839843436153,False
0.23,0.787189637688082,1.6,1823.0,21.13566,0.3,68900.0,0.33,276.0,2700.0,25.20350545660852,2.8729206222991617,7756.885680207736,15.70066517019896,5.158063213653167,9.502840286409558,2.285142591354005,2525,86,834,1268,74.93828084295338,43.11056138135072,0.0006963115070796,False
0.24,0.6202840512028023,1.6,1824.0,21.13566,0.2,68900.0,0.33,276.0,2700.0,16.711045473874176,1.9763725389694184,5336.205855217429,11.070715467883758,2.9336547532456634,5.640330005990418,0.9572822142762452,3367,96,1112,1693,59.30798671374734,34.19561921338046,0.0004815305889244,False
0.25,0.7648351741824347,1.6,1825.0,21.13566,0.3,68900.0,0.33,276.0,2700.0,23.546417629669545,2.910577280233797,7858.558656631253,15.039947358990572,4.814491659716205,8.506470270678973,1.9039143794824072,2302,82,760,1156,69.93021618473323,40.244015773236,0.000618246136734,False
0.26,0.6032511381995147,1.6,1826.0,21.13566,0.3,68900.0,0.33,276.0,2700.0,15.568917642955522,1.987148205264556,5365.3001542143,10.637594156404544,2.7487872282498835,4.93132348655098,0.7616390229853278,1695,66,560,849,54.1650710165239,31.079913289202494,0.0004321236193596,False
0.27,0.8996065142118155,1.6,1827.0,21.13566,0.2,68900.0,0.33,276.0,2700.0,30.52455197054934,4.079590537223754,11014.894450504136,19.213692796194977,7.117569294434283,11.310859174354364,3.037978757210529,6245,140,2084,3113,71.90773864309264,41.15738708684146,0.0007563180020254,False
0.28,0.8256287458962026,1.6,1828.0,21.13566,0.2,68900.0,0.33,276.0,2700.0,26.09255493413649,3.6069815294913736,9738.85012962671,16.866153154817667,5.783863986592126,9.226401779318827,2.176882457100753,5316,128,1762,2667,64.99965096576035,37.25445623605059,0.0006231878175048,False
0.29,0.5982880749052519,1.6,1829.0,21.13566,0.2,68900.0,0.33,276.0,2700.0,14.806339717274188,2.0958390568524914,5658.765453501726,10.51276277375811,2.696302204219701,4.2935769435160775,0.6004631473672095,3069,90,1016,1535,47.642822926231176,27.359928406964727,0.0003911724091284,False
0.3,0.7096445587753879,1.6,1830.0,21.13566,0.3,68900.0,0.33,276.0,2700.0,19.68943380501684,2.8968664029878286,7821.539288067137,13.462491657595857,4.028310175266468,6.22694214742098,1.1314437722786397,2057,74,678,1034,54.51265791341823,31.32389403843789,0.000475257834504,False
0.31,0.8111684118392543,1.6,1831.0,21.13566,0.3,68900.0,0.33,276.0,2700.0,24.617940106365,3.753386591991181,10134.143798376188,16.423353198431375,5.54318162813088,8.194586907933626,1.7897950361396986,2459,84,810,1238,58.20257931191496,33.360150958109614,0.0005516283110826,False
0.32,1.0084467340302357,1.6,1832.0,21.13566,0.3,68900.0,0.33,276.0,2700.0,35.79453380567449,5.658496270192697,15277.939929520282,22.91756909551252,9.407656804998128,12.876964710161973,3.749160534805431,3568,106,1186,1783,66.74528294677633,37.95334971647151,0.0007805132049892,False
0.33,0.9447701685026376,1.6,1833.0,21.13566,0.3,68900.0,0.33,276.0,2700.0,31.644198440302382,5.146026465855186,13894.271457809004,20.714490848617,8.019027694148907,10.929707591685386,2.8730012282937203,3017,96,1000,1511,62.51490794981191,35.69324317459994,0.0006608716773721,False
0.34,0.9682832033314036,1.6,1834.0,21.13566,0.3,68900.0,0.33,276.0,2700.0,32.79276433488609,5.492451831826157,14829.619945930624,21.516126251011187,8.515485453448585,11.2766380838749,3.023033621622428,3317,102,1098,1664,63.21143817932996,36.0964649761375,0.0006797360373012,False
0.3500000000000001,0.96285716546712,1.6,1835.0,21.13566,0.3,68900.0,0.33,276.0,2700.0,32.21086623270189,5.547104400707721,14977.181881910848,21.329901798714644,8.39924370276796,10.880964433987245,2.8521393020602384,3296,100,1096,1646,59.903480027489465,34.15537303749898,0.0006392381199967,False
0.36,0.8149162710659121,1.6,1836.0,21.13566,0.2,68900.0,0.33,276.0,2700.0,23.71152713924136,4.1703587871661885,11259.968725348708,16.537614479756822,5.604948051289444,7.17391265948454,1.4345892641232556,6298,120,1682,3461,53.82853333099001,30.866058163858373,0.0004951352557348,False
0.37,0.7905576256737789,1.6,1837.0,21.13566,0.3,68900.0,0.33,276.0,2700.0,22.25180371657081,4.010496292443934,10828.33998959862,15.801299483660635,5.211112252878516,6.450504232910172,1.2006159604345823,2307,80,766,1152,48.4240158953031,27.70007123021032,0.0004535561059123,False
0.38,0.7394831945560602,1.6,1838.0,21.13566,0.3,68900.0,0.33,276.0,2700.0,19.54368043210289,3.5983756340410307,9715.614211910784,14.30583214771236,4.442538984325306,5.237848284390532,0.8441633502842749,1996,72,664,994,44.41065266077079,25.413950006194742,0.0004058217047965,False
0.39,0.9274591662434626,1.6,1839.0,21.13566,0.3,68900.0,0.33,276.0,2700.0,29.16626378456313,5.563184014910948,15020.59684025956,20.133183511852543,7.665481467468815,9.033080272710592,2.102297452557868,2803,92,932,1399,53.20433455673667,30.279656860078997,0.000544991641246,False
0.4,0.9189240193617908,1.6,1840.0,21.13566,0.3,68900.0,0.33,276.0,2700.0,28.45003589869375,5.555965893185579,15001.107911601064,19.84934351599033,7.494854399269032,8.600692382703414,1.9388885060834529,2694,90,900,1338,50.96257744063711,28.94040744985506,0.0005228226194955,False
0.4100000000000001,0.94814622771644,1.6,1841.0,21.13566,0.3,68900.0,0.33,276.0,2700.0,29.878011322738587,5.980644516309172,16147.740194034764,20.828737318564663,8.08915381267018,9.04927400417392,2.1085092963610075,2812,92,936,1402,51.38107163976227,29.20858499453384,0.0005377883391131,False
0.42,1.002439386341227,1.6,1842.0,21.13566,0.3,68900.0,0.33,276.0,2700.0,32.823653848910176,6.737797763925031,18192.053962597583,22.7053737353027,9.270620818961286,10.118280113607476,2.5328230550362543,3259,100,1074,1636,51.9173012533613,29.42885026741413,0.0005696096653882,False
0.43,1.1281854512638794,1.6,1843.0,21.13566,0.3,68900.0,0.33,276.0,2700.0,40.48082951419855,8.536859274146401,23049.52004019528,27.336264035464826,12.412726036722397,13.144565478733725,3.875866762575996,3790,110,1260,1894,142.2669550460221,79.33116610511283,0.0007062370541489,False
0.44,0.8518724053875386,1.6,1844.0,21.13566,0.3,68900.0,0.33,276.0,2700.0,23.955540242313777,5.091809900906772,13747.886732448284,17.683202193202128,6.237176889546538,6.272338049111649,1.1453669886397655,2590,82,814,1329,43.85905962062676,24.969699534020958,0.0004350605438911,False
0.45,0.9990421222978656,1.6,1845.0,21.13566,0.3,68900.0,0.33,276.0,2700.0,31.89344622986573,6.985173648014212,18859.96884963837,22.585774906481564,9.193687905699187,9.30767132338417,2.208514257684976,2975,96,994,1476,48.88498380009219,27.70273164447171,0.0005327684108695,False
0.46,0.7666838533806175,1.6,1846.0,21.13566,0.2,68900.0,0.33,276.0,2700.0,19.359163497402854,4.248747562716112,11471.6184193335,15.094111315732205,4.842345750198054,4.265052181670651,0.593598187481942,5458,106,1368,3058,43.22817638863228,24.78179286215651,0.000372433805456,False
0.4700000000000001,1.1028687169198896,1.6,1847.0,21.13566,0.3,68900.0,0.33,276.0,2700.0,37.767374462920095,8.657886616070453,23376.293863390223,26.371966079428717,11.732901524330163,11.395408383491382,3.0750149082597105,3861,108,1224,1973,52.23129632052701,29.664814763657706,0.0005903302648692,False
0.4800000000000001,0.9142343632189184,1.6,1848.0,21.13566,0.3,68900.0,0.33,276.0,2700.0,26.42907462856941,6.11135456769279,16500.657332770534,19.69416633903145,7.402131883331717,6.734908289537959,1.2907773156389268,3142,88,908,1676,48.0161713784197,27.5700303545126,0.0004498670945952,False
0.49,1.0176654611517717,1.6,1849.0,21.13566,0.3,68900.0,0.33,276.0,2700.0,32.04849963201005,7.605478920441003,20534.793085190708,23.244962723835894,9.620435056179154,8.803536908174156,2.014956135738151,3356,98,1042,1731,48.78833783276625,27.835099526062308,0.0005085310931266,False
0.5,1.1428688083306324,1.6,1850.0,21.13566,0.3,68900.0,0.33,276.0,2700.0,39.55917987782598,9.627995581656762,25995.58807047326,27.902924239526527,12.818267769158371,11.656255638299456,3.190272187501609,4033,108,1224,2103,51.08587997566252,29.12565731832097,0.0005904328162919,False
0.02,0.5622313582583585,1.6,1852.0,24.15504,0.1,68900.0,0.33,276.0,2700.0,18.770251055773585,0.1876857553969161,506.7515395716737,9.624447371056574,2.3333595427644496,9.145803684717013,2.1456737873675333,14806,210,4904,7444,640.3478591965932,364.4943262563128,0.0054041497364155,True
0.03,0.4953882909419741,1.6,1853.0,24.15504,0.1,68900.0,0.33,276.0,2700.0,15.464390382709096,0.2319093070728715,626.1551290967531,8.06409375781012,1.7428068706547934,7.400296624898976,1.510897563581922,12640,188,4148,6412,405.8376194163197,231.41408756181508,0.0028910795135907,True
0.04,0.6141303533260696,1.6,1854.0,24.15504,0.1,68900.0,0.33,276.0,2700.0,20.827380998797658,0.4164135786894001,1124.3166624613802,10.913394917753998,2.8660134545978395,9.91398608104366,2.449599875908439,16790,224,5516,8510,419.0309706434233,239.0346976361519,0.0031314615276934,True
0.05,0.6586544731039351,1.6,1855.0,24.15504,0.2,68900.0,0.33,276.0,2700.0,22.84733485765251,0.570921572053388,1541.4882445441476,12.073131688636828,3.377556025827608,10.77420316901568,2.80663445377422,4807,120,1588,2419,320.6988632008465,183.4911721694893,0.0028323053987522,True
0.06,0.7300646260286054,1.6,1856.0,24.15504,0.2,68900.0,0.33,276.0,2700.0,26.415571166585465,0.7920147456554482,2138.43981326971,14.037214770718048,4.30906526938661,12.378356395867415,3.5170505237311622,5344,130,1760,2698,291.60919053692214,166.4645301133547,0.0028355845346286,True
0.08,0.6342934509358493,1.6,1858.0,24.15504,0.2,68900.0,0.33,276.0,2700.0,20.865691016446917,0.8335553103654529,2250.5993379867227,11.43241830853466,3.0912766928019564,9.433272707912252,2.2577213824365034,4296,112,1408,2178,195.37313872081955,111.8792145000092,0.0016385387690308,False
0.09,0.6828899197571849,1.6,1859.0,24.15504,0.2,68900.0,0.33,276.0,2700.0,23.10303324987677,1.03810968221481,2802.8961419799866,12.72534246991025,3.6780272611901994,10.37769077996652,2.6399175789753886,4694,120,1552,2360,185.62112547144923,106.40516271546866,0.0016490497072729,False
0.0999999999999999,0.7703796547740167,1.6,1860.0,24.15504,0.3,68900.0,0.33,276.0,2700.0,27.589481030387063,1.377379656416957,3718.925072325784,15.202651112261336,4.898331052869829,12.386829918125729,3.5209513964528725,2863,94,940,1447,184.30278353503715,106.4031479605754,0.0018491606032121,False
0.11,0.7638517967515844,1.6,1861.0,24.15504,0.3,68900.0,0.33,276.0,2700.0,26.95680790862816,1.4798367950932618,3995.559346751807,15.01117064409571,4.799715866099858,11.945637264532447,3.3198790710065955,2725,88,890,1384,167.17951945672428,96.40255419206017,0.0016540599173624,False
0.12,0.7564401331142254,1.6,1862.0,24.15504,0.3,68900.0,0.33,276.0,2700.0,26.28334238791972,1.5733814285382437,4248.129857053257,14.795063962260333,4.689259826219162,11.488278425659384,3.115878397680919,2675,88,868,1367,156.14537828593103,90.11226215634971,0.0014773676408369,False
0.13,0.7119466818932607,1.6,1863.0,24.15504,0.3,68900.0,0.33,276.0,2700.0,23.63287841294112,1.531535710801141,4135.14641916308,13.526760808829255,4.059376440731564,10.106117604111866,2.527840729930422,2505,84,818,1272,134.6797400353632,77.74632639568252,0.0012194417374591,False
0.14,0.6091291250503474,1.6,1864.0,24.15504,0.3,68900.0,0.33,276.0,2700.0,18.268072593840667,1.2730180614078783,3437.148765801272,10.786238546537346,2.811751306363002,7.481834047303321,1.5387332449551236,1947,72,638,984,110.42754891060478,63.74501204457648,0.0008789310692089,False
0.15,0.6113754464169856,1.6,1865.0,24.15504,0.3,68900.0,0.33,276.0,2700.0,18.15649486263169,1.354668531226801,3657.6050343123625,10.843273565395126,2.8360447002268523,7.313221297236559,1.481376169000051,1962,72,642,993,106.92305602613264,61.64453091447668,0.0012481103565638,False
0.16,0.6305917367109464,1.6,1866.0,24.15504,0.3,68900.0,0.33,276.0,2700.0,18.85017544117585,1.499435392954616,4048.475560977464,11.33636581122101,3.0491350330070013,7.51380962995484,1.5496996400523853,2021,74,660,1025,100.59966249600988,57.86805863031544,0.0008128347643305,False
0.17,0.4722606068369656,1.6,1867.0,24.15504,0.2,68900.0,0.33,276.0,2700.0,11.73709729663027,0.9873635070755156,2665.8814691038924,7.550360102766899,1.562269701737639,4.18673719386337,0.5749061946621233,2580,80,846,1305,70.87091612762741,40.91471658355201,0.000522467552765,False
0.18,0.735035766682808,1.6,1868.0,24.15504,0.3,68900.0,0.33,276.0,2700.0,23.629797111697805,2.114467227815646,5709.061515102245,14.178713770740387,4.379197686828583,9.451083340957418,2.2647304590129367,2398,82,788,1210,101.26873569359874,58.40551990263831,0.0009099521393892,False
0.19,0.6579755226016926,1.6,1869.0,24.15504,0.3,68900.0,0.33,276.0,2700.0,19.51172466397713,1.8392483870705127,4965.970645090384,12.05507272080669,3.369365098232073,7.45665194317044,1.53011671116156,2065,74,674,1048,87.87454465887674,50.69826403531873,0.0007360642934866,False
0.2,0.8711009299800765,1.6,1870.0,24.15504,0.3,68900.0,0.33,276.0,2700.0,30.699075114366373,3.053152350617491,8243.511346667225,18.292835219773256,6.583045059553484,12.406239894593115,3.5298927089359933,3162,98,1038,1599,105.84749463413442,60.73843178929805,0.0011343863468399,False
0.21,0.6673427945454549,1.6,1871.0,24.15504,0.2,68900.0,0.33,276.0,2700.0,19.531373367771423,2.0313980105727376,5484.774628546392,12.305249488892136,3.483458258155818,7.226123878879287,1.4520602475830806,4066,108,1340,2050,81.01745008629325,46.71904777973295,0.000684234593658,False
0.22,0.6390729454154027,1.6,1872.0,24.15504,0.3,68900.0,0.33,276.0,2700.0,17.976860134089044,1.9551534956995136,5278.914438388687,11.556946558214852,3.1462152353697217,6.419913575874192,1.191061739670208,1929,72,632,975,75.98829054455508,43.82375584223597,0.0006195628325297,False
0.23,0.7537798962577484,1.6,1873.0,24.15504,0.3,68900.0,0.33,276.0,2700.0,23.43096996569141,2.669079040843466,7206.513410277358,14.717834410363322,4.650004215653088,8.713135555328092,1.9809251748096224,2296,80,756,1156,82.47985429589203,47.40403272232937,0.0007473867912194,False
0.24,0.579471424497098,1.6,1874.0,24.15504,0.3,68900.0,0.33,276.0,2700.0,14.906005883452137,1.7597677881187748,4751.373027920692,10.045107690369692,2.5029010269671925,4.860898193082445,0.7431332388484178,1735,66,570,874,63.50959451093626,36.58663210933895,0.0005029388439761,False
0.25,0.5876103183495773,1.6,1875.0,24.15504,0.3,68900.0,0.33,276.0,2700.0,15.072646810018052,1.8513559277773308,4998.661004998793,10.246293644046776,2.585474678598513,4.826353165971279,0.7341187508211822,1664,66,550,833,62.394630046697,35.92282056881973,0.0004940405553376,False
0.26,0.7182795078729476,1.6,1876.0,24.15504,0.3,68900.0,0.33,276.0,2700.0,20.95056225053043,2.6867620042492937,7254.257411473093,13.704243632557285,4.145600514995073,7.246318617973149,1.4588385107457795,2194,78,722,1105,71.25737338686122,40.930123955344776,0.0006245333806025,False
0.27,0.8833794328707543,1.6,1877.0,24.15504,0.3,68900.0,0.33,276.0,2700.0,29.58124451493688,3.9522440307160753,10671.058882933405,18.686981878496045,6.810069578130767,10.894262636440835,2.8578255474146914,2941,94,968,1483,80.95553952593788,46.35778573621787,0.0008338867082272,False
0.28,0.7599821135700575,1.6,1878.0,24.15504,0.3,68900.0,0.33,276.0,2700.0,22.61855006245791,3.1206208474562933,8425.676288131992,14.898167543787842,4.741846155984839,7.720382518670068,1.6212253085285455,2336,80,766,1181,69.76362536121529,40.06599547849371,0.0006331233937176,False
0.29,0.7109403671617534,1.6,1879.0,24.15504,0.3,68900.0,0.33,276.0,2700.0,19.95705009184899,2.8426920611658386,7675.268565147764,13.498650793010675,4.045778407955787,6.458399298838314,1.2030863467899482,2057,74,678,1034,64.23074089663963,36.83675072865523,0.0005611956131507,False
0.3,0.7511842708833272,1.6,1880.0,24.15504,0.3,68900.0,0.33,276.0,2700.0,21.736552505687893,3.2039342080885422,8650.622361839063,14.642652033199983,4.6118998404688565,7.093900472487908,1.4079656323803142,2261,78,744,1139,65.23210583403161,37.345209984300986,0.0005848107132077,False
0.31,0.6852680598964109,1.6,1881.0,24.15504,0.3,68900.0,0.33,276.0,2700.0,18.332416174903635,2.7791303826146683,7503.652033059604,12.79013698297316,3.7083669259504815,5.542279191930474,0.9292365433358132,1893,70,630,942,58.80224947259413,33.73600078591277,0.0005013971177755,False
0.32,0.7220543858921009,1.6,1882.0,24.15504,0.3,68900.0,0.33,276.0,2700.0,19.883734078115864,3.112768313783317,8404.474447214956,13.810517267630686,4.197532835397879,6.073216810485178,1.0847645216145616,2140,76,706,1075,59.760225478274826,34.29591296370914,0.0005223821056583,False
0.33,0.6653753614704235,1.6,1883.0,24.15504,0.3,68900.0,0.33,276.0,2700.0,17.037505172593452,2.735922076683215,7386.98960704468,12.252521246107458,3.459300388909202,4.784983926485994,0.7233783122259871,1782,68,590,891,54.531744894616885,31.33494227871791,0.0004590396907446,False
0.34,0.6859313971573556,1.6,1884.0,24.15504,0.2,68900.0,0.33,276.0,2700.0,17.789716374437027,2.9419336785499643,7943.220932084903,12.80823554118112,3.7168571024966366,4.981480833255906,0.7749234239466722,4036,100,1224,2104,57.77209413887884,33.26800628482781,0.0004698727726026,False
0.3500000000000001,0.7978185360623375,1.6,1885.0,24.15504,0.1,68900.0,0.33,276.0,2700.0,23.041263812544624,3.942423977180149,10644.544738386405,16.019222784660762,5.326634431495381,7.022041027883862,1.384210454315232,33775,234,6244,20801,61.96336166572203,35.62155456179947,0.0005655519472161,False
0.36,0.9587376058907447,1.6,1886.0,24.15504,0.3,68900.0,0.33,276.0,2700.0,31.71305443683203,5.610633700732505,15148.710991977763,21.18901051899001,8.311664252983801,10.524043917842022,2.7010305522512965,3299,100,1096,1649,65.93293867010311,37.57847895138679,0.0007022134099219,False
0.37,0.6927697411787632,1.6,1887.0,24.15504,0.3,68900.0,0.33,276.0,2700.0,17.54946191263642,3.1405630587162165,8479.520258533785,12.99545822637491,3.8050837002513394,4.554003686261511,0.6645206415351228,1858,68,618,925,51.19562147673599,29.380142410396573,0.0004381923143192,False
0.38,0.6909090738921372,1.6,1888.0,24.15504,0.2,68900.0,0.33,276.0,2700.0,17.28472006110654,3.169173163551723,8556.767541589652,12.944399809252992,3.780950991109672,4.340320251853548,0.6117778275579484,4737,98,1214,2632,53.54275267979149,30.86127706445828,0.000436452729285,False
0.39,0.7655973905703222,1.6,1889.0,24.15504,0.3,68900.0,0.33,276.0,2700.0,20.610966361463383,3.894901017406499,10516.232746997546,15.062268926353962,4.825963860070961,5.548697435109421,0.931062842664462,2047,74,680,1021,51.600903475706055,29.470083283894027,0.0004750947156282,False
0.4,0.84399938272517,1.6,1890.0,24.15504,0.3,68900.0,0.33,276.0,2700.0,24.37711810359544,4.741382334165927,12801.732302248,17.436272317592397,6.098929702265387,6.940845786003038,1.3575473680994603,2562,84,846,1287,54.983580169893074,31.37207836809322,0.0005330606845852,False
0.4100000000000001,0.8408708445675819,1.6,1891.0,24.15504,0.3,68900.0,0.33,276.0,2700.0,24.00311012831595,4.776289771452731,12895.982382922375,17.338581210150625,6.044532538305558,6.664528918165324,1.2682427668528264,2570,84,844,1294,53.33808993593606,30.43557508261452,0.0005193488936704,False
0.42,0.7923054270216554,1.6,1892.0,24.15504,0.2,68900.0,0.33,276.0,2700.0,21.33829928149889,4.325873304768661,11679.857922875384,15.85363554277864,5.2387755107490905,5.484663738720251,0.91290220598043,5650,110,1410,3167,53.74463370268575,30.89543974239293,0.0004793720986179,False
0.43,0.9747640951955646,1.6,1893.0,24.15504,0.3,68900.0,0.33,276.0,2700.0,30.94538523491168,6.486738754100036,17514.194636070097,21.739523559001228,8.655652477799213,9.205861675910448,2.168913723699178,3004,96,1008,1486,56.57117389924013,32.070605276180274,0.0006128516954345,False
0.44,0.7551853075005821,1.6,1894.0,24.15504,0.3,68900.0,0.33,276.0,2700.0,19.175566766391213,4.0402157362038045,10908.582487750273,14.758612856744142,4.670717475032424,4.416953909647072,0.6305017388286194,1973,70,648,993,45.70002638181317,26.119154306132828,0.0004245594534146,False
0.45,0.9712917944985148,1.6,1895.0,24.15504,0.3,68900.0,0.33,276.0,2700.0,30.27514834871546,6.6210566247554015,17876.852886839584,21.61970155919796,8.580374431680509,8.655446789517502,1.959317806925108,2921,94,974,1448,54.50716198577191,30.84167438982945,0.0005819898710998,False
0.46,0.8934091661211101,1.6,1896.0,24.15504,0.3,68900.0,0.33,276.0,2700.0,25.729368744753145,5.713894769606682,15427.515877938042,19.011753472621447,6.999121594721842,6.717615272131695,1.28522682511516,2739,86,852,1413,55.44257196490118,31.86152306927034,0.0005142752361176,False
0.4700000000000001,1.0422032032102786,1.6,1897.0,24.15504,0.3,68900.0,0.33,276.0,2700.0,33.99365542948151,7.77106264321239,20981.869136673453,24.12680425818025,10.201602212710304,9.866851171301256,2.430539569497914,3148,98,1050,1563,55.79743146972724,31.60752964478692,0.0006222476208332,False
0.4800000000000001,1.0597917992791066,1.6,1898.0,24.15504,0.3,68900.0,0.33,276.0,2700.0,34.82121275463202,8.125467717947824,21938.762838459126,24.768217171922704,10.631588207573596,10.052995582709318,2.5061204896257703,3883,104,1158,2042,58.19905646046438,33.09725659648067,0.0006298933313019,False
0.49,1.1832317219152189,1.6,1899.0,24.15504,0.3,68900.0,0.33,276.0,2700.0,42.4966792407801,10.16528292458934,27446.26389639122,29.48853035527446,13.97637320741657,13.008148885505644,3.811090282827229,4393,114,1356,2275,60.20536184068084,34.21811973303318,0.0007331555398235,False
0.5,0.9254570424829864,1.6,1900.0,24.15504,0.2,68900.0,0.33,276.0,2700.0,26.61828353304057,6.392771495460999,17260.483037744696,20.066437654352203,7.625239175927908,6.551845878688372,1.2324676804669092,7501,128,1844,4235,52.3115863239894,29.88077595921132,0.0005084487677612,False
0.02,0.6748039095985818,1.6,1902.0,27.17442,0.1,68900.0,0.33,276.0,2700.0,24.4769618078178,0.2447528629172866,660.832729876674,12.506095315101508,3.5760175373575493,11.97086649271629,3.3312646744402628,19628,246,6512,9854,899.3262835227818,511.9934366404667,0.0083991994639503,True
0.03,0.7127148680270741,1.6,1903.0,27.17442,0.1,68900.0,0.33,276.0,2700.0,26.26881480857812,0.3939756734609055,1063.734318344445,13.548236160104672,4.069775758404324,12.720578648473444,3.6758000849434183,20462,254,6774,10295,694.3808884210545,395.2568353497366,0.0061611027782451,True
0.04,0.4876289422640059,1.6,1904.0,27.17442,0.1,68900.0,0.33,276.0,2700.0,14.908238975943291,0.2980307382323127,804.6829932272444,7.890237361741004,1.680910240055108,7.018001614202287,1.3828795018227953,12186,184,3994,6189,357.9382605537775,204.56520139444584,0.0023684917832336,True
0.05,0.5252126338180731,1.6,1905.0,27.17442,0.1,68900.0,0.33,276.0,2700.0,16.36161022557206,0.4087784562514949,1103.7018318790365,8.746425392200335,1.9934326530274764,7.6151848333717265,1.5846541967759815,13062,192,4298,6609,303.9935817857962,173.73683643409973,0.0021418608388968,True
0.06,0.5161286358168,1.6,1906.0,27.17442,0.2,68900.0,0.33,276.0,2700.0,15.736211444040174,0.4716339539789629,1273.4116757432,8.53623097300014,1.914936415052448,7.199980471040034,1.443302461073485,3617,98,1188,1829,231.0888901548496,133.40936623136366,0.0017301330477405,False
0.0699999999999999,0.3881330860639729,1.6,1907.0,27.17442,0.1,68900.0,0.33,276.0,2700.0,10.265077223229328,0.3585593252929053,968.1101782908444,5.79502907531378,1.0021594675538497,4.4700481479155485,0.6436001422609443,8298,146,2728,4200,147.63353148570994,85.23580461629008,0.001027100615971,False
0.08,0.5549182324096124,1.6,1908.0,27.17442,0.2,68900.0,0.33,276.0,2700.0,17.056972502667808,0.6812065698142854,1839.2577384985707,9.44826237855739,2.26361979858483,7.608710124110418,1.5824132287705446,3658,100,1200,1852,190.12670359412377,109.7685841202938,0.0015154518654081,False
0.09,0.5693331422098681,1.6,1909.0,27.17442,0.2,68900.0,0.33,276.0,2700.0,17.502862160817973,0.7861019832071644,2122.475354659344,9.79682723566198,2.4023216407521497,7.706034925155993,1.6162196575449852,3859,102,1266,1954,174.70976042189946,100.39069565714912,0.001358570791875,False
0.0999999999999999,0.5622941364455931,1.6,1910.0,27.17442,0.2,68900.0,0.33,276.0,2700.0,16.959085989642084,0.845859904379704,2283.821741825201,9.62596561760924,2.333963795779406,7.333120372032845,1.4881038913997022,3719,100,1222,1880,154.93416199496593,89.40964261184598,0.0012102552151674,False
0.11,0.4914323995642,1.6,1911.0,27.17442,0.2,68900.0,0.33,276.0,2700.0,13.638135228446034,0.7473097976832466,2017.7364537447656,7.975268762168981,1.7110820123616255,5.662866466277053,0.9637722146783791,2902,86,950,1471,126.7335567781588,73.15556879985273,0.0009209541167293,False
0.12,0.5125418992730261,1.6,1912.0,27.17442,0.2,68900.0,0.33,276.0,2700.0,14.336411522872227,0.8565655766353419,2312.7270569154234,8.453808657900298,1.884467113680864,5.882602864971931,1.0279015370455218,3379,94,1104,1717,119.20692312066984,68.80098007730301,0.0008985535806058,False
0.13,0.7601202195448398,1.6,1913.0,27.17442,0.3,68900.0,0.33,276.0,2700.0,26.226349618394657,1.7001113391556923,4590.300615720369,14.902194060187576,4.743903959972897,11.324155558207082,3.0437926208172046,2694,88,876,1374,162.06507963248654,93.44631745959948,0.0015434727415445,False
0.14,0.6734940223501298,1.6,1914.0,27.17442,0.3,68900.0,0.33,276.0,2700.0,21.41058860862548,1.492994182442816,4031.084292595604,12.470733195493146,3.559659127478304,8.939855413132332,2.0666649450354875,2280,80,748,1152,135.94521141605833,78.46083275532517,0.0011395103385539,False
0.15,0.6577454696969476,1.6,1915.0,27.17442,0.3,68900.0,0.33,276.0,2700.0,20.393049501236504,1.5224101291221603,4110.507348629833,12.0489563193874,3.3665924973092025,8.344093181849104,1.8441823681870424,2139,76,700,1083,125.14384397338424,72.22817432550534,0.0010327459798815,False
0.16,0.5646138912970589,1.6,1916.0,27.17442,0.3,68900.0,0.33,276.0,2700.0,15.807029915811702,1.255983750925534,3391.1561274989417,9.682136719289735,2.3563588016689407,6.124893196521967,1.1003750507434067,1681,66,552,847,102.32670138340724,58.88789360376418,0.0007880997739764,False
0.17,0.4938432819574733,1.6,1917.0,27.17442,0.2,68900.0,0.33,276.0,2700.0,12.602874784183111,1.0609545935175078,2864.577402497271,8.029355548593635,1.7303746164939593,4.573519235589478,0.6694200229764515,2843,84,938,1430,83.00111041023696,47.7104019488405,0.0006223919496113,False
0.18,0.5596093764738167,1.6,1918.0,27.17442,0.2,68900.0,0.33,276.0,2700.0,15.18822993269517,1.3547261817054077,3657.7606906046,9.561125034956104,2.308207469829829,5.627104897739068,0.9534812881244216,3171,92,1052,1587,88.40591105138058,51.00631468513099,0.0006975668091932,False
0.19,0.5257647072189688,1.6,1919.0,27.17442,0.3,68900.0,0.33,276.0,2700.0,13.55144837566975,1.2730221396813113,3437.1597771395404,8.759266656641072,1.9982648661472824,4.792181719028678,0.7252427264659709,1504,62,494,757,80.03148830215183,46.17541155069573,0.0006124385293979,False
0.2,0.5493551410058453,1.6,1920.0,27.17442,0.3,68900.0,0.33,276.0,2700.0,14.360952778532267,1.4193401170340425,3832.2183159919146,9.315138686284412,2.211428901585434,5.045814092247857,0.7920887845513915,1503,62,492,759,81.59988277752988,47.10975364136687,0.0006211997813203,False
0.21,0.8680314201743926,1.6,1921.0,27.17442,0.3,68900.0,0.33,276.0,2700.0,30.25145335556113,3.1570064092906525,8523.917305084762,18.1948942888123,6.527045398367742,12.056559066748829,3.370038989077089,3115,96,1026,1570,114.32358098679067,65.67961341954506,0.0012026173143627,False
0.22,0.8442922840995398,1.6,1922.0,27.17442,0.3,68900.0,0.33,276.0,2700.0,28.6191296015302,3.125803137118017,8439.668470218645,17.445430990705727,6.104038151632638,11.17369861082447,2.978235014514621,2978,94,976,1508,107.26034777131116,61.49613477103154,0.0010801427146789,False
0.23,0.6810542617833616,1.6,1923.0,27.17442,0.3,68900.0,0.33,276.0,2700.0,19.766545014079323,2.247670171408304,6068.709462802421,12.675425561084364,3.654713712956428,7.09111945299496,1.4070435415481244,2095,76,690,1054,85.48296205264354,49.242115239262965,0.000728947104798,False
0.24,0.7219329156254473,1.6,1924.0,27.17442,0.3,68900.0,0.33,276.0,2700.0,21.57066694229308,2.559527115179614,6910.723210984957,13.807091954780429,4.195855476223374,7.763574987512651,1.6363283610437604,2291,80,752,1157,86.85212157148811,49.97620772364871,0.0007607212167958,False
0.25,0.6174528719837238,1.6,1925.0,27.17442,0.3,68900.0,0.33,276.0,2700.0,16.388988391908857,2.015898625513713,5442.926288887024,10.998217582253606,2.902414248455492,5.390770809655251,0.8865156229417792,1733,66,570,872,73.44246048026298,42.17363886097045,0.0005931674174874,False
0.26,0.7690261621837875,1.6,1926.0,27.17442,0.2,68900.0,0.33,276.0,2700.0,23.536193033267047,3.0228940060050533,8161.813816213644,15.162861352957874,4.877781310002833,8.373331680309173,1.85488730399778,4910,120,1630,2459,84.13858211043518,48.35566757298189,0.0007733340092403,False
0.27,0.6119822223932045,1.6,1927.0,27.17442,0.3,68900.0,0.33,276.0,2700.0,15.76634206155974,2.08723219951016,5635.526938677432,10.858701610555158,2.842628818345593,4.907640451004582,0.7553966188354337,1722,66,564,870,67.47807865210268,38.86254831937511,0.0005479899745945,False
0.28,0.6469879408040473,1.6,1928.0,27.17442,0.3,68900.0,0.33,276.0,2700.0,17.146237785905303,2.3544971287390077,6357.14224759532,11.764431942884125,3.2385084985056305,5.381805843021178,0.8840113697666232,1805,68,598,902,69.27296288195633,39.80974303846072,0.0005699049062625,False
0.29,0.641294485161582,1.6,1929.0,27.17442,0.3,68900.0,0.33,276.0,2700.0,16.69740923465913,2.370044136873307,6399.119169557929,11.615023534572105,3.1719539386855637,5.082385700087027,0.8019098018122564,1808,68,596,908,66.11617798235476,38.091838467717,0.0005468269590808,False
0.3,0.953145372325818,1.6,1930.0,27.17442,0.3,68900.0,0.33,276.0,2700.0,32.925368486799265,4.882256605255112,13182.0928341888,20.998435438878737,8.193703593612959,11.926933047920528,3.3114469883578472,3106,98,1020,1570,87.53519330857453,49.98682484965782,0.0009686218649304,False
0.31,0.8497567385680376,1.6,1931.0,27.17442,0.3,68900.0,0.33,276.0,2700.0,26.703972770148493,4.076721654877621,11007.148468169577,17.616693246992302,6.199835500622748,9.087279523156193,2.1231138457451277,2690,88,892,1346,77.85476664259727,44.51754340364887,0.0007587088163595,False
0.32,0.8140746137126667,1.6,1932.0,27.17442,0.2,68900.0,0.33,276.0,2700.0,24.54647709457772,3.858807196417216,10418.779430326484,16.511924067641132,5.591039858968268,8.034553026936585,1.7322326625510525,5224,122,1718,2625,73.71625492029571,42.4181143897691,0.0006952693137509,False
0.33,0.6462130432548276,1.6,1933.0,27.17442,0.3,68900.0,0.33,276.0,2700.0,16.17948937296229,2.5943494697440745,7004.743568309002,11.744049084757815,3.229400167313054,4.435440288204475,0.6350506975689796,1765,66,578,892,59.04498064488787,33.92344055455449,0.0004975334277861,False
0.34,0.9717773782309082,1.6,1934.0,27.17442,0.3,68900.0,0.33,276.0,2700.0,33.00353331958624,5.5282825592252,14926.36290990804,21.636439836265968,8.590876670734584,11.367093483320271,3.062594111509384,3313,102,1098,1660,79.1839620702179,45.00200572226306,0.0008693028972717,False
0.3500000000000001,0.9419999638330678,1.6,1935.0,27.17442,0.3,68900.0,0.33,276.0,2700.0,30.97645330122779,5.3310821376995765,14393.921771788857,20.620960568978315,7.9617739084052,10.355492732249472,2.6306917707056234,2979,96,986,1494,75.28114194063164,42.77707552876393,0.0007900711051566,False
0.36,0.7310749014967947,1.6,1936.0,27.17442,0.3,68900.0,0.33,276.0,2700.0,19.526719137049582,3.417093346771669,9226.152036283507,14.065921058445385,4.323261221580683,5.460798078604197,0.9061678748090136,1997,72,664,995,61.2322269659704,35.09432813006959,0.0005421486005949,False
0.37,1.041377070180721,1.6,1937.0,27.17442,0.3,68900.0,0.33,276.0,2700.0,36.510542852246935,6.648363032544162,17950.580187869236,24.09686838737473,10.181682629501656,12.413674464872203,3.533319596957493,3481,106,1158,1738,77.11671501362439,43.63710763656984,0.0009016064853016,False
0.38,0.6959621205667743,1.6,1938.0,27.17442,0.3,68900.0,0.33,276.0,2700.0,17.514187127684202,3.2127719062014823,8674.484146744002,13.083262756294982,3.846710217776727,4.430924371389221,0.6339383115752448,1860,68,616,930,53.95811126786384,30.81469544508075,0.0004847721248027,False
0.39,0.9501052947809758,1.6,1939.0,27.17442,0.3,68900.0,0.33,276.0,2700.0,30.46825234529027,5.817071784252741,15706.093817482402,20.89516385344741,8.130023757217648,9.57308849184286,2.312951972964907,2772,92,922,1383,69.77621651668436,39.83217974633614,0.0007251821250965,False
0.4,0.8294769744827283,1.6,1940.0,27.17442,0.3,68900.0,0.33,276.0,2700.0,23.620324263443724,4.5900235661355735,12393.063628566048,16.984877811841542,5.8489971197617,6.635446451602181,1.2589735536261264,2431,82,808,1211,60.81233394296188,34.703007676272826,0.0005871283538947,False
0.4100000000000001,0.9472467753023724,1.6,1941.0,27.17442,0.2,68900.0,0.33,276.0,2700.0,29.826348403229044,5.970053617809783,16119.144768086417,20.798271689332115,8.070433057323267,9.02807671389693,2.1003794395134845,7944,136,1972,4474,69.14528591780994,39.526077128746806,0.0006994796315235,False
0.42,0.961062558066544,1.6,1942.0,27.17442,0.3,68900.0,0.33,276.0,2700.0,30.38661543511341,6.226019697027708,16810.25318197481,21.26847277364684,8.361020035742989,9.118142661466567,2.1350003387152805,3134,96,1044,1558,67.11087043266232,38.44500421597363,0.0006839597771016,False
0.43,0.797539783883499,1.6,1943.0,27.17442,0.3,68900.0,0.33,276.0,2700.0,21.40327935456249,4.435185989824961,11975.002172527396,16.01083207636318,5.322170207750218,5.392447278199306,0.8869842179252565,2156,76,720,1070,53.95804022287447,30.820555348849137,0.0005216245306583,False
0.44,0.9472852877215948,1.6,1944.0,27.17442,0.3,68900.0,0.33,276.0,2700.0,29.133172929332336,6.230889092050855,16823.40054853731,20.799575738660764,8.071234074192017,8.333597190671572,1.8403449821411613,2703,90,902,1344,61.07997459326042,34.69780354113576,0.0006432283544113,False
0.45,0.7907690414321282,1.6,1945.0,27.17442,0.2,68900.0,0.33,276.0,2700.0,20.69266151321086,4.464997086766864,12055.492134270531,15.807626022735166,5.214453565336888,4.885035490475696,0.749456478570024,5491,108,1374,3078,57.89447586825703,33.27238162360983,0.0005065994763933,False
0.46,1.03222415449254,1.6,1946.0,27.17442,0.3,68900.0,0.33,276.0,2700.0,33.63371295034443,7.531893936892675,20336.113629610223,23.76634984714063,9.962640234937307,9.8673631032038,2.4307462980446344,3135,98,1050,1552,63.45697345416281,35.99041404907743,0.0007039246131922,False
0.4700000000000001,0.775027883023871,1.6,1947.0,27.17442,0.2,68900.0,0.33,276.0,2700.0,19.57532466742476,4.382754914129051,11833.438268148437,15.339649553689814,4.9693146349157855,4.235675113734942,0.5865597207867346,5497,106,1374,3084,54.96059733392213,31.61693053508044,0.0004782654638991,False
0.4800000000000001,0.8607749194409293,1.6,1948.0,27.17442,0.2,68900.0,0.33,276.0,2700.0,23.614257098307665,5.435798360429975,14676.655573160931,17.964297805891764,6.395851596666432,5.6499592924159,0.9600532362364572,6144,116,1526,3453,58.57869682085164,33.58379217428905,0.0005377390815374,False
0.49,1.0485476575083712,1.6,1949.0,27.17442,0.3,68900.0,0.33,276.0,2700.0,33.89280754202501,8.057334358394671,21754.802767665613,24.35727446999657,10.355404188686707,9.535533072028436,2.2980698302920377,3264,98,1038,1663,64.30209153995946,36.54663037904094,0.0006815877076801,False
0.5,1.1221411904652236,1.6,1950.0,27.17442,0.3,68900.0,0.33,276.0,2700.0,38.222958808138266,9.29394031423542,25093.63884843564,27.10457824065817,12.248199174788494,11.118380567480097,2.954258860553073,4093,108,1218,2152,65.96968846300061,37.45606296815316,0.0007407812437659,False
0.02,0.3557243749016377,1.6,1952.0,30.1938,0.08,68900.0,0.33,276.0,2700.0,9.957713800787737,0.0995603828470581,268.8130336870569,5.1662778778173735,0.8246098445592075,4.791435922970363,0.7250494617121495,12409,178,4082,6280,525.4644302783087,299.880378809296,0.0032669795343971,True
0.03,0.4871944600857814,1.6,1953.0,30.1938,0.1,68900.0,0.33,276.0,2700.0,15.103475004413598,0.2264955763984402,611.5380562757886,7.880547067203665,1.6774841778413905,7.222927937209933,1.45098860144295,12159,184,4008,6141,530.7983620969936,303.0798852859486,0.0035122564966459,True
0.04,0.7296315475520917,1.6,1954.0,30.1938,0.1,68900.0,0.33,276.0,2700.0,26.934310691288182,0.5385521725392101,1454.0908658558672,14.024916996521071,4.30298871691999,12.909393694767113,3.76443654438078,21122,258,6956,10682,632.5603028973917,361.0490556137872,0.0053356802154645,True
0.05,0.4195214212434498,1.6,1955.0,30.1938,0.1,68900.0,0.33,276.0,2700.0,11.859871384384077,0.2962349852218031,799.8344600988684,6.429148224211668,1.1939429862960749,5.430723160172409,0.8977080010742717,9657,160,3170,4896,267.35880761368907,153.05476528369155,0.0017229820594822,False
0.06,0.4949711459087859,1.6,1956.0,30.1938,0.1,68900.0,0.33,276.0,2700.0,14.805071631727554,0.4436997596097096,1197.9893509462158,8.05470869527678,1.739444931614697,6.750362936450774,1.2957451720049873,12043,182,3960,6097,266.0214339866903,152.37094084544978,0.0018126034541747,False
0.0699999999999999,0.6292840366242702,1.6,1957.0,30.1938,0.2,68900.0,0.33,276.0,2700.0,20.855795726224244,0.7292344728977259,1968.93307682386,11.302515782123436,3.034332603979651,9.553279944100808,2.3050981310819254,4366,112,1432,2212,275.0530745794235,157.16726469541973,0.002314376486983,False
0.08,0.4346421279255408,1.6,1958.0,30.1938,0.2,68900.0,0.33,276.0,2700.0,11.88919683634057,0.4744955431611985,1281.137966535236,6.743459816993915,1.2935253169052812,5.145737019346655,0.8190297737440826,2638,82,866,1333,173.75452466763127,100.3140996573201,0.0011687998615047,False
0.09,0.6302278011246338,1.6,1959.0,30.1938,0.2,68900.0,0.33,276.0,2700.0,20.425349142681227,0.917613897391011,2477.5575229557294,11.326940963305823,3.0450110411885216,9.098408179375404,2.1273971437975105,4234,110,1386,2149,208.0563982694796,119.99275024828916,0.0017918034283048,False
0.0999999999999999,0.6761986927173306,1.6,1960.0,30.1938,0.3,68900.0,0.33,276.0,2700.0,22.508474811686806,1.1233293454813724,3032.9892327997054,12.543796715508476,3.5934871149401184,9.96467809617833,2.470157769458746,2450,84,804,1238,207.33786281849493,119.70627716358,0.0018165244497462,False
0.11,0.6086736057974864,1.6,1961.0,30.1938,0.2,68900.0,0.33,276.0,2700.0,18.912848869803028,1.037419047957882,2801.031429486281,10.774688192215695,2.8068405979414486,8.138160677587331,1.7694215499835666,4011,106,1312,2037,168.14521125722115,96.95958048631816,0.001375102708067,False
0.12,0.611633815525912,1.6,1962.0,30.1938,0.3,68900.0,0.33,276.0,2700.0,18.82962361828289,1.1261583023600454,3040.6274163721228,10.849841794948093,2.838847115633477,7.979781823334799,1.7126888132734317,2032,74,664,1030,160.3366627770173,92.570271828438,0.0012736574767365,False
0.13,0.7125565849079225,1.6,1963.0,30.1938,0.3,68900.0,0.33,276.0,2700.0,23.66498407882372,1.5336225790835811,4140.78096352567,13.543809996522354,4.067631651627694,10.121174082301367,2.534009072544112,2508,84,818,1275,167.52914065317657,96.70067924819702,0.0015244715987955,False
0.14,0.8083855447614152,1.6,1964.0,30.1938,0.3,68900.0,0.33,276.0,2700.0,28.671975280416863,2.0012912494682107,5403.486373564169,16.33874009225859,5.497595397858348,12.333235188158277,3.496304148390137,2855,92,938,1442,176.07696310881445,101.38492311887067,0.0017812496113192,False
0.15,0.6197270701961337,1.6,1965.0,30.1938,0.3,68900.0,0.33,276.0,2700.0,18.55133677463414,1.3842816746269848,3737.560521492859,11.05643696134242,2.9274925517901864,7.49489981329172,1.5432108771632016,1950,72,638,987,131.67953421634232,75.78763935499433,0.0010555766976744,False
0.16,0.4908610766026855,1.6,1966.0,30.1938,0.3,68900.0,0.33,276.0,2700.0,12.664279871177335,1.0045637473547848,2712.3221178579192,7.962472864444289,1.706529213879216,4.701807006733047,0.701965466524431,1467,60,480,741,99.21033182055127,57.13037254258587,0.0007254503400982,False
0.17,0.512843310098615,1.6,1967.0,30.1938,0.3,68900.0,0.33,276.0,2700.0,13.3844299329777,1.1273867811650258,3043.9443091455696,8.460722560192863,1.8870162250328864,4.923707372784838,0.7596294438678608,1418,60,466,713,99.14307547215286,57.24028055980745,0.0007255317039245,False
0.18,0.6873624191478884,1.6,1968.0,30.1938,0.3,68900.0,0.33,276.0,2700.0,21.18267340630146,1.8942260943299736,5114.410454690928,12.847317346403043,3.735213926539697,8.335356059898416,1.8409878322097235,2177,78,720,1091,120.08340174894644,69.26258076628629,0.0010276901300459,False
0.19,0.522471042616963,1.6,1969.0,30.1938,0.2,68900.0,0.33,276.0,2700.0,13.414181576790329,1.259981793787766,3401.950843226968,8.682769269288404,1.969540832822824,4.731412307501923,0.7095590390350579,2983,88,986,1498,87.69992251674164,50.3966518675628,0.0006729852016563,False
0.2,0.8748092216456743,1.6,1970.0,30.1938,0.3,68900.0,0.33,276.0,2700.0,30.917712849255743,3.0750161241064315,8302.543535087365,18.411474040701147,6.651100094812336,12.5062388085546,3.5760839707059047,3072,98,1006,1557,133.50465224985746,76.644106145995,0.0014310873280568,False
0.21,0.8687790643295952,1.6,1971.0,30.1938,0.3,68900.0,0.33,276.0,2700.0,30.295174932163352,3.161597174833884,8536.312372051485,18.21872806355722,6.540657613453221,12.076446868606132,3.3790604386193377,3106,96,1024,1564,126.76236655969927,72.64375341691807,0.0013374670790453,False
0.22,0.8746434437350583,1.6,1972.0,30.1938,0.3,68900.0,0.33,276.0,2700.0,30.37277580093198,3.318704219052231,8960.501391441023,18.40616295292881,6.648048319354569,11.96661284800317,3.329344100302338,3024,96,994,1527,121.96765214229558,69.83268680856384,0.0012895801928046,False
0.23,0.8574601683344176,1.6,1973.0,30.1938,0.2,68900.0,0.33,276.0,2700.0,29.114778686121696,3.322717043693176,8971.336017971575,17.859402257170544,6.336478348234867,11.255376428951152,3.013761304541692,5608,134,1852,2824,114.45294839456044,65.71435240156462,0.0011747659408737,False
0.24,0.6836641139939105,1.6,1974.0,30.1938,0.3,68900.0,0.33,276.0,2700.0,19.68015593829316,2.332665794699696,6298.197645689179,12.746420466155913,3.6878873062505,6.933735472137245,1.3552215115508042,2091,76,688,1053,90.88159503797974,52.31518383006097,0.0007843467717257,False
0.25,0.8364589213101876,1.6,1975.0,30.1938,0.3,68900.0,0.33,276.0,2700.0,27.41896450253731,3.3946456393422686,9165.543226224125,17.201233433223575,5.9683392124032215,10.217731069313736,2.573693573060953,2902,92,956,1462,104.32858345534494,59.798448843207446,0.0010219724698537,False
0.26,0.6705650953344577,1.6,1976.0,30.1938,0.3,68900.0,0.33,276.0,2700.0,18.637503407816688,2.3860643546965066,6442.373757680568,12.391818993383088,3.523248879710076,6.245684414433601,1.137184525013569,2053,74,676,1033,84.2450216063072,48.41888044786744,0.0007128568662004,False
0.27,0.6389929232023241,1.6,1977.0,30.1938,0.3,68900.0,0.33,276.0,2700.0,16.97536229986634,2.25044993168155,6076.214815540185,11.554856878477118,3.145290506540405,5.420505421389223,0.894840574858855,1750,68,578,877,76.39850984656111,44.00818616670239,0.0006438447427831,False
0.28,0.801557314576556,1.6,1978.0,30.1938,0.3,68900.0,0.33,276.0,2700.0,24.79354804736128,3.425120565342843,9247.825526425677,16.13195236381944,5.386737383463192,8.661595683541837,1.961616818120349,2447,84,808,1229,91.17726048656036,52.331134888073066,0.0008501822995195,False
0.29,0.9170979844102138,1.6,1979.0,30.1938,0.3,68900.0,0.33,276.0,2700.0,31.034881130786736,4.448977561811571,12012.23941689124,19.788855689241416,7.45866404343828,11.24602544154532,3.009686481626709,3139,98,1034,1582,97.79467255568666,55.76273026595008,0.001038026936767,False
0.3,0.9197097548192026,1.6,1980.0,30.1938,0.3,68900.0,0.33,276.0,2700.0,30.93139016885165,4.583159857563135,12374.531615420465,19.87539697151261,7.510460966821799,11.055993197339031,2.9273011092586643,3039,96,1004,1527,95.06307165242204,54.37132869858936,0.0010003471289757,False
0.31,0.9217016005218706,1.6,1981.0,30.1938,0.3,68900.0,0.33,276.0,2700.0,30.793077509452136,4.710532889469687,12718.438801568154,19.941512214368466,7.550115519998454,10.851565295083674,2.839582630528767,3021,96,998,1518,92.5732899947209,52.92413610387493,0.0009669799792374,False
0.32,1.000808408941401,1.6,1982.0,30.1938,0.3,68900.0,0.33,276.0,2700.0,35.316666398186136,5.5820374849945615,15071.501209485315,22.647919864107788,9.233635729613752,12.668746534078348,3.651598244619191,3360,104,1112,1686,94.31971006875642,53.5948295254897,0.0010989469431011,False
0.33,0.9556668786754275,1.6,1983.0,30.1938,0.3,68900.0,0.33,276.0,2700.0,32.293376278807806,5.2531408092085154,14183.480184862992,21.08426736037749,8.246759461194742,11.209108918430314,2.9936186519862265,3251,100,1072,1637,89.35074105671639,50.82171055666298,0.0009673165950142,False
0.34,0.7688601781288579,1.6,1984.0,30.1938,0.3,68900.0,0.33,276.0,2700.0,21.78057780966892,3.620380122539254,9775.026330855986,15.157984949533754,4.875264921503318,6.622592860135166,1.254884798964064,2221,80,742,1102,72.33946854955144,41.42218392863379,0.0006729051354382,False
0.3500000000000001,0.7387493254863717,1.6,1985.0,30.1938,0.3,68900.0,0.33,276.0,2700.0,20.09206241024974,3.42631373177814,9251.047075800978,14.284822126314635,4.432048086726533,5.807240283935103,1.0057343549483928,2164,76,712,1090,69.82353644956964,40.03007952200266,0.0006229705903592,False
0.36,1.0485544359881185,1.6,1986.0,30.1938,0.3,68900.0,0.33,276.0,2700.0,37.23743236073155,6.605021727034425,17833.55866299295,24.357521247727565,10.355569294814783,12.879911113003988,3.75054756778036,3484,106,1154,1747,87.69096233947414,49.792078525926826,0.0010464644824039,False
0.37,0.8045262867490415,1.6,1987.0,30.1938,0.2,68900.0,0.33,276.0,2700.0,22.96275143260229,4.142021619909899,11183.458373756728,16.221721429338,5.4347659072358,6.741030003264289,1.2927442873259007,6043,118,1578,3346,75.79401918937502,43.50161332541532,0.0006800261577625,False
0.38,1.0363666415295971,1.6,1988.0,30.1938,0.3,68900.0,0.33,276.0,2700.0,35.92800267076502,6.711396859386834,18120.771520344453,23.915677288139836,10.0614011757096,12.012325382625184,3.350004316322765,3435,104,1142,1716,84.09281256461176,47.787389947285526,0.0009606786352709,False
0.39,1.0545969662608785,1.6,1989.0,30.1938,0.3,68900.0,0.33,276.0,2700.0,36.80965200227429,7.053644717364621,19044.84073688448,24.57796529921224,10.503415912173036,12.23168670306205,3.449771194808415,3639,106,1214,1812,82.25214922445414,46.64290341184189,0.0009620991955183,False
0.4,0.9219747290393944,1.6,1990.0,30.1938,0.3,68900.0,0.33,276.0,2700.0,28.621851649195573,5.590329043285585,15093.88841687108,19.95058593061928,7.555563354769852,8.671265718576294,1.9652343114842663,2678,90,894,1331,72.95496757403181,41.563605956636046,0.0007505924425108,False
0.4100000000000001,0.916388968229661,1.6,1991.0,30.1938,0.3,68900.0,0.33,276.0,2700.0,28.078560853935095,5.611757170204654,15151.744359552566,19.765391952276055,7.444641743390869,8.31316890165904,1.832884573186215,2755,90,920,1369,71.26233563244308,40.40972414503685,0.0007275591928372,False
0.42,1.0049693719684245,1.6,1992.0,30.1938,0.3,68900.0,0.33,276.0,2700.0,32.97545836663176,6.769676712646565,18278.127124145725,22.794628943720443,9.328177961452328,10.18082942291132,2.5585012488057624,3497,102,1144,1759,74.17621105772353,42.05623973225974,0.00081628761435,False
0.43,0.974165194936454,1.6,1993.0,30.1938,0.3,68900.0,0.33,276.0,2700.0,30.910480699100155,6.479234278900362,17493.93255303098,21.718835109970048,8.642638867115654,9.191645589130108,2.1634045882152915,3013,96,1008,1495,70.66857004762802,40.063868773071725,0.0007589589211543,False
0.44,0.9527918823008492,1.6,1994.0,30.1938,0.3,68900.0,0.33,276.0,2700.0,29.44595815488349,6.299701841672106,17009.194972514688,20.98641543109096,8.18628298071421,8.459542723792534,1.8865811390421048,2659,90,888,1321,68.56848984878586,38.966858530707015,0.0007209572874575,False
0.45,0.8491619814950149,1.6,1995.0,30.1938,0.3,68900.0,0.33,276.0,2700.0,23.613033842054485,5.12208086075668,13829.618324043036,17.59801648389851,6.189363402219937,6.015017358155976,1.067282541463257,2694,82,818,1405,65.51929867204045,37.5940327940926,0.0006111613382465,False
0.46,0.807901802659813,1.6,1996.0,30.1938,0.2,68900.0,0.33,276.0,2700.0,21.342521172088126,4.7049198278937086,12703.283535313012,16.324051765313694,5.489695214306751,5.018469406774432,0.7847753864130427,5794,110,1454,3245,63.13147913446103,36.21920684226438,0.0005702809503153,False
0.4700000000000001,1.0204765577259185,1.6,1997.0,30.1938,0.3,68900.0,0.33,276.0,2700.0,32.68713226624054,7.464029699850763,20152.88018959706,23.345220889259032,9.685919762426026,9.341911376981509,2.221890062575264,3260,98,1054,1647,72.5968043461243,41.481138800255046,0.0007543846828502,False
0.4800000000000001,1.049187402552097,1.6,1998.0,30.1938,0.3,68900.0,0.33,276.0,2700.0,34.173847147320345,7.970099972192907,21519.26992492085,24.380570154148465,10.37099408540873,9.79327699317188,2.4008941132158235,3214,98,1046,1617,72.81723212111466,41.38505878514036,0.0007698809448585,False
0.49,0.977192308441308,1.6,1999.0,30.1938,0.2,68900.0,0.33,276.0,2700.0,29.70399537289253,7.031075376957213,18983.903517784474,21.823496282200423,8.708542598714674,7.880499090692105,1.6774672217574604,7930,134,1948,4482,68.09660226745949,38.98986978113378,0.0006978421118504,False
0.5,0.8191425321077757,1.6,2000.0,30.1938,0.2,68900.0,0.33,276.0,2700.0,21.155164425003267,5.026991718451667,13572.8776398195,16.666884330804027,5.675113333059847,4.48828009419924,0.6481216146081801,5900,110,1436,3346,61.188279235921335,34.99343014554579,0.0005437335341986,False
0.02,0.5940408869429251,1.6,2002.0,33.21318,0.1,68900.0,0.33,276.0,2700.0,20.318224529379087,0.2031654901329702,548.5468233590196,10.406428714389694,2.651878495543293,9.911795814989391,2.4487130054103234,16442,222,5450,8261,949.74033562926,538.18837045157,0.0081700285589525,True
0.03,0.5103106389830045,1.6,2003.0,33.21318,0.1,68900.0,0.33,276.0,2700.0,16.13034764256313,0.2418986659706822,653.1263981208422,8.40269798041474,1.8656615100003544,7.727649662148391,1.6237628440296723,13179,194,4336,6669,589.5867856001354,335.8716685362496,0.0041789931558491,True
0.04,0.3736198369092933,1.6,2004.0,33.21318,0.08,68900.0,0.33,276.0,2700.0,10.262775397366438,0.205121466660776,553.8279599840952,5.5101983456006245,0.9201280789427524,4.7525770517658135,0.7150066122819765,13174,184,4330,6673,328.5995214416897,188.10000507114208,0.0020037107068585,True
0.05,0.7070089288265243,1.6,2005.0,33.21318,0.2,68900.0,0.33,276.0,2700.0,25.41845832526516,0.6351996587438302,1715.0390786083417,13.389075423016576,3.9929248164255537,12.029382902248583,3.3577251576817235,5297,128,1746,2672,447.5791150791055,258.403918781484,0.0044314005236268,True
0.06,0.6553707303775015,1.6,2006.0,33.21318,0.2,68900.0,0.33,276.0,2700.0,22.42557139302229,0.6723147524483412,1815.2498316105207,11.985897013413306,3.3380542697343163,10.439674379608986,2.6657395172859752,4675,118,1544,2353,358.8295912770719,204.85973819224844,0.0032068153778164,True
0.0699999999999999,0.5002458145937021,1.6,2007.0,33.21318,0.2,68900.0,0.33,276.0,2700.0,14.825183766521675,0.5181630543082987,1399.0402466324065,8.173701853770604,1.7822443687215084,6.651481912751073,1.2640813144132097,3265,92,1070,1654,244.81501902878657,141.32041683856357,0.0017587016544859,False
0.08,0.4389081399590619,1.6,2008.0,33.21318,0.2,68900.0,0.33,276.0,2700.0,12.060051840571038,0.4813297433304168,1299.5903069921255,6.833175982169832,1.3224842001506532,5.226875858401206,0.8411544568202363,2649,82,874,1332,193.9031309332757,111.94543031720552,0.001301833168558,False
0.09,0.7156567488231156,1.6,2009.0,33.21318,0.2,68900.0,0.33,276.0,2700.0,24.839464099580656,1.1162490704514825,3013.872490219003,13.630616305373175,4.109754177142276,11.20884779420748,2.993505106690793,5128,124,1690,2587,270.1952734357004,154.7507799745509,0.0024683004929432,False
0.0999999999999999,0.5579623081410001,1.6,2010.0,33.21318,0.2,68900.0,0.33,276.0,2700.0,16.760913360250953,0.8359512729101554,2257.06843685742,9.521435766922355,2.292492338385143,7.239477593328598,1.4565410654749875,3713,100,1218,1880,186.86691308636324,107.8530460705289,0.0014635793949537,False
0.11,0.5979109114405254,1.6,2011.0,33.21318,0.2,68900.0,0.33,276.0,2700.0,18.39983032109527,1.0092030277788948,2724.848175003016,10.503301637190896,2.6923389584980164,7.896528683904373,1.6831359307191216,3900,104,1272,1986,182.0891583585097,105.02847439309087,0.0014751729477715,False
0.12,0.6431335298144354,1.6,2012.0,33.21318,0.3,68900.0,0.33,276.0,2700.0,20.36132894666333,1.218060622062867,3288.763679569741,11.66319490921783,3.1933587672373336,8.698134037445504,1.975298145174467,2077,76,682,1048,182.8424573604936,105.55609249789455,0.0015078856750016,False
0.13,0.7567695305940395,1.6,2013.0,33.21318,0.3,68900.0,0.33,276.0,2700.0,26.04218726239207,1.688140786015341,4557.980122241421,14.804639102294162,4.694134859941195,11.237548160097909,3.0059940739258537,2697,88,878,1374,197.3934354901517,113.82021592900551,0.001871109214005,False
0.14,0.4800992366696256,1.6,2014.0,33.21318,0.2,68900.0,0.33,276.0,2700.0,12.595544028144754,0.8759410618091658,2365.040866884748,7.722973028008374,1.6221296953595374,4.8725710001363804,0.7461886335503717,2814,84,926,1419,318.09463951937323,169.01744809917858,0.0008734041354146,True
0.15,0.7798052278642528,1.6,2015.0,33.21318,0.2,68900.0,0.33,276.0,2700.0,26.797021086566023,2.002707998021873,5407.311594659058,15.48101933578657,5.042934888304778,11.316001750779453,3.040226890282905,5572,130,1842,2803,170.60474481844685,98.43495662042056,0.0016964848977532,False
0.16,0.6700113788863111,1.6,2016.0,33.21318,0.3,68900.0,0.33,276.0,2700.0,20.772776874348057,1.6532435076084369,4463.75747054278,12.376924421096929,3.5163914497513864,8.395852453251129,1.863147942142949,2178,78,718,1095,144.9862002459772,83.68235736825652,0.0012176995586486,False
0.17,0.5031948518306794,1.6,2017.0,33.21318,0.3,68900.0,0.33,276.0,2700.0,12.98527850973264,1.093458910189216,2952.339057510884,8.24053501115337,1.8064474128715988,4.744743498579272,0.7129885026823828,1435,60,468,727,106.42388042161777,61.43732166286594,0.0007790769377657,False
0.18,0.8306486986667725,1.6,2018.0,33.21318,0.3,68900.0,0.33,276.0,2700.0,28.88202983696637,2.5871681730898173,6985.354067342507,17.021101490365155,5.868919930567586,11.86092834660122,3.2817517574777684,3015,94,988,1527,155.00962265598002,89.22234550764989,0.0015870246245074,False
0.19,0.8750722565331075,1.6,2019.0,33.21318,0.3,68900.0,0.33,276.0,2700.0,31.204699182287232,2.9500809663098297,7965.21860903654,18.41990240333395,6.655944063252777,12.784796778953282,3.7058630969429474,3095,98,1016,1565,154.0192071558639,88.45559208737426,0.0016662332770968,False
0.2,0.6632036123048233,1.6,2020.0,33.21318,0.2,68900.0,0.33,276.0,2700.0,19.547270946098976,1.9379719337907524,5232.524221235031,12.194430186911871,3.432754087174116,7.352840759187103,1.4947821533833636,4045,108,1336,2035,114.84204168289588,66.21964596734313,0.0009751906474955,False
0.21,0.7608591688897803,1.6,2021.0,33.21318,0.3,68900.0,0.33,276.0,2700.0,24.274799532200078,2.529457757837745,6829.535946161911,14.923746468996066,4.754923888735947,9.351053063204008,2.225466130898202,2436,82,798,1233,125.98059432407726,72.40863102994767,0.0011335249064718,False
0.22,0.5815314354880947,1.6,2022.0,33.21318,0.3,68900.0,0.33,276.0,2700.0,15.37286951095864,1.668714527155169,4505.5292233189575,10.095871899969053,2.523646328320853,5.276997610989588,0.8549318011656837,1750,66,576,880,95.49526922392332,55.04613252613313,0.0007495455630697,False
0.23,0.8485387936074866,1.6,2023.0,33.21318,0.3,68900.0,0.33,276.0,2700.0,28.60445737977392,3.2640300934631816,8812.881252350591,17.57845646471877,6.178402626793057,11.02600091505515,2.914372533329875,2899,92,954,1462,126.64321173099566,72.53754259954164,0.0012720722336801,False
0.24,0.6745971498632243,1.6,2024.0,33.21318,0.3,68900.0,0.33,276.0,2700.0,19.243027044027272,2.2802103273877905,6156.567883947035,12.500510699435774,3.573432357755164,6.742516344591499,1.2932220303673736,2127,76,700,1071,99.47765495703396,57.306929993625474,0.0008471502864928,False
0.25,0.788776327909092,1.6,2025.0,33.21318,0.3,68900.0,0.33,276.0,2700.0,24.81217501990578,3.068796954012985,8285.751775835059,15.74803940677453,5.183012881294943,9.06413561313125,2.1142159272819585,2542,86,842,1273,110.05706095252935,63.19851168526088,0.0010160148336382,False
0.26,0.8072197874792446,1.6,2026.0,33.21318,0.3,68900.0,0.33,276.0,2700.0,25.567599743338064,3.286976878314287,8874.837571448576,16.30335307314125,5.478569022269994,9.264246670196815,2.191592143955707,2564,86,846,1289,107.86876331364007,61.86706724645617,0.0010123300413158,False
0.27,0.6919476117266434,1.6,2027.0,33.21318,0.3,68900.0,0.33,276.0,2700.0,19.45208151386018,2.5848070255707007,6978.978969040892,12.972887510750454,3.794409030488504,6.4791940031097255,1.209602004917803,2051,74,680,1025,90.31925850927476,51.96082156761367,0.0007910814529198,False
0.28,0.6818671344100823,1.6,2028.0,33.21318,0.3,68900.0,0.33,276.0,2700.0,18.7669621659373,2.581398541943399,6969.776063247177,12.6975194975034,3.665026198080259,6.069442668433901,1.0836276561368603,2018,74,666,1013,88.27523742251464,50.68634981609432,0.0007520311100228,False
0.29,0.9598651119990016,1.6,2029.0,33.21318,0.3,68900.0,0.33,276.0,2700.0,33.600520709693924,4.820995300753349,13016.687312034042,21.22752947555894,8.335576703949254,12.372991234134986,3.514581403195905,3524,104,1164,1772,110.99359652434084,63.2622962394324,0.0012506787532676,False
0.3,0.7634984857229279,1.6,2030.0,33.21318,0.2,68900.0,0.33,276.0,2700.0,22.360076621659715,3.297462825484341,8903.149628807721,15.000837587435692,4.794414079442061,7.359239034224023,1.4969512539577194,4451,114,1474,2232,90.94951670658772,52.18960624410634,0.0008230795022997,False
0.31,0.7852800835356887,1.6,2031.0,33.21318,0.3,68900.0,0.33,276.0,2700.0,23.260403542626698,3.54296842461168,9566.014746451536,15.64373499486704,5.128136313491741,7.616668547759657,1.5851678888800609,2365,82,784,1183,90.05003330127504,51.62860326369567,0.0008308513194027,False
0.32,0.6654270966156457,1.6,2032.0,33.21318,0.2,68900.0,0.33,276.0,2700.0,17.225936284998344,2.6875206668844664,7256.305800588059,12.25390652981293,3.4599343107091087,4.972029755185414,0.7724136438246423,3494,98,1140,1758,80.57552627976328,46.3723759652114,0.0006501792413407,False
0.33,0.9873378817494454,1.6,2033.0,33.21318,0.3,68900.0,0.33,276.0,2700.0,34.21407769593916,5.57005654303526,15039.152666195205,22.17595462452089,8.931740238861162,12.03812307141827,3.361683695825901,3353,102,1108,1685,101.05318934549804,57.44572550619483,0.0011360665945766,False
0.34,1.0015276540646627,1.6,2034.0,33.21318,0.3,68900.0,0.33,276.0,2700.0,34.822930053161976,5.837580003933073,15761.4660106193,22.673248220336003,9.2499342433971,12.149681832825973,3.412354239464028,3313,102,1094,1666,99.09985056382034,56.43135422721343,0.0011271627866058,False
0.3500000000000001,0.7176395036697841,1.6,2035.0,33.21318,0.3,68900.0,0.33,276.0,2700.0,19.080632222411374,3.249313448906883,8773.146312048584,13.686261186803222,4.136835496438539,5.394371035608156,0.8875220475316556,1949,72,648,971,75.10294154350811,42.8929928225058,0.0006621144714147,False
0.36,1.0091075252398234,1.6,2036.0,33.21318,0.3,68900.0,0.33,276.0,2700.0,34.76122781313966,6.159304908467883,16630.123252863283,22.94096535391195,9.422808262618208,11.820262459227711,3.263503354150325,3512,104,1166,1757,94.02816076733316,53.28620584396048,0.0010675734512861,False
0.37,0.9224391892716082,1.6,2037.0,33.21318,0.3,68900.0,0.33,276.0,2700.0,29.354863546184912,5.324562360922686,14376.318374491251,19.966020262455256,7.564833192650368,9.388843283729656,2.240270831727682,2782,92,928,1384,86.72324058419576,49.419294232037934,0.0008905531594513,False
0.38,0.7509985761705618,1.6,2038.0,33.21318,0.3,68900.0,0.33,276.0,2700.0,20.09659889583576,3.703430142150276,9999.261383805746,14.637279869769564,4.609181276209964,5.459319026066197,0.9057511340596878,2003,72,664,1001,70.33277137567013,40.26573140311852,0.0006559875543835,False
0.39,0.7106825086293856,1.6,2039.0,33.21318,0.3,68900.0,0.33,276.0,2700.0,18.00759543349161,3.387243686451984,9145.557953420355,13.491451966469755,4.0422985938487,4.516143467021852,0.6550549073967158,1841,68,610,920,65.76147665694978,37.612222437904975,0.000595422057283,False
0.4,0.9311008791860672,1.6,2040.0,33.21318,0.3,68900.0,0.33,276.0,2700.0,29.138628719211518,5.693684457289141,15372.94803468068,20.25484749963761,7.739022173946948,8.883781219573908,2.045337716657807,2775,92,924,1383,80.34225374194475,45.49380935371295,0.0008418831965241,False
0.4100000000000001,0.941385357942038,1.6,2041.0,33.21318,0.3,68900.0,0.33,276.0,2700.0,29.49067516093532,5.901240603139656,15933.349628477072,20.60023580360628,7.949106513828315,8.89043935732904,2.0478659106886585,2786,92,926,1391,80.0261320552251,45.381230463120055,0.0008358242123507,False
0.42,1.088716897612461,1.6,2042.0,33.21318,0.3,68900.0,0.33,276.0,2700.0,38.18208532454939,7.863068373809264,21230.28460928501,25.839951449696237,11.36346064906802,12.342133874853156,3.500392275258757,3551,106,1182,1772,86.3244844783208,48.86666203023016,0.0010298153183852,False
0.43,1.0821444839788017,1.6,2043.0,33.21318,0.3,68900.0,0.33,276.0,2700.0,37.49503758526681,7.894914009426382,21316.267825451232,25.59458389190936,11.194436723019429,11.900453693357443,3.2995227135930465,3555,106,1182,1774,84.41061463416084,47.83595830620983,0.0009869158155617,False
0.44,0.811222752709444,1.6,2044.0,33.21318,0.3,68900.0,0.33,276.0,2700.0,21.888670966028894,4.637098660124093,12520.166382335052,16.425007370664602,5.544074132379358,5.463663595364292,0.9069754722552652,2154,76,716,1072,65.92606563354305,37.593886514950825,0.000630775447104,False
0.45,0.9658871861646254,1.6,2045.0,33.21318,0.3,68900.0,0.33,276.0,2700.0,29.964474829191765,6.551155082862568,17688.118723728934,21.433802459329016,8.464031099006556,8.53067236986275,1.912876016143988,2943,94,978,1462,74.8538475028062,42.37294401743277,0.0007943475989541,False
0.46,0.9819645602984844,1.6,2046.0,33.21318,0.3,68900.0,0.33,276.0,2700.0,30.659992696030887,6.847938278400559,18489.43335168151,21.98896260370175,8.813084415227957,8.671030092329136,1.965146136827398,2929,94,974,1454,74.07720277744475,41.88435321958171,0.0007976822466916,False
0.4700000000000001,1.1246231255209895,1.6,2047.0,33.21318,0.3,68900.0,0.33,276.0,2700.0,39.16567781319214,8.986487903384388,24263.51733913785,27.199603516224222,12.315588868956414,11.966074296967918,3.3291009655720263,3785,108,1230,1912,81.2078747014673,46.45759037872789,0.0009556745562862,False
0.4800000000000001,0.8233533650040248,1.6,2048.0,33.21318,0.2,68900.0,0.33,276.0,2700.0,21.729361932931788,4.98342352073976,13455.243505997352,16.796128724634432,5.745566754777263,4.933233208297356,0.7621432340375032,5709,110,1416,3207,69.12508062870556,39.625223440044046,0.0006200014038178,False
0.49,0.9804539041379516,1.6,2049.0,33.21318,0.2,68900.0,0.33,276.0,2700.0,29.88988077449612,7.076617300350093,19106.86671094525,21.93652232895815,8.779906270239303,7.953358445537969,1.7032889698892104,7860,134,1948,4426,74.71104873164127,42.64627256616518,0.0007714629144797,False
0.5,0.9496205750326084,1.6,2050.0,33.21318,0.3,68900.0,0.33,276.0,2700.0,27.93919905819658,6.723000376749631,18152.10101722401,20.878719369615315,8.119899444374376,7.060479688581264,1.3968990676247444,3056,88,882,1629,75.00716992951533,42.95478869466808,0.0007209856063376,False
0.02,0.4934947885410986,1.6,2052.0,36.23256,0.1,68900.0,0.33,276.0,2700.0,15.598963609214763,0.1559728809313278,421.1267785145853,8.021528263580628,1.7275778029148332,7.577435345634138,1.571604921983505,12223,186,4052,6139,849.5721650142873,490.3493512940632,0.0064836482243486,True
0.03,0.374573856095565,1.6,2053.0,36.23256,0.1,68900.0,0.33,276.0,2700.0,10.484812717956483,0.1572156421015825,424.4822336742728,5.528758956518485,0.9253937656555108,4.956053761437999,0.7681781235539282,8498,148,2794,4301,452.49547618551486,258.78030042696315,0.0028632061561507,True
0.05,0.6608228883870549,1.6,2055.0,36.23256,0.2,68900.0,0.33,276.0,2700.0,22.960117690570733,0.5737411428764712,1549.101085766472,12.130885560600753,3.4037981849313126,10.82923212996998,2.830057042054841,4813,120,1588,2425,463.53866955187925,266.4877813360411,0.0042767838733166,True
0.06,0.7537761628746861,1.6,2056.0,36.23256,0.2,68900.0,0.33,276.0,2700.0,27.74083777235971,0.8317727438286748,2245.786408337422,14.717726151195803,4.649949268540735,13.023111621163906,3.81817652471206,5603,132,1846,2828,443.18658852057,252.89047027519592,0.0045146508443289,True
0.0699999999999999,0.7370878309091016,1.6,2057.0,36.23256,0.2,68900.0,0.33,276.0,2700.0,26.53571586346021,0.9280316777009884,2505.685529792669,14.237305021024634,4.408353416538683,12.298410842435578,3.480321738837694,5327,130,1754,2690,384.45818066143,219.60726350145276,0.0036864679758522,True
0.08,0.4770174729718313,1.6,2058.0,36.23256,0.2,68900.0,0.33,276.0,2700.0,13.626928313425683,0.5440048022446013,1468.8129660604236,7.654925898797512,1.5984342313285038,5.972002414628171,1.0544294290839025,3026,88,988,1538,218.4118046376255,125.88816121513234,0.00158746060449,False
0.09,0.6008477055412451,1.6,2059.0,36.23256,0.2,68900.0,0.33,276.0,2700.0,18.99205444727261,0.8531156360976218,2303.4122174635786,10.57706551032076,2.72329325438867,8.414988936951856,1.8701776182910483,4060,108,1328,2062,250.8372302434981,144.06590906470117,0.0019728303484699,False
0.0999999999999999,0.699230178073668,1.6,2060.0,36.23256,0.3,68900.0,0.33,276.0,2700.0,23.709825111389605,1.1833968604670884,3195.171523261138,13.173414083439182,3.88961430960108,10.536411027950424,2.7062174491339914,2486,84,814,1259,259.0855851420253,149.58211792014242,0.0023176936606741,False
0.11,0.5440003556545709,1.6,2061.0,36.23256,0.2,68900.0,0.33,276.0,2700.0,15.917737019032137,0.8726878961654811,2356.2573196467997,9.187734383515837,2.1618897663263827,6.7300026355163,1.2892018701609016,3589,98,1174,1822,183.47627371558767,105.87771899419933,0.0014110520218241,False
0.12,0.7117338225423195,1.6,2062.0,36.23256,0.3,68900.0,0.33,276.0,2700.0,23.869671026958965,1.4285611468806034,3857.115096577629,13.520812753686297,4.056497776275129,10.348858273272668,2.627936629394525,2465,84,804,1253,217.2648691978837,125.43319022836208,0.0019802572109566,False
0.13,0.5322606677517473,1.6,2063.0,36.23256,0.3,68900.0,0.33,276.0,2700.0,14.98831401007426,0.9696390246148686,2618.025366460145,8.910938471166387,2.055656769603864,6.077375538907871,1.0860177449889954,1695,66,552,861,157.60488429583887,90.98301852490049,0.0011744400430902,False
0.14,0.7142936567056297,1.6,2064.0,36.23256,0.3,68900.0,0.33,276.0,2700.0,23.5104037176022,1.6399812400711855,4427.949348192202,13.59241921565532,4.091200429880275,9.917984501946878,2.4512191898090894,2404,82,788,1216,189.36085627255437,109.30124034341236,0.0016931581281749,False
0.15,0.5697599727906136,1.6,2065.0,36.23256,0.3,68900.0,0.33,276.0,2700.0,16.24129031380784,1.211028190065011,3269.7761131755296,9.807227971251038,2.406505445723752,6.434062342556803,1.1954772556587407,1703,66,558,860,143.93230260496375,83.0926013833533,0.0011300427785688,False
0.16,0.8436835210761191,1.6,2066.0,36.23256,0.3,68900.0,0.33,276.0,2700.0,30.173347152175268,2.4052891298346197,6494.280650553472,17.42639812067403,6.093423812043912,12.746949031501238,3.688134682209293,3018,96,988,1530,193.56877298520027,111.38838634555609,0.0020233714596922,False
0.17,0.8546646579672714,1.6,2067.0,36.23256,0.3,68900.0,0.33,276.0,2700.0,30.544836082055458,2.586021303836593,6982.257520358801,17.771152770738524,6.286675601006397,12.773683311316931,3.700654297169805,3083,96,1010,1562,186.27491371642049,107.15722508412011,0.001946467870249,False
0.18,0.8742874162238865,1.6,2068.0,36.23256,0.3,68900.0,0.33,276.0,2700.0,31.431928155800765,2.816659021784919,7604.979358819281,18.39475910341481,6.64149724910485,13.03716905238596,3.824838227319931,3099,98,1016,1569,178.61807006025447,102.52730944200212,0.0019225489069776,False
0.19,0.5653269123668418,1.6,2069.0,36.23256,0.3,68900.0,0.33,276.0,2700.0,15.242855109811163,1.4337057794247452,3871.005604446812,9.69942915683158,2.3632685333272545,5.543425952979582,0.9295627539025092,1541,62,508,773,115.45982727281952,66.63873049532911,0.0008978324395034,False
0.2,0.7673672188392493,1.6,2070.0,36.23256,0.3,68900.0,0.33,276.0,2700.0,24.8631367806511,2.469558517245963,6667.8079965641,15.11415480103591,4.852667392344361,9.74898197961519,2.3831088750983977,2513,86,828,1265,143.09206373182565,82.30649271340623,0.001323905530422,False
0.21,0.5801190280926893,1.6,2071.0,36.23256,0.3,68900.0,0.33,276.0,2700.0,15.503340363703868,1.6084545451456416,4342.827271893232,10.061054889976944,2.509411437988646,5.442285473726923,0.9009568928430044,1726,66,568,868,107.93382502215286,62.2832486211749,0.0008503400680678,False
0.22,0.6475327981677228,1.6,2072.0,36.23256,0.3,68900.0,0.33,276.0,2700.0,18.373736522103115,1.9988098983810607,5396.786725628864,11.778772874127974,3.2449223424213947,6.594963647975142,1.246112444040334,1953,72,642,984,117.2860081727658,67.64142819369901,0.000945762664322,False
0.23,0.8883460560308519,1.6,2073.0,36.23256,0.3,68900.0,0.33,276.0,2700.0,30.91241637384717,3.529445377781604,9529.502520010332,18.84748950868906,6.903279108986087,12.064926865158114,3.373833731204483,3046,96,1000,1540,142.04759966918635,81.40987667087416,0.0015187815041357,False
0.24,0.6040167590776937,1.6,2074.0,36.23256,0.2,68900.0,0.33,276.0,2700.0,15.981548998150098,1.88883296188253,5099.848997082831,10.65690623280504,2.756938984354129,5.324642765345057,0.8681060224715991,3208,94,1062,1609,97.77640426646994,56.38760848974866,0.0007979462989693,False
0.25,0.8064999800724281,1.6,2075.0,36.23256,0.3,68900.0,0.33,276.0,2700.0,25.767775401224647,3.1882470016781874,8608.266904531107,16.28152009286537,5.466841606523537,9.486255308359276,2.2785946048453494,2553,86,840,1287,120.87295315845726,69.42262609459031,0.0011439408855175,False
0.26,0.6360689439253076,1.6,2076.0,36.23256,0.3,68900.0,0.33,276.0,2700.0,17.036503371548523,2.1779343499816446,5880.422744950441,11.478611205171134,3.111615867221011,5.557892166377389,0.9336815172393664,1748,68,580,872,96.4117711562473,55.46547947647657,0.0007957205229531,False
0.27,0.6200734271374029,1.6,2077.0,36.23256,0.3,68900.0,0.33,276.0,2700.0,16.124663399346733,2.1356055801114,5766.135066300781,11.06531509038236,2.931323562891247,5.059348308964372,0.7957179827798466,1744,66,568,886,91.04605704680137,52.44468423380015,0.0007430782391445,False
0.28,0.613698874883464,1.6,2078.0,36.23256,0.3,68900.0,0.33,276.0,2700.0,15.656434211105656,2.145924628267055,5793.996496321049,10.90239978835041,2.861306932204086,4.754034422755245,0.7153823039370306,1641,64,544,819,88.38294202411508,50.81364835248058,0.0007110540153592,False
0.29,0.6652066574858471,1.6,2079.0,36.23256,0.3,68900.0,0.33,276.0,2700.0,17.789087256249182,2.528337450003866,6826.511115010438,12.24800441905726,3.457233720767292,5.541082837191922,0.9288962707634264,1798,68,594,901,91.31845542644253,52.440161845674176,0.000765007807593,False
0.3,0.8628490402947233,1.6,2080.0,36.23256,0.3,68900.0,0.33,276.0,2700.0,27.66946385948473,4.093870911158093,11053.451460126853,18.03007397319559,6.433179916541627,9.639389886289134,2.3393090053835337,2819,90,936,1409,108.08456859419572,61.924145675264825,0.0010654415506307,False
0.31,0.6192777661258906,1.6,2081.0,36.23256,0.2,68900.0,0.33,276.0,2700.0,15.356131456545976,2.317806251269229,6258.076878426919,11.044924492368384,2.9225274361506206,4.311206964177593,0.6047211848813911,3203,92,1058,1600,80.12687939769246,46.130792625248354,0.0006619860441471,False
0.32,0.9425367598400256,1.6,2082.0,36.23256,0.3,68900.0,0.33,276.0,2700.0,31.767613718239893,5.014189056203166,13538.310451748548,20.63906931968097,7.972848017726647,11.12854439855892,2.958658961523481,3088,98,1018,1555,110.12093278685772,62.848635635624845,0.0011720084950314,False
0.33,0.89907809979013,1.6,2083.0,36.23256,0.3,68900.0,0.33,276.0,2700.0,28.987051586771223,4.707597235022478,12710.51253456069,19.196436876890584,7.10742106151431,9.790614709880645,2.399823826491832,2721,90,902,1362,103.55531142133536,59.22986553921895,0.0010367669650649,False
0.34,1.0155419385678417,1.6,2084.0,36.23256,0.3,68900.0,0.33,276.0,2700.0,35.69539702983156,5.985899389966734,16161.928352910183,23.169358664277777,9.571154146391883,12.526038365553784,3.585254756425151,3498,106,1162,1749,108.95637188586576,61.81211607364689,0.0012617980314396,False
0.3500000000000001,0.7371864718830168,1.6,2085.0,36.23256,0.3,68900.0,0.33,276.0,2700.0,20.016413972510637,3.413075255174256,9215.30318897049,14.240124118286952,4.409757937209122,5.7762898542236805,0.9966826820348662,2164,76,712,1090,83.64976836349688,47.95811301044553,0.0007453195085296,False
0.36,0.7315730820702643,1.6,2086.0,36.23256,0.3,68900.0,0.33,276.0,2700.0,19.55054151404021,3.421381374629981,9237.72971150095,14.08008596275957,4.330272118281084,5.470455551280642,0.9088907436511032,1969,72,654,982,79.26980497414826,45.40786122302457,0.000719349663877,False
0.37,0.9843720099691255,1.6,2087.0,36.23256,0.3,68900.0,0.33,276.0,2700.0,32.992207286692256,5.9974709529165455,16193.171572874671,22.072652320597665,8.866122446173298,10.919554966094594,2.8686514932567526,3257,100,1080,1631,99.56472811042156,56.71890164187079,0.0010706989169925,False
0.38,0.933664963372228,1.6,2088.0,36.23256,0.3,68900.0,0.33,276.0,2700.0,29.758913557881414,5.539269927938237,14956.02880543324,20.34070953852955,7.791067351555928,9.418204019351863,2.251797423617691,2770,92,922,1381,94.47775004256724,53.90994186476488,0.0009653362979959,False
0.39,0.8818134763032013,1.6,2089.0,36.23256,0.2,68900.0,0.33,276.0,2700.0,26.62031129407468,5.066723279265704,13680.152854017402,18.63650301048072,6.7808461080304605,7.983808283593966,1.714122828764756,6894,126,1734,3869,92.5245826354494,53.01549614269828,0.0008840351259185,False
0.4,0.763607551178771,1.6,2090.0,36.23256,0.2,68900.0,0.33,276.0,2700.0,20.320814345600592,3.9301215825668985,10611.328272930628,15.004027018763257,4.796050326557282,5.316787326837336,0.8659287439903833,5345,106,1322,3012,80.78053359142994,46.40453167957073,0.00071255100455,False
0.4100000000000001,1.0166141500034995,1.6,2091.0,36.23256,0.3,68900.0,0.33,276.0,2700.0,33.930051364077315,6.811312724783806,18390.54435691628,23.20751858676241,9.596017052879407,10.722532777314903,2.7847043280956028,3348,102,1116,1668,93.19439886076074,52.99064812722766,0.0010187591501111,False
0.42,0.8126921173866668,1.6,2092.0,36.23256,0.3,68900.0,0.33,276.0,2700.0,22.355359249024872,4.539455897949117,12256.530924462617,16.469763943366935,5.568241333252169,5.885595305657937,1.0287854353030523,2569,82,810,1314,75.24327092756762,43.26983621464635,0.0007285702379904,False
0.43,1.0746153613133,1.6,2093.0,36.23256,0.3,68900.0,0.33,276.0,2700.0,37.016905157787406,7.792115537518319,21038.71195129946,25.31483376746894,11.00278599173183,11.702071390318466,3.2106704542135107,3528,106,1174,1759,90.73282456396844,51.2379879189217,0.0010647667664747,False
0.44,0.7580971613057228,1.6,2094.0,36.23256,0.3,68900.0,0.33,276.0,2700.0,19.31265895037068,4.070376016679278,10990.01524503405,14.843259179733568,4.713815585187645,4.469399770637111,0.6434395685083674,1971,70,652,985,110.85240341630396,63.56776107858633,0.0006316612943611,False
0.45,1.0951036702331116,1.6,2095.0,36.23256,0.3,68900.0,0.33,276.0,2700.0,37.79432303956378,8.312870930196274,22444.75151152994,26.07942856724509,11.529258740818747,11.714894472318688,3.2163878106224733,3561,106,1174,1786,90.13503812747769,51.47887386082474,0.0010455636782678,False
0.46,0.9761299336596928,1.6,2096.0,36.23256,0.3,68900.0,0.33,276.0,2700.0,30.322999748343005,6.7704299004323465,18280.160731167336,21.78673889271765,8.685377394190862,8.53626085562535,1.914947493758516,2911,94,968,1445,80.47775820764721,45.51503253308126,0.00086288745853,False
0.4700000000000001,0.8116621633836507,1.6,2097.0,36.23256,0.2,68900.0,0.33,276.0,2700.0,21.34005931301725,4.797467555843287,12953.162400776877,16.438386050255986,5.551294395131571,4.901673262761264,0.7538268392882843,5879,110,1466,3302,76.08735149376575,43.77108787507682,0.0006757342421871,False
0.4800000000000001,1.1727053841762791,1.6,2098.0,36.23256,0.3,68900.0,0.33,276.0,2700.0,42.064760503129456,9.863919177587205,26632.58177948545,29.071069744674038,13.668166585976216,12.993690758455422,3.804247408389012,4314,114,1360,2210,92.34567981184826,52.69023968099893,0.0011069829064696,False
0.49,0.9817021287260744,1.6,2099.0,36.23256,0.2,68900.0,0.33,276.0,2700.0,29.96116127570266,7.094081023145695,19154.01876249338,21.97984854942573,8.80731501314185,7.981312726276933,1.7132339899961542,7894,134,1948,4454,82.53248128603103,47.11285979590663,0.0008425638696612,False
0.5,0.8528878385455534,1.6,2100.0,36.23256,0.2,68900.0,0.33,276.0,2700.0,22.827667153966637,5.445117400692509,14701.816981869775,17.715163708881832,6.255149224591925,5.112503445084801,0.8100318238994157,6036,114,1492,3400,76.02095665615344,43.629180468165366,0.0006841348508138,False
0.03,0.5043890521386656,1.6,2103.0,39.25194,0.1,68900.0,0.33,276.0,2700.0,15.864738444212566,0.2379145279954248,642.3692255876472,8.267660995592127,1.8163044556824812,7.597077448620439,1.5783899276870563,12561,188,4134,6354,680.2656327210424,387.9816782083126,0.0048426066992856,True
0.04,0.6257270682625711,1.6,2104.0,39.25194,0.1,68900.0,0.33,276.0,2700.0,21.41025391449263,0.4280710370033021,1155.7917999089157,11.21066052031353,2.994293370318835,10.199593394179098,2.5662223333155327,16919,226,5572,8555,685.0926794317303,391.0465826583346,0.0052552851186115,True
0.05,0.4321919970908809,1.6,2105.0,39.25194,0.1,68900.0,0.33,276.0,2700.0,12.36993110250757,0.3089864781748905,834.2634910722044,6.692139240873223,1.2770658599437477,5.677791861634347,0.9680793817688572,9961,164,3276,5041,359.915871193318,206.1941521358065,0.0023283012503212,True
0.06,0.6969644148663591,1.6,2106.0,39.25194,0.2,68900.0,0.33,276.0,2700.0,24.61282178400607,0.7379322641780658,1992.4171132807776,13.11088310817565,3.859837337209109,11.50193867583042,3.1219050730310425,4843,124,1594,2446,444.9806346508153,254.279684824692,0.0042388565573405,True
0.0699999999999999,0.4659455804930012,1.6,2107.0,39.25194,0.2,68900.0,0.33,276.0,2700.0,13.362966865159873,0.4669854627604751,1260.8607494532828,7.412421341318657,1.5150250496918694,5.950545523841216,1.0480395869313943,2997,88,984,1515,269.21252141525093,155.42200802634989,0.001887235070959,False
0.08,0.6588858645990999,1.6,2108.0,39.25194,0.2,68900.0,0.33,276.0,2700.0,22.109986356425114,0.8833271239645802,2384.9832347043666,12.079288969275284,3.3803503581655683,10.03069738714983,2.497023234200988,4631,118,1528,2333,320.1943061512301,184.75140891311864,0.0028424918385986,True
0.09,0.3932795052513666,1.6,2109.0,39.25194,0.1,68900.0,0.33,276.0,2700.0,10.102035417075236,0.4530647797387409,1223.2749052946003,5.897301891288237,1.0322460002908416,4.204733525786999,0.5791812205521008,8173,146,2694,4126,171.323490814373,98.86896720617692,0.0011955837274849,False
0.0999999999999999,0.690541692890099,1.6,2110.0,39.25194,0.3,68900.0,0.33,276.0,2700.0,23.25349113683189,1.160580161739204,3133.566436695851,12.934328823670915,3.776197314585205,10.319162313160977,2.615617152846,2478,84,810,1257,274.01330264228466,158.04073288008215,0.0024514199700785,False
0.11,0.5282168605205497,1.6,2111.0,39.25194,0.2,68900.0,0.33,276.0,2700.0,15.218696290136172,0.8342406560762041,2252.449771405751,8.81639648162901,2.0198139454615545,6.402299808507163,1.1855732893853503,3466,96,1136,1756,194.82098339948428,112.42338506588722,0.0014665127232224,False
0.12,0.6247326189774242,1.6,2112.0,39.25194,0.3,68900.0,0.33,276.0,2700.0,19.46050838451074,1.1640113883337089,3142.830748501014,11.18503670831517,2.98315767982886,8.275471676195568,1.8191462914951508,2086,76,684,1054,211.12739929745769,121.89181060591868,0.0017095469659297,False
0.13,0.7261227164191517,1.6,2113.0,39.25194,0.3,68900.0,0.33,276.0,2700.0,24.3839468747274,1.5803551608173227,4266.958934206771,13.925453409202715,4.253952242470217,10.45849346552468,2.6735970816528942,2542,86,832,1288,221.2468369184372,127.69150094286604,0.0020450639244669,False
0.14,0.7475500659102325,1.6,2114.0,39.25194,0.3,68900.0,0.33,276.0,2700.0,25.283893167234123,1.7641255015454202,4763.138854172635,14.537671671342803,4.558876302235196,10.74622149589132,2.7947508006897754,2618,86,858,1325,214.422832891091,123.74585274928393,0.0019954675346587,False
0.15,0.7031096174705991,1.6,2115.0,39.25194,0.3,68900.0,0.33,276.0,2700.0,22.685676435808684,1.6943571492148837,4574.764302880185,13.280779190702535,3.940927907119185,9.404897245106149,2.2465707579043013,2303,80,758,1160,189.7265333127192,109.39409921504055,0.0016526487386849,False
0.16,0.8295366355538065,1.6,2116.0,39.25194,0.2,68900.0,0.33,276.0,2700.0,29.35088169535677,2.33949189328914,6316.628111880678,16.98672139122281,5.8500105107585,12.364160304133955,3.5105186174693594,5986,140,1974,3019,201.17594842279803,115.96912164269986,0.0021143798828964,False
0.17,0.8393964608770378,1.6,2117.0,39.25194,0.3,68900.0,0.33,276.0,2700.0,29.653020282359435,2.5102169608624614,6777.5857943286455,17.292627680938214,6.019002700231733,12.36039260142122,3.508785739369271,3070,96,1006,1555,199.56949609163988,114.82948656229392,0.0020368934822481,False
0.18,0.86331795253156,1.6,2118.0,39.25194,0.3,68900.0,0.33,276.0,2700.0,30.781953584079453,2.758161310329843,7447.035537890576,18.044959475238294,6.4416379286399685,12.73699410884116,3.6834766183101255,3136,98,1032,1582,189.89433098870225,109.22336546765987,0.0020265392028978,False
0.19,0.4983440187319504,1.6,2119.0,39.25194,0.3,68900.0,0.33,276.0,2700.0,12.425290797206184,1.166037169727273,3148.300358263636,8.130717945943827,1.7667405440760058,4.294572851262357,0.6007033743487331,1387,58,454,700,113.12430945493576,65.30680070368358,0.0008235248006135,False
0.2,0.7180227410780403,1.6,2120.0,39.25194,0.3,68900.0,0.33,276.0,2700.0,22.27691541670208,2.210936380851066,5969.528228297878,13.697027919997534,4.142082646694063,8.579887496704547,1.931146265842997,2207,80,730,1106,147.60468456861184,84.9555256763822,0.0012898264703139,False
0.21,0.6260952075419999,1.6,2121.0,39.25194,0.3,68900.0,0.33,276.0,2700.0,17.578879242298758,1.826386127398108,4931.242543974892,11.22015260845678,2.998422201905456,6.358726633841979,1.1720360745073477,1969,72,644,997,124.47482646244272,71.73334534323612,0.0010197370305053,False
0.22,0.6740478757217664,1.6,2122.0,39.25194,0.3,68900.0,0.33,276.0,2700.0,19.64094338514946,2.138202653316159,5773.147163953629,12.485679929761917,3.5665702238991623,7.155263455387543,1.4283675705830032,2113,76,698,1060,127.04884468537392,73.2149301853409,0.0010803093851048,False
0.23,0.6386657811782801,1.6,2123.0,39.25194,0.3,68900.0,0.33,276.0,2700.0,17.75335309345233,2.0161531005362,5443.61337144774,11.54631564864637,3.141511824444576,6.207037444805959,1.1253587239083762,1917,72,630,966,117.08252941502757,67.43021285511794,0.0009668139996039,False
0.24,0.8521708281446045,1.6,2124.0,39.25194,0.3,68900.0,0.33,276.0,2700.0,28.55609161810568,3.397778076277197,9174.000805948432,17.69259258310829,6.242455360596148,10.863499034997387,2.844677284318951,2894,92,954,1457,144.081755379566,82.4505819405507,0.0014444653664387,False
0.25,0.6881063034791801,1.6,2125.0,39.25194,0.3,68900.0,0.33,276.0,2700.0,19.683931559678044,2.427766521484863,6554.96960800913,12.867653467475236,3.7447784076115966,6.816278092202808,1.3170118861267337,2118,76,698,1065,114.6109869814396,66.05164805600052,0.000991834739711,False
0.26,0.5796058319462656,1.6,2126.0,39.25194,0.3,68900.0,0.33,276.0,2700.0,14.545073082472848,1.8540484124018064,5005.930713484877,10.048416598929432,2.504251386634363,4.496656483543415,0.650202974232557,1668,64,552,834,94.35045802944626,54.41806788663531,0.0007617144053289,False
0.27,0.762154616577275,1.6,2127.0,39.25194,0.3,68900.0,0.33,276.0,2700.0,22.95301895408149,3.057433580000598,8255.070666001615,14.961562986383957,4.7742813116947485,7.991455967697535,1.7168477316941506,2333,80,766,1178,117.1267346175772,67.27778056853958,0.0010659072361036,False
0.28,0.7654630912559788,1.6,2128.0,39.25194,0.3,68900.0,0.33,276.0,2700.0,22.90031421775345,3.1600678291977484,8532.183138833921,15.05833490057606,4.823941271855252,7.84197931717739,1.6638734426575033,2361,82,780,1185,114.50159862837768,65.75440087296592,0.0010382237170894,False
0.29,0.9580569741551755,1.6,2129.0,39.25194,0.3,68900.0,0.33,276.0,2700.0,33.49018752819038,4.804996989435336,12973.491871475406,21.165773583029637,8.297250248537676,12.32441394516075,3.4922532591023403,3416,102,1134,1709,130.5685601274901,74.52640765153109,0.0014695226290414,False
0.3,0.7340379898393739,1.6,2130.0,39.25194,0.3,68900.0,0.33,276.0,2700.0,20.881054632840343,3.0756095271614363,8304.145723335878,14.150263140099346,4.365064690329132,6.730791492740996,1.2894551631676956,2233,78,736,1123,103.80725528446872,59.61830863894923,0.0009197058289452,False
0.31,0.7949144597121677,1.6,2131.0,39.25194,0.3,68900.0,0.33,276.0,2700.0,23.76167689551565,3.6206657943095295,9775.79764463573,15.931903105229818,5.280240228262107,7.829773790285831,1.6595744339525775,2496,84,820,1260,106.9766606484492,61.330532309570486,0.0009949045267829,False
0.32,0.6814589089731145,1.6,2132.0,39.25194,0.3,68900.0,0.33,276.0,2700.0,17.962031390084253,2.80529588369826,7574.298885985301,12.686421824981078,3.6598450129535296,5.275609565103174,0.85454912925527,1862,70,614,935,92.73355113717196,53.302853002224666,0.000784864615075,False
0.33,0.6494079034377673,1.6,2133.0,39.25194,0.3,68900.0,0.33,276.0,2700.0,16.32126095607914,2.617741780958354,7067.902808587556,11.8281836493658,3.2670550929066984,4.493077306713339,0.6493133119483443,1776,66,582,897,82.5085597091661,47.49338849064405,0.0007231226292284,False
0.34,0.92575620748333,1.6,2134.0,39.25194,0.3,68900.0,0.33,276.0,2700.0,30.27671997446356,5.064724290554343,13674.755584496726,20.07640467387956,7.631243842591286,10.200315300583998,2.566519552036943,2984,96,988,1496,110.8786354979345,63.014643664549496,0.0011433608288656,False
0.3500000000000001,0.7167017693812263,1.6,2135.0,39.25194,0.3,68900.0,0.33,276.0,2700.0,19.0362223815668,3.241541726759083,8752.162662249524,13.6599318955682,4.1240137667081305,5.376290485998602,0.8824720399490475,1952,72,648,974,89.2055803033531,50.93854302124779,0.0007769920478119,False
0.36,0.9051131452813496,1.6,2136.0,39.25194,0.2,68900.0,0.33,276.0,2700.0,28.608086373482063,5.0517394493295145,13639.696513189689,19.393935142750426,7.223867926482237,9.214151230731638,2.1721284771527225,7755,136,2070,4262,108.5574497988705,62.12481982648448,0.0010650970432731,False
0.37,0.8071784115327707,1.6,2137.0,39.25194,0.2,68900.0,0.33,276.0,2700.0,23.098841597976367,4.167198300504107,11251.435411361088,16.30209771771575,5.47789448157678,6.7967438802606175,1.3106961810726734,5960,118,1580,3282,99.20277144095044,56.83341228340145,0.000886641745921,False
0.38,0.7172194329530509,1.6,2138.0,39.25194,0.3,68900.0,0.33,276.0,2700.0,18.493572679571976,3.398855161060157,9176.908934862424,13.674463893209104,4.131088776896435,4.819108786362872,0.7322336158362783,1931,72,640,965,81.42269218585321,46.51594377075717,0.0007241816921997,False
0.39,1.0372046470189944,1.6,2139.0,39.25194,0.3,68900.0,0.33,276.0,2700.0,35.71607283991296,6.8403967807041735,18469.071307901268,23.94593796955125,10.081455322635744,11.770134870361712,3.2410585419315705,3416,104,1138,1703,105.30450397112322,59.741068595782494,0.0012089910783274,False
0.4,0.7770954863816864,1.6,2140.0,39.25194,0.2,68900.0,0.33,276.0,2700.0,20.97869091066818,4.061696895580472,10966.581618067274,15.400763058330014,5.001094106572108,5.577927852338167,0.9393972109916362,5744,110,1458,3203,89.133503184286,51.22664230258344,0.0007903447042835,False
0.4100000000000001,1.0590730937871966,1.6,2141.0,39.25194,0.3,68900.0,0.33,276.0,2700.0,36.56121000831346,7.350700246852216,19846.89066650098,24.74185538650736,10.613796627824806,11.8193546218061,3.2630963809725904,3574,106,1190,1783,102.80993847542352,57.9456686280174,0.0011858705879722,False
0.42,1.0150603244129166,1.6,2142.0,39.25194,0.2,68900.0,0.33,276.0,2700.0,33.58413780972211,6.897499395695503,18623.24836837786,23.15222745753874,9.559999580848354,10.431910352183367,2.662500185152851,8672,144,2138,4893,101.56872201175084,57.898098353553785,0.0010925227848358,False
0.43,0.8593349078944101,1.6,2143.0,39.25194,0.3,68900.0,0.33,276.0,2700.0,24.55117964593261,5.111984552469536,13802.358291667748,17.918694607155246,6.370015641221185,6.632485038777364,1.2580310887516486,2467,82,806,1242,84.82401665907757,48.24956311437588,0.0008379841364347,False
0.44,0.7463321736301203,1.6,2144.0,39.25194,0.2,68900.0,0.33,276.0,2700.0,18.76137256940325,3.9490930128664496,10662.551134739417,14.50256498327166,4.541192366001283,4.258807586131585,0.5920993531348335,5187,102,1312,2897,80.72548074713073,46.359752066773495,0.0006905261971627,False
0.45,0.9573286748925378,1.6,2145.0,39.25194,0.3,68900.0,0.33,276.0,2700.0,29.47550871371241,6.441137706879712,17391.07180857522,21.14092216054084,8.28184428168941,8.334586553171576,1.8407065748096976,3064,94,1014,1527,87.67205294099465,49.93888259867421,0.0009276711446557,False
0.46,1.0448404619950384,1.6,2146.0,39.25194,0.3,68900.0,0.33,276.0,2700.0,34.400121579887475,7.708167921687578,20812.053388556466,24.222483112008263,10.265356965720835,10.17763846787921,2.557189044033259,3549,102,1106,1834,94.155848681867,53.759173778741726,0.001036162182196,False
0.4700000000000001,0.8878662837164917,1.6,2147.0,39.25194,0.3,68900.0,0.33,276.0,2700.0,25.227049613090912,5.710910276360596,15419.457746173608,18.83195753296136,6.89424033146189,6.3950920801295545,1.183330055101294,2731,84,830,1422,82.63277772006894,47.3384028799985,0.0008124589069499,False
0.4800000000000001,0.8723042743499521,1.6,2148.0,39.25194,0.2,68900.0,0.33,276.0,2700.0,24.20916614031909,5.578576530512713,15062.156632384324,18.33129575732848,6.605080776810466,5.877870382990615,1.026504246297753,6788,120,1668,3838,86.3310019662785,49.48567785059976,0.000789825920068,False
0.49,1.1843499902223062,1.6,2149.0,39.25194,0.3,68900.0,0.33,276.0,2700.0,42.57193307104392,10.183720113004298,27496.044305111605,29.533043031663155,14.009374181963906,13.038890039380767,3.825654068959608,4356,114,1354,2249,97.90931279740568,55.6468149808414,0.001193014854845,False
0.5,1.1140108698691138,1.6,2150.0,39.25194,0.3,68900.0,0.33,276.0,2700.0,37.70472848665597,9.16438273386484,24743.83338143507,26.794378769004886,12.029092400239875,10.910349717651089,2.8647096663750364,3996,106,1200,2098,95.15872496506664,53.67126016201463,0.001058977635028,False
0.04,0.6694562213906432,1.6,2154.0,42.27132,0.1,68900.0,0.33,276.0,2700.0,23.66896917733205,0.4732453422600884,1277.7624241022388,12.361998821527614,3.509524450773284,11.306970355804436,3.0362791085131957,18816,240,6202,9507,829.9937506721737,473.7012961546571,0.0063887951200598,True
0.05,0.6275824513681256,1.6,2155.0,42.27132,0.1,68900.0,0.33,276.0,2700.0,21.257186370968345,0.5311678598864088,1434.1532216933035,11.2585343182514,3.015137839191258,9.998652052716944,2.4839699793048493,17012,226,5598,8609,598.790133196973,342.15326575210736,0.004534919529705,True
0.06,0.7513103945224919,1.6,2156.0,42.27132,0.2,68900.0,0.33,276.0,2700.0,27.601706350523333,0.8275988011735819,2234.516763168671,14.646301294739835,4.613746855155133,12.955405055783496,3.786148053981552,5744,132,1892,2900,515.6433662756806,294.5130476686868,0.0052314576355352,True
0.0699999999999999,0.4157835570867862,1.6,2157.0,42.27132,0.2,68900.0,0.33,276.0,2700.0,11.331045188003422,0.3958682040599997,1068.8441509619993,6.352335682358228,1.170055370392198,4.978709505645194,0.7741871663321984,2557,80,838,1294,265.3412090753212,153.11032040164457,0.0017496953770643,False
0.08,0.4056092296104065,1.6,2158.0,42.27132,0.04,68900.0,0.33,276.0,2700.0,10.750718366761296,0.4289564043777112,1158.1822918198202,6.145033529384798,1.1064814127644458,4.605684837376498,0.6775250083867346,72638,370,17746,41285,210.4734911886198,121.42780896823068,0.0014960313217986,False
0.09,0.6080842975165976,1.6,2159.0,42.27132,0.2,68900.0,0.33,276.0,2700.0,19.341060960417675,0.8688209291891499,2345.816508810705,10.759753159600535,2.8004953860636124,8.581307800817138,1.9316744568744624,4201,110,1378,2128,284.26093542919125,164.02640190329,0.0023520378823054,True
0.0999999999999999,0.7534541954825508,1.6,2160.0,42.27132,0.3,68900.0,0.33,276.0,2700.0,26.64349949636035,1.3300805797156234,3591.2175652321835,14.7083911858205,4.645212143480802,11.935108310539848,3.3151315637651786,2722,88,888,1384,318.6762815820218,183.69151287791536,0.0040634626204591,True
0.11,0.4166479929649663,1.6,2161.0,42.27132,0.2,68900.0,0.33,276.0,2700.0,10.634483779576897,0.5821089679954448,1571.694213587701,6.370068495089314,1.1755542203531717,4.264415284487581,0.5934452523577269,2513,78,820,1277,171.52604691730156,98.9997815210882,0.0011527089578416,False
0.12,0.5362612961448145,1.6,2162.0,42.27132,0.2,68900.0,0.33,276.0,2700.0,15.367008959774532,0.9184014228495362,2479.683841693748,9.004875384172202,2.0914938922966826,6.36213357560233,1.1730924694471463,3481,96,1138,1768,193.64222350615245,111.72706059043212,0.0014865384579367,False
0.13,0.6942457052787074,1.6,2163.0,42.27132,0.3,68900.0,0.33,276.0,2700.0,22.70923426645808,1.4714988412798182,3973.046871455509,13.036021921379104,3.824294458600388,9.673212345078976,2.3527956173205693,2313,80,760,1167,228.53868108218268,131.6885487085603,0.0020316093199481,False
0.14,0.698959377341863,1.6,2164.0,42.27132,0.3,68900.0,0.33,276.0,2700.0,22.71138759913945,1.5840501117787955,4276.935301802748,13.16593368316146,3.8860479523174383,9.54545391597799,2.3019978405386428,2302,80,756,1162,215.44838889040773,124.31883231258703,0.0019003605459606,False
0.15,0.8022090578887797,1.6,2165.0,42.27132,0.3,68900.0,0.33,276.0,2700.0,28.05380061722637,2.096966462821403,5661.809449617788,16.151639325807142,5.397257690372517,11.902161291419226,3.300291227551114,2888,92,942,1469,229.86193814214823,132.39827984782238,0.0022870833492026,False
0.16,0.7680409649191267,1.6,2166.0,42.27132,0.3,68900.0,0.33,276.0,2700.0,25.89258294660172,2.062827993388735,5569.635582149584,15.133927634705453,4.862857155186262,10.758655311896268,2.8000291617975277,2715,90,890,1374,206.8569611438513,119.17952627716916,0.0019633470933148,False
0.17,0.7818669238893303,1.6,2167.0,42.27132,0.3,68900.0,0.33,276.0,2700.0,26.397974912183013,2.233538104397497,6030.552881873242,15.542205623729824,5.074915099742764,10.855769288453187,2.841376995345267,2745,90,902,1386,198.61706198017936,114.54838768136892,0.0019088515888976,False
0.18,0.6567047471184558,1.6,2168.0,42.27132,0.3,68900.0,0.33,276.0,2700.0,19.669337386510893,1.758025852548824,4746.669801881824,12.021303316106604,3.35406726833361,7.6480340704042895,1.5960414157847862,2063,74,672,1049,160.55067950951317,92.55942511094808,0.0013506806098203,False
0.19,0.5187916760972144,1.6,2169.0,42.27132,0.2,68900.0,0.33,276.0,2700.0,13.261485075016257,1.24547562611923,3362.784190521921,8.597636124571856,1.937750464618346,4.663848950444399,0.692274838499116,3004,88,990,1513,227.6215332156648,129.2047855292914,0.0009335848633753,False
0.2,0.665624053075648,1.6,2170.0,42.27132,0.3,68900.0,0.33,276.0,2700.0,19.664605991570625,1.949705438337917,5264.204683512377,12.259180940802958,3.462348316158812,7.405425050767667,1.5126428778208945,2048,74,668,1040,152.52163731557124,87.91576373100581,0.0012482880595876,False
0.21,0.7426228507088374,1.6,2171.0,42.27132,0.3,68900.0,0.33,276.0,2700.0,23.31529671126816,2.428709961639889,6557.516896427702,14.395870548620453,4.487595658238787,8.919426162647705,2.0588856965988973,2365,82,780,1189,158.4846553913877,91.2452497128645,0.0013940006895782,False
0.22,0.8013435345439652,1.6,2172.0,42.27132,0.3,68900.0,0.33,276.0,2700.0,26.216734211984004,2.861539644267958,7726.157039523487,16.125497116978117,5.383289384183005,10.091237095005887,2.521749739915047,2794,90,914,1417,161.3175144727306,92.7081515146952,0.0015145472289304,False
0.23,0.5546357229011224,1.6,2173.0,42.27132,0.2,68900.0,0.33,276.0,2700.0,14.02942657833456,1.5879015512976566,4287.3341885036725,9.441483234424384,2.260951532257741,4.587943343910176,0.6730499809600843,3140,90,1042,1571,173.05627644228076,99.1587029357346,0.0008624388778386,False
0.24,0.9159874697525024,1.6,2174.0,42.27132,0.3,68900.0,0.33,276.0,2700.0,32.29019477109581,3.845870454636013,10383.850227517236,19.752110616357417,7.436708634975213,12.538084154738396,3.5908381803392,3248,100,1066,1643,162.5160592026956,93.09090463612536,0.0017950826050966,False
0.25,0.941365199940822,1.6,2175.0,42.27132,0.3,68900.0,0.33,276.0,2700.0,33.55646450405703,4.161833139532112,11236.9494767367,20.5995562282448,7.948691261099519,12.956908275812232,3.7868581215674073,3251,100,1070,1640,161.3512794581794,91.9829880085798,0.0018120405305985,False
0.26,0.8572878592339381,1.6,2176.0,42.27132,0.3,68900.0,0.33,276.0,2700.0,28.341637291783485,3.647601759612191,9848.524750952914,17.85395707322406,6.333401479834918,10.487680218559426,2.685799720222727,2869,92,942,1450,143.49566272945734,82.24516628831452,0.0014394082220624,False
0.27,0.6232343078403813,1.6,2177.0,42.27132,0.3,68900.0,0.33,276.0,2700.0,16.265537797365162,2.154623623843891,5817.483784378506,11.146476904954556,2.9664279090967005,5.119060892410605,0.8118042852528093,1795,68,592,901,106.1453188130938,61.18363616811544,0.0008717698932082,False
0.28,0.8696528069682792,1.6,2178.0,42.27132,0.3,68900.0,0.33,276.0,2700.0,28.54364287348725,3.950133841000482,10665.361370701305,18.246599471359698,6.556588267806598,10.297043402127557,2.606454426806116,2972,94,978,1499,134.73883843134092,77.02023613515084,0.0013567877407479,False
0.29,0.8727040296481618,1.6,2179.0,42.27132,0.3,68900.0,0.33,276.0,2700.0,28.46889594451773,4.076909709802809,11007.656216467583,18.344080538419743,6.612411364670706,10.12481540609798,2.535501654867897,2991,94,984,1509,131.73765835255182,75.43880647406266,0.0013147939159221,False
0.3,0.9087347414581528,1.6,2180.0,42.27132,0.3,68900.0,0.33,276.0,2700.0,30.28913026889111,4.486820872569047,12114.416355936428,19.5128921959146,7.294320235567618,10.776238072976517,2.8074993629985707,3086,96,1022,1547,131.44538133892263,75.19949595693184,0.0013695340314957,False
0.31,0.8745601742274093,1.6,2181.0,42.27132,0.3,68900.0,0.33,276.0,2700.0,28.084329949361795,4.290677017655413,11584.827947669615,18.40349547775036,6.646515758289028,9.680834471611432,2.355838740633615,2706,90,896,1356,125.15868260442012,71.53443064653543,0.0012314694341302,False
0.32,0.8475899290270339,1.6,2182.0,42.27132,0.3,68900.0,0.33,276.0,2700.0,26.350469130341686,4.147445922139412,11198.103989776411,17.54869316504233,6.1617371745346405,8.801775965299356,2.0142912523952283,2656,88,882,1327,118.33974888834872,67.6942194955056,0.0011466016277852,False
0.33,0.9492858081879868,1.6,2183.0,42.27132,0.3,68900.0,0.33,276.0,2700.0,31.91249610745223,5.190295580934916,14013.798068524273,20.867365598801435,8.112911841882546,11.045130508650796,2.9226162609476303,3005,96,994,1508,125.23860180255076,71.49996675614835,0.0013333911525703,False
0.34,0.7825080158606548,1.6,2184.0,42.27132,0.3,68900.0,0.33,276.0,2700.0,22.470492334400102,3.737665591743556,10091.697097707602,15.561253499486964,5.084885188153071,6.909238834913143,1.3472195964095146,2401,82,792,1207,105.0222569818995,60.1692275556567,0.0009693473546071,False
0.3500000000000001,0.8588921976498055,1.6,2185.0,42.27132,0.3,68900.0,0.33,276.0,2700.0,26.274956361801173,4.508320173300096,12172.46446791026,17.90468505248848,6.362085952817068,8.370271309312692,1.853765779516972,2580,86,858,1287,110.9723044612448,63.355823490697176,0.0010731779694665,False
0.36,0.909205882947456,1.6,2186.0,42.27132,0.3,68900.0,0.33,276.0,2700.0,28.83996949866844,5.093478411863065,13752.391712030274,19.52839181434589,7.303517219695031,9.31157768432255,2.2100388078319666,2820,92,942,1401,110.78487284154744,63.16585929232114,0.0011388042447223,False
0.37,1.0682415636951827,1.6,2187.0,42.27132,0.3,68900.0,0.33,276.0,2700.0,38.22523840598975,6.965581709986583,18807.07061696377,25.079124161537955,10.84218608954138,13.146114244451796,3.876604379554796,3645,108,1210,1824,394.0998413740893,213.145914430958,0.0018336753631485,True
0.38,0.7316648581562143,1.6,2188.0,42.27132,0.2,68900.0,0.33,276.0,2700.0,19.17207697773896,3.5277709777118686,9524.981639822045,14.082696137670876,4.331564453234829,5.089380840068081,0.8037934755229608,4974,104,1274,2769,98.35004205726706,56.572262151550106,0.0008202451102516,False
0.39,0.7096288873179561,1.6,2189.0,42.27132,0.3,68900.0,0.33,276.0,2700.0,17.95912807065986,3.3777925506998097,9120.039886889486,13.462054608658123,4.02809920182573,4.4970734620017385,0.6503066511259208,1843,68,610,922,83.5190660114325,47.76910116624104,0.0007561873367236,False
0.4,1.0900070175339882,1.6,2190.0,42.27132,0.3,68900.0,0.33,276.0,2700.0,38.807920766755416,7.6275428667979135,20594.36574035437,25.8882428943602,11.396828431584698,12.919677872395216,3.769285564786784,3625,108,1206,1810,114.05763407290564,64.3978706355082,0.0013956168966335,False
0.4100000000000001,0.7601172190599667,1.6,2191.0,42.27132,0.2,68900.0,0.33,276.0,2700.0,19.962280447330823,3.947919686850771,10659.383154497082,14.902106575159497,4.743859246296318,5.060173872171326,0.795939559445547,5183,104,1282,2924,93.06747300285043,53.4439450061647,0.0008074623134603,False
0.42,0.7336132384365439,1.6,2192.0,42.27132,0.3,68900.0,0.33,276.0,2700.0,18.526887067267687,3.735476739780108,10085.787197406293,14.138159362213129,4.359056916918777,4.38872770505456,0.6235801771386695,1902,70,636,942,77.51410952641223,44.31172126740035,0.0007411164374866,False
0.43,1.099815579704355,1.6,2193.0,42.27132,0.3,68900.0,0.33,276.0,2700.0,38.62842193882961,8.138591645442395,21974.197442694465,26.2567625300519,11.652560218975262,12.37165940877771,3.513968573532868,3969,110,1310,1992,110.67247790193392,63.10769030498545,0.0013008629144306,False
0.44,1.0410155315857628,1.6,2194.0,42.27132,0.3,68900.0,0.33,276.0,2700.0,34.66506038903921,7.447904333186366,20109.34169960319,24.08377302066961,10.172973048901206,10.581287368369598,2.72506871571484,3435,102,1112,1737,104.88611680536744,59.82607189520216,0.0011539027156436,False
0.45,0.950175724712044,1.6,2195.0,42.27132,0.3,68900.0,0.33,276.0,2700.0,29.06966982014329,6.349823955826662,17144.52468073199,20.89755373342692,8.131495486326312,8.172116086716372,1.7816715304996498,2672,90,892,1328,93.78688575429632,53.41010291495113,0.0009847331778952,False
0.46,0.8525360435633683,1.6,2196.0,42.27132,0.3,68900.0,0.33,276.0,2700.0,23.58657399272488,5.221051976640179,14096.840336928482,17.70408776574303,6.248919067212349,5.88248622698185,1.0278670905721707,2729,82,814,1436,93.59657295281656,53.49156982265611,0.000846383661484,False
0.4700000000000001,0.8266347166188932,1.6,2197.0,42.27132,0.3,68900.0,0.33,276.0,2700.0,22.08073199954722,4.971525637177829,13423.11922038014,16.897153200429692,5.800846433307296,5.183578799117527,0.8293207961294664,2464,78,770,1263,87.10137537501345,50.09745693928191,0.0007910639608253,False
0.4800000000000001,1.1098882305456714,1.6,2198.0,42.27132,0.3,68900.0,0.33,276.0,2700.0,37.95587089510438,8.877785671661185,23970.0213134852,26.637720796600043,11.918951909590454,11.31815009850434,3.0411662379292697,3965,108,1228,2049,103.40651997506168,59.12196785049339,0.0011739533463206,False
0.49,0.987561993933014,1.6,2199.0,42.27132,0.3,68900.0,0.33,276.0,2700.0,30.296838704762106,7.176321993265264,19376.06938181621,22.18376951054635,8.93671101615681,8.113069194215754,1.7603890228915455,3199,94,976,1663,96.87168445070968,55.18071651942576,0.0009786915223471,False
0.5,0.9381670387631136,1.6,2200.0,42.27132,0.3,68900.0,0.33,276.0,2700.0,27.30942522151274,6.565556917578801,17727.003677462762,20.491867760469844,7.882982831142096,6.817557461042895,1.3174259135632944,3088,88,878,1655,95.38517640319994,54.6257584873324,0.0009024126300595,False
0.04,0.644092838116732,1.6,2204.0,45.2907,0.1,68900.0,0.33,276.0,2700.0,22.347182533152296,0.4468096093766471,1206.3859453169473,11.688356472467769,3.2045594339445755,10.658826060684529,2.757749824567928,17931,232,5904,9069,807.3104080468439,460.8639023547298,0.0063855552883128,True
0.05,0.5388005351516725,1.6,2205.0,45.2907,0.1,68900.0,0.33,276.0,2700.0,16.981097914209606,0.4242656484674391,1145.5172508620856,9.064706766720583,2.1144353519241204,7.916391147489021,1.6901697034566812,13233,196,4348,6705,543.5913747330377,310.72818662262995,0.0039026357953823,True
0.06,0.3708914120488686,1.6,2206.0,45.2907,0.1,68900.0,0.33,276.0,2700.0,9.79724730818285,0.2934650299033678,792.3555807390933,5.457242618219542,0.9051662021920072,4.340004689963308,0.6117011722886394,8033,142,2624,4091,278.5168020036723,160.111269283142,0.0018628275699554,True
0.0699999999999999,0.681140583308989,1.6,2207.0,45.2907,0.2,68900.0,0.33,276.0,2700.0,23.51507535661874,0.8223092599615349,2220.235001896144,12.677770998230155,3.655807976258348,10.837304358388586,2.8334987162968126,4867,122,1602,2458,448.18632254885966,256.023597905898,0.0039952003231252,True
0.08,0.7239118754076928,1.6,2208.0,45.2907,0.2,68900.0,0.33,276.0,2700.0,25.546550648142368,1.0207896956332394,2756.1321782097466,13.86294239124541,4.22323440256354,11.683608256896958,3.202444706930301,5215,128,1714,2638,414.7093037294799,237.3174616006819,0.0038868432819738,True
0.09,0.5623007435390643,1.6,2209.0,45.2907,0.2,68900.0,0.33,276.0,2700.0,17.177365423144675,0.7714546300118652,2082.927501032036,9.62612541130486,2.3340273959618765,7.551240011839816,1.5625727659500113,3665,100,1206,1850,285.72192310814734,164.9192764076734,0.0022258289581384,True
0.0999999999999999,0.5406652340393523,1.6,2210.0,45.2907,0.2,68900.0,0.33,276.0,2700.0,15.979008801737946,0.7968560449845032,2151.511321458159,9.108747343295317,2.1313793481767136,6.870261458442629,1.3345233031922104,3461,96,1132,1757,248.6271612339328,143.521382933873,0.0019100425903293,False
0.11,0.6578732873071644,1.6,2211.0,45.2907,0.3,68900.0,0.33,276.0,2700.0,21.332163837454846,1.1704813711787307,3160.299702182573,12.052354433557102,3.36813278327659,9.279809403897744,2.1976514120978594,2183,78,716,1103,280.0000130488922,161.65741811565132,0.002349645743397,True
0.12,0.6886742067586735,1.6,2212.0,45.2907,0.3,68900.0,0.33,276.0,2700.0,22.66396773187014,1.3562189491752743,3661.791162773241,12.883188024762442,3.752090400894573,9.7807797071077,2.395871451719298,2277,80,748,1149,262.38374632424143,151.02805820901824,0.0023297524572153,False
0.13,0.5688204967492341,1.6,2213.0,45.2907,0.2,68900.0,0.33,276.0,2700.0,16.615669673855034,1.0754171427606205,2903.626285453675,9.78434146995818,2.3973025424088963,6.831328203896856,1.321885399648276,3562,98,1166,1807,202.21190920362167,116.6167859560694,0.0016037379189296,False
0.14,0.6851436480674986,1.6,2214.0,45.2907,0.3,68900.0,0.33,276.0,2700.0,22.00161953389856,1.534366347211933,4142.78913747222,12.78674375012931,3.706775892699575,9.21487578376925,2.1724095454876413,2287,80,752,1153,228.3678104197791,131.8033856835953,0.0019601809451517,False
0.15,0.5968793840526527,1.6,2215.0,45.2907,0.3,68900.0,0.33,276.0,2700.0,17.479484714206524,1.303892770094912,3520.510479256263,10.47744405736468,2.6815178538958304,7.002040656841846,1.3776250838009183,1939,72,634,982,189.84680841360776,109.60512554109604,0.0015017722629704,False
0.16,0.8484520450869639,1.6,2216.0,45.2907,0.3,68900.0,0.33,276.0,2700.0,30.45284445782597,2.4276489142866766,6554.652068574027,17.57573445989998,6.176877839767985,12.877109997925992,3.749228925481309,3052,96,1000,1546,245.5081664908976,141.31896272409676,0.0025582334933482,False
0.17,0.6190932040468166,1.6,2217.0,45.2907,0.3,68900.0,0.33,276.0,2700.0,18.08941902434948,1.527310853931649,4123.739305615452,11.040196948543848,2.9204893981989195,7.049222075805631,1.3931785442672706,1969,72,644,997,179.21211267003426,103.44658755784693,0.001406462415659,False
0.18,0.7127775126319484,1.6,2218.0,45.2907,0.2,68900.0,0.33,276.0,2700.0,22.473039742895164,2.010359064623405,5427.969474483195,13.549988101805369,4.070624537179649,8.923051641089797,2.0602654725562437,4674,118,1540,2358,183.31633697006308,105.71003151300144,0.0016252770494012,False
0.19,0.8397691587258052,1.6,2219.0,45.2907,0.3,68900.0,0.33,276.0,2700.0,29.141951968159358,2.754119980967827,7436.123948613133,17.30423875220264,6.02544978897016,11.837713215956716,3.2713298080023323,3009,94,986,1524,202.8594745595369,116.66883617221856,0.0020889397560877,False
0.2,0.624754325353837,1.6,2220.0,45.2907,0.2,68900.0,0.33,276.0,2700.0,17.722869263406235,1.7555317655214775,4739.935766907989,11.185595747628716,2.983400472513178,6.537273515777519,1.2278687069917005,3803,102,1246,1928,147.3358481293927,84.99070476767766,0.0012281662263909,False
0.21,0.7426483818021037,1.6,2221.0,45.2907,0.3,68900.0,0.33,276.0,2700.0,23.316628343006656,2.428849782972434,6557.894414025572,14.39660373945754,4.487963209911961,8.920024603549116,2.0591134269395277,2377,82,782,1198,169.81047371448133,97.76429619692684,0.0014933231623711,False
0.22,0.8840165688702004,1.6,2222.0,45.2907,0.3,68900.0,0.33,276.0,2700.0,30.923699385731847,3.379305813380224,9124.125696126604,18.70753770146661,6.821982274892266,12.21616168426524,3.442676461512041,3037,96,998,1534,184.347336261404,105.43312604714278,0.0019738503119112,False
0.23,0.7877032545610416,1.6,2223.0,45.2907,0.3,68900.0,0.33,276.0,2700.0,25.23119302090903,2.8761046921937203,7765.482668923045,15.715993441344477,5.166131276346838,9.515199579564552,2.2900265841531176,2520,86,834,1263,161.39344552763205,92.81329563307672,0.0014938172559959,False
0.24,0.8401207666460025,1.6,2224.0,45.2907,0.3,68900.0,0.33,276.0,2700.0,27.87398268192666,3.3159250039357167,8952.997510626436,17.31519598572664,6.031536022602425,10.55878669620002,2.715611018666708,2865,92,944,1443,162.5722711905185,93.21495585221253,0.0016185533073399,False
0.25,0.6226026835161788,1.6,2225.0,45.2907,0.2,68900.0,0.33,276.0,2700.0,16.620673278708153,2.0448592363636253,5521.119938181789,11.130238635730986,2.959392651925041,5.490434642977167,0.9145334155614157,3337,96,1106,1672,121.04837047202876,69.7734314187509,0.0010027864335082,False
0.26,0.8421673492176387,1.6,2226.0,45.2907,0.3,68900.0,0.33,276.0,2700.0,27.490599824706027,3.536966888892122,9549.810600008732,17.379035757172165,6.067038309659699,10.111564067533862,2.5300714207675763,2903,92,956,1463,151.6083585331105,86.9793963033734,0.0014854675087372,False
0.27,0.9117352075664042,1.6,2227.0,45.2907,0.3,68900.0,0.33,276.0,2700.0,31.238256872956462,4.175940699048719,11275.039887431542,19.61169693445419,7.353016180835056,11.626559938502275,3.1770754817863374,3178,98,1048,1600,155.76752025207105,88.86354206358119,0.0016667559756789,False
0.28,0.7727230689011368,1.6,2228.0,45.2907,0.3,68900.0,0.33,276.0,2700.0,23.275857326174187,3.212643864376652,8674.138433816961,15.271651294313912,4.934037981303764,8.004206031860274,1.7213941169271116,2411,84,796,1211,132.9401878226809,76.29923419049847,0.0012103174600275,False
0.29,0.7662459685655258,1.6,2229.0,45.2907,0.3,68900.0,0.33,276.0,2700.0,22.71920207440599,3.2432040986365998,8756.651066318818,15.081274082733229,4.835739078846137,7.637927991672765,1.5925349802095377,2317,82,768,1159,128.2898803309545,73.63541315963656,0.0011626848852626,False
0.3,0.8313428934183924,1.6,2230.0,45.2907,0.3,68900.0,0.33,276.0,2700.0,25.93202405408677,3.8332549403484015,10349.788338940683,17.04257869501309,5.880743343869708,8.889445359073683,2.047488403521306,2676,88,888,1338,132.70640525037047,75.90462657468305,0.0012677409967991,False
0.31,0.8318462168803165,1.6,2231.0,45.2907,0.3,68900.0,0.33,276.0,2700.0,25.72644631510852,3.9252050543464287,10598.053646735358,17.058158240910746,5.8893251940870295,8.668288074197775,1.9641201397406007,2568,86,856,1278,128.50542881194102,73.57860123012205,0.0012271490621782,False
0.32,0.6728824903792459,1.6,2232.0,45.2907,0.2,68900.0,0.33,276.0,2700.0,17.56664110237382,2.742033437664592,7403.490281694398,12.454238855655635,3.552037919315949,5.112402246718183,0.8100044816513572,3848,102,1236,1956,107.4761163908036,61.58499931804927,0.0008956069541886,False
0.33,0.9991679070731656,1.6,2233.0,45.2907,0.3,68900.0,0.33,276.0,2700.0,34.94444836806733,5.690567703936404,15364.53280062829,22.59019791984136,9.196529130490475,12.354250448225963,3.5059614265540717,3407,104,1128,1709,139.0791894792718,79.04812596627623,0.0015879413415303,False
0.34,0.8924630596758678,1.6,2234.0,45.2907,0.3,68900.0,0.33,276.0,2700.0,28.37042440297022,4.7406540434004745,12799.76591718128,18.98100971648204,6.98114899743265,9.389414686488175,2.240494954032176,2697,90,896,1347,124.8877470718621,71.28861473206211,0.0012489742520832,False
0.3500000000000001,0.9551259778204008,1.6,2235.0,45.2907,0.3,68900.0,0.33,276.0,2700.0,31.75075304565616,5.466584592974722,14759.778401031748,21.06584166595154,8.23535994652015,10.68491137970462,2.7687753535454283,2993,96,990,1502,126.7721459093238,72.27308971416194,0.001348749166178,False
0.36,0.6627331724415766,1.6,2236.0,45.2907,0.2,68900.0,0.33,276.0,2700.0,16.376942897778022,2.850133623702787,7695.360783997524,12.181862240345366,3.427020297554203,4.195080657432657,0.576886673851416,4133,96,1122,2254,104.51744407730892,60.17395986496166,0.0008108161322384,False
0.37,0.9398118618221148,1.6,2237.0,45.2907,0.3,68900.0,0.33,276.0,2700.0,30.35571281019332,5.50971947476424,14876.242581863447,20.547220127937145,7.916733840861155,9.808492682256173,2.4070143660969148,2809,92,934,1402,119.66410197292365,68.15782916692525,0.0012478366213549,False
0.38,0.7428092884607068,1.6,2238.0,45.2907,0.3,68900.0,0.33,276.0,2700.0,19.702700398676324,3.6285894276899815,9797.19145476295,14.40122496390658,4.490280091099078,5.3014754347697455,0.8616906634090964,2009,72,668,1001,98.40589013884008,56.12588918593825,0.000875441042823,False
0.39,0.9073705062263148,1.6,2239.0,45.2907,0.3,68900.0,0.33,276.0,2700.0,28.032887234376755,5.342175587624602,14423.874086586427,19.46804303346003,7.267730658280394,8.564844200916724,1.925555070655792,2551,88,848,1273,112.43914286117614,64.05094215618016,0.0011283792846517,False
0.4,0.9616157752894456,1.6,2240.0,45.2907,0.3,68900.0,0.33,276.0,2700.0,30.896965825094803,6.045351878465799,16322.450071857656,21.28740065005674,8.372791356445193,9.609565175038064,2.327439477979394,3082,96,1032,1528,113.41385390243104,64.61022113916492,0.0012014600977844,False
0.4100000000000001,1.0945212512572238,1.6,2241.0,45.2907,0.3,68900.0,0.33,276.0,2700.0,38.82732204055976,7.815253213462713,21101.183676349323,26.057547823219963,11.514075959034908,12.769774217339794,3.698822745572194,3636,108,1210,1815,120.68378412450916,68.38905088669905,0.0014619176382443,False
0.42,0.7365247915700417,1.6,2242.0,45.2907,0.3,68900.0,0.33,276.0,2700.0,18.66227149389046,3.7639074693708894,10162.5501673014,14.22121839093486,4.400341782806265,4.4410531029556015,0.6364343134353758,1915,70,638,952,88.02283269418535,50.379081199271226,0.0007976405736409,False
0.43,0.9762569278851476,1.6,2243.0,45.2907,0.2,68900.0,0.33,276.0,2700.0,31.032467570883195,6.505461456333912,17564.745932101563,21.79113130718928,8.688144463123072,9.241336263693915,2.1826830067891594,8283,140,2054,4664,112.70260569322544,64.2671523504269,0.0011695378454991,False
0.44,1.079814797592012,1.6,2244.0,45.2907,0.3,68900.0,0.33,276.0,2700.0,37.08419721226844,7.980114434296794,21546.308972601342,25.507870453012064,11.134910403391991,11.576326759256371,3.154795969095198,3513,106,1166,1754,110.48775877074348,62.6277508214753,0.0013043967358459,False
0.45,0.7873091468654559,1.6,2245.0,45.2907,0.2,68900.0,0.33,276.0,2700.0,20.52500232228121,4.427273768807692,11953.639175780769,15.704231184435203,5.159939800314017,4.820771137846007,0.7326660315063256,5486,108,1376,3072,98.18613965079231,56.07725546751727,0.0008269096986019,False
0.46,0.8707671311554279,1.6,2246.0,45.2907,0.3,68900.0,0.33,276.0,2700.0,24.531973744099325,5.438493919456303,14683.93358253202,18.2821729989872,6.576940712253913,6.249800745112125,1.13844679279761,2805,84,850,1466,97.60721391085,56.2268381354803,0.0009312557449764,False
0.4700000000000001,0.8582679047732289,1.6,2247.0,45.2907,0.3,68900.0,0.33,276.0,2700.0,23.682637475982457,5.347973424140108,14439.52824517829,17.884937690696045,6.350914350059696,5.797699785286412,1.0029409259195887,2801,82,814,1490,98.62267968064693,56.40069669408042,0.0009005353384358,False
0.4800000000000001,0.98342556174089,1.6,2248.0,45.2907,0.3,68900.0,0.33,276.0,2700.0,30.28550648399768,7.036898212995579,18999.625175088066,22.039733743807407,8.845247403131966,8.245772740190272,1.8083491901363864,3074,94,980,1562,104.55747102508312,60.12433726173479,0.0010579327294716,False
0.49,1.1024471693340936,1.6,2249.0,45.2907,0.3,68900.0,0.33,276.0,2700.0,37.22657568508264,8.874107553443704,23960.090394298,26.35604594987759,11.721787841400042,10.870529735205048,2.8476802879563383,4015,106,1212,2101,108.54383039581528,62.24644933430826,0.001224660197802,False
0.5,0.9226258932976164,1.6,2250.0,45.2907,0.3,68900.0,0.33,276.0,2700.0,26.465437680173004,6.3545600322441045,17157.312087059083,19.972226092954465,7.5685615083298705,6.493211587218539,1.214001476085766,3041,86,858,1632,98.6831453990358,56.34218998760096,0.0009452292837442,False
0.04,0.711500864930811,1.6,2254.0,48.31008,0.1,68900.0,0.33,276.0,2700.0,25.93131242047485,0.5184922071229447,1399.9289592319508,13.514304386021992,4.053348758143748,12.417008034452858,3.5348565510208028,20639,254,6814,10412,982.764570326015,560.0787405699598,0.0081552699140499,True
0.05,0.354123982609294,1.6,2255.0,48.31008,0.1,68900.0,0.33,276.0,2700.0,9.355582045632216,0.2336277517530053,630.7949297331143,5.135913132280404,0.8163660796007549,4.219668913351811,0.5827383278477496,7754,140,2542,3935,348.6153579590514,200.0603627776777,0.0022174201662121,True
0.06,0.5366487500915749,1.6,2256.0,48.31008,0.1,68900.0,0.33,276.0,2700.0,16.66079464864255,0.499371450117159,1348.3029153163295,9.01399437696305,2.0949846332774182,7.646800271679501,1.5956131831602591,13072,194,4286,6637,468.0390526377069,267.9051304039772,0.0032803882521738,True
0.0699999999999999,0.630644860426669,1.6,2257.0,48.31008,0.2,68900.0,0.33,276.0,2700.0,20.923853747058043,0.7316165036269104,1975.3645597926584,11.337741835677262,3.049737299431084,9.58611191138078,2.318120795804173,4275,112,1404,2163,441.569524921552,252.32178435611957,0.003716620285637,True
0.08,0.4614961311071182,1.6,2258.0,48.31008,0.2,68900.0,0.33,276.0,2700.0,12.979952325471016,0.5181257627264152,1398.939559361321,7.315834150075847,1.4822589205081655,5.66411817539517,0.9641331577817503,2765,84,908,1397,286.48708269573865,165.194073597165,0.0020252199138469,True
0.09,0.5391004915453763,1.6,2259.0,48.31008,0.2,68900.0,0.33,276.0,2700.0,16.121162849747456,0.7239255142089913,1954.5988883642765,9.07178525776532,2.117155430238648,7.049377591982138,1.3932299160296564,3627,98,1184,1845,292.38191899999015,168.79985707600767,0.0022392309804802,True
0.0999999999999999,0.5647355776358973,1.6,2260.0,48.31008,0.2,68900.0,0.33,276.0,2700.0,17.0711927332521,0.851465241560211,2298.9561522125696,9.68508699489731,2.357537164938789,7.386105738354791,1.5060719233785784,3731,100,1226,1886,276.50422093524685,159.56124069173853,0.0021651098609749,True
0.11,0.4864833323800439,1.6,2261.0,48.31008,0.2,68900.0,0.33,276.0,2700.0,13.430673823740891,0.7358994204244647,1986.9284351460549,7.864696960448948,1.671885738963744,5.565976863291943,0.9359863185392794,2914,86,952,1480,219.91871883893612,126.95497916989366,0.0016147336387295,False
0.12,0.6820897575135264,1.6,2262.0,48.31008,0.3,68900.0,0.33,276.0,2700.0,22.32459652607026,1.3358566768272806,3606.8130274336577,12.703573306321786,3.667853633112526,9.621023219748473,2.3319969562852454,2244,80,736,1134,279.46910295335726,161.28085319478333,0.0024434690022785,True
0.13,0.6993808071665674,1.6,2263.0,48.31008,0.3,68900.0,0.33,276.0,2700.0,22.975564226282945,1.4888102886684424,4019.7877794047945,13.177575748442043,3.891598922441631,9.7979884778409,2.4027886337731883,2317,80,762,1168,263.6253928346372,152.1261040227209,0.0023491559929932,False
0.14,0.8133971232299021,1.6,2264.0,48.31008,0.3,68900.0,0.33,276.0,2700.0,28.95937654277355,2.021409337832829,5457.805212148638,16.491257552772336,5.579860188895383,12.468118990001216,3.558450851062554,3035,96,998,1532,282.80780275543844,162.94489511976002,0.0028875316926094,True
0.15,0.6792026390093839,1.6,2265.0,48.31008,0.3,68900.0,0.33,276.0,2700.0,21.46456587780092,1.6027738573644912,4327.489414884126,12.625160318956876,3.631290155747049,8.839405558844042,2.028516298382557,2223,80,732,1119,227.35386761411468,131.20036524124453,0.0019209618590586,False
0.16,0.5011660831872681,1.6,2266.0,48.31008,0.3,68900.0,0.33,276.0,2700.0,13.086963585578657,1.0383784445068889,2803.6218001686,8.194534166752991,1.789775953860029,4.892429418825664,0.7513975093531402,1446,60,470,735,164.34433730695218,94.88268728520993,0.0011933922792819,False
0.17,0.709853438542171,1.6,2267.0,48.31008,0.2,68900.0,0.33,276.0,2700.0,22.557881095115476,1.9071301299467576,5149.251350856245,13.468317530358355,4.031122825818206,9.089563564757118,2.123992695871448,4698,118,1544,2376,205.38705257504705,118.46048150724008,0.0018175038196108,False
0.18,0.6657223398275949,1.6,2268.0,48.31008,0.3,68900.0,0.33,276.0,2700.0,20.10956289247485,1.797646148085297,4853.644599830302,12.261813383254111,3.463553360600254,7.847749509220739,1.6659072125149572,2134,76,696,1084,190.6316437290646,109.97986836125146,0.0015745457380488,False
0.19,0.5407773368315187,1.6,2269.0,48.31008,0.3,68900.0,0.33,276.0,2700.0,14.18402199853648,1.33311663385365,3599.414911404855,9.111397778919846,2.1324006127447017,5.072624219616635,0.7992839788910517,1561,62,510,790,149.33232993877093,86.2136828124523,0.0011279205581292,False
0.2,0.5041022463899724,1.6,2270.0,48.31008,0.3,68900.0,0.33,276.0,2700.0,12.480427261694963,1.231287565350348,3324.47642644594,8.261142998842509,1.81393417772958,4.219284262852456,0.582646612379232,1389,58,456,699,135.78625143732805,78.39340577462143,0.0009839078318352,False
0.21,0.804545362382995,1.6,2271.0,48.31008,0.3,68900.0,0.33,276.0,2700.0,26.64133411994368,2.777943889550825,7500.448501787228,16.222298911482802,5.435075352363787,10.41903520846088,2.657131462812962,2748,90,900,1392,191.5158548096356,110.12507304104147,0.0018362866859248,False
0.22,0.8985744811947516,1.6,2272.0,48.31008,0.3,68900.0,0.33,276.0,2700.0,31.7881247739086,3.474392606079664,9380.860036415092,19.179997222316143,7.097757518863451,12.608127551592451,3.623364912783788,3040,98,1000,1534,198.97147866824932,114.16592359565696,0.0021763191354782,False
0.23,0.846238240923452,1.6,2273.0,48.31008,0.3,68900.0,0.33,276.0,2700.0,28.473509794124084,3.248971121113453,8772.222027006323,17.5063334644354,6.138045448473784,10.967176329688684,2.889074327360331,2904,92,958,1461,183.3051146072717,104.95832131333248,0.0018406280659872,False
0.24,0.8846475263590249,1.6,2274.0,48.31008,0.3,68900.0,0.33,276.0,2700.0,30.430820108555043,3.6227454951311215,9781.412836854028,18.727904242595315,6.833792360587206,11.702915865959728,3.2110468654560846,3016,96,990,1525,179.74510761878,103.2033728027145,0.0019137242989239,False
0.25,0.9143901776116332,1.6,2275.0,48.31008,0.3,68900.0,0.33,276.0,2700.0,31.92546759582992,3.957958526003744,10686.488020210109,19.699313242151533,7.405200918873354,12.226154353678384,3.44724239286961,3194,98,1052,1610,179.05754379419477,102.2179590867581,0.0019533844553412,False
0.26,0.6326376590648155,1.6,2276.0,48.31008,0.2,68900.0,0.33,276.0,2700.0,16.880524864985183,2.1576571441284105,5825.674289146708,11.389411064606964,3.07238260253058,5.491113800378219,0.9147254584021688,3263,96,1084,1631,126.61746400091644,72.64052899409137,0.001055703209602,False
0.27,0.840296067441699,1.6,2277.0,48.31008,0.3,68900.0,0.33,276.0,2700.0,27.140957754068697,3.6228053179988695,9781.574358596949,17.3206600829922,6.03457186915538,9.820297671076496,2.4117665511565107,2695,88,894,1348,156.0388023095408,89.45551819708565,0.0015126104605436,False
0.28,0.6736248880963964,1.6,2278.0,48.31008,0.3,68900.0,0.33,276.0,2700.0,18.37845353633245,2.5270073337988093,6822.919801256785,12.474264148576726,3.561291350320135,5.904189387755725,1.0342840165213256,2039,74,674,1022,125.81309221163428,72.39344758233949,0.0010761988657455,False
0.29,0.6380157247851376,1.6,2279.0,48.31008,0.3,68900.0,0.33,276.0,2700.0,16.549962493676578,2.3486643594308365,6341.393770463259,11.529351549847464,3.134011582525693,5.020610943829112,0.7853472230948566,1772,68,584,890,117.05817033879468,67.34302259216032,0.0009654233976981,False
0.3,0.8287964671350914,1.6,2280.0,48.31008,0.3,68900.0,0.33,276.0,2700.0,25.79377800187009,3.8125180325159,10293.798687792929,16.963855867979316,5.837445939065574,8.829922133890776,2.024927906549675,2675,88,886,1340,140.90786257842072,80.59395720725851,0.0013464110355672,False
0.31,0.818453548914509,1.6,2281.0,48.31008,0.2,68900.0,0.33,276.0,2700.0,25.006033274741224,3.8135410330894337,10296.56078934147,16.64577957968329,5.663637400966217,8.360253695057935,1.8500963678767837,5034,122,1662,2529,135.1602655258743,77.26354984469225,0.0012815833441448,False
0.32,0.8102168088397694,1.6,2282.0,48.31008,0.3,68900.0,0.33,276.0,2700.0,24.342450865892364,3.8261629998275497,10330.640099534385,16.39439779944542,5.527566894792705,7.948053066446942,1.701403894965155,2480,84,818,1247,130.52811674681723,74.66863433326188,0.0012234409573958,False
0.33,0.698635305704325,1.6,2283.0,48.31008,0.3,68900.0,0.33,276.0,2700.0,18.570579579949857,2.9888793538970257,8069.974255521969,13.156984189118186,3.8817826968389,5.413595390831672,0.892903342941874,1920,70,634,963,285.7632077501056,164.58530088342366,0.0009769827618224,True
0.34,1.039085736604078,1.6,2284.0,48.31008,0.3,68900.0,0.33,276.0,2700.0,37.18335297943391,6.238851901399304,16844.90013377812,24.013929070288665,10.126563711890284,13.16942390914524,3.8877118104909782,3522,106,1168,1764,149.14082852635056,84.86816879175734,0.0017658758607628,False
0.3500000000000001,0.6734016300098635,1.6,2285.0,48.31008,0.2,68900.0,0.33,276.0,2700.0,17.033727652757822,2.8911051492175277,7805.983902887324,12.468240571515846,3.5585070424048744,4.565487081241976,0.6674018931873471,4377,100,1210,2370,110.84154778689997,63.838586145964285,0.0009005557264895,False
0.36,0.8213269282261721,1.6,2286.0,48.31008,0.3,68900.0,0.33,276.0,2700.0,24.04604601935676,4.230572185586961,11422.544901084795,16.7338750495672,5.711593555800883,7.312170969789559,1.481021370213922,2551,84,848,1273,117.19550332069544,66.99996488047975,0.001127879773243,False
0.37,0.8647800857607426,1.6,2287.0,48.31008,0.2,68900.0,0.33,276.0,2700.0,26.14182163364976,4.7301496071036055,12771.403939179734,18.09141001050424,6.468056015396887,8.050411623145525,1.7379064082932816,6633,126,1742,3668,126.6330218692328,72.57723922630565,0.0011970935840844,False
0.38,0.7246135797503224,1.6,2288.0,48.31008,0.2,68900.0,0.33,276.0,2700.0,18.839566749011244,3.4645940342536194,9354.403892484772,13.88276961176071,4.232969045140796,4.956797137250534,0.7683750108871763,4612,102,1232,2530,112.535259099282,64.82247884450098,0.0009254438050912,False
0.39,0.9943648063355904,1.6,2289.0,48.31008,0.3,68900.0,0.33,276.0,2700.0,33.08727741911896,6.327781673649334,17085.010518853203,22.42158714627002,9.088431293537676,10.66569027284894,2.760649619888341,3257,100,1080,1631,126.63358659260147,71.86134232918366,0.0013765905103542,False
0.4,0.9354151507398132,1.6,2290.0,48.31008,0.3,68900.0,0.33,276.0,2700.0,29.384385852331096,5.742835883913056,15505.656886565252,20.399411960307543,7.826718763327679,8.98497389202355,2.083882879414623,2800,92,932,1396,117.99605484635606,67.10764484293968,0.0012327297715387,False
0.4100000000000001,0.933664999412304,1.6,2291.0,48.31008,0.3,68900.0,0.33,276.0,2700.0,29.05117889378928,5.811143868374763,15690.08844461186,20.34071074654354,7.7910680846361,8.710468147245738,1.9799242162613373,2658,90,888,1320,115.12682820238764,65.42423209286041,0.0011951081209116,False
0.42,0.796294585797851,1.6,2292.0,48.31008,0.3,68900.0,0.33,276.0,2700.0,21.535668156518323,4.367320768522743,11791.766075011405,15.973374264289262,5.302256875540694,5.562293892229061,0.9349361070179514,2150,76,716,1070,101.30618553120227,57.814291106582345,0.0009382755404476,False
0.43,1.0675279141222491,1.6,2293.0,48.31008,0.3,68900.0,0.33,276.0,2700.0,36.56942467229038,7.695907233136454,20778.949529468427,25.052796224832072,10.824297778515565,11.51662844745831,3.1283905453791103,3488,106,1162,1737,120.29491702574964,68.38446406594063,0.001396766131348,False
0.44,1.0492964100072104,1.6,2294.0,48.31008,0.3,68900.0,0.33,276.0,2700.0,35.17502218824609,7.5600959290118785,20412.259008332072,24.384540578665856,10.373651965715355,10.790481609580231,2.813556036703478,3395,102,1110,1708,118.69903112982504,67.34951844064797,0.0013323415051624,False
0.45,0.7701731527673513,1.6,2295.0,48.31008,0.2,68900.0,0.33,276.0,2700.0,19.703498326395295,4.242435369733364,11454.575498280085,15.196577422785232,4.895192302041491,4.506920903610066,0.6527569323081268,5556,108,1408,3100,100.09954472508404,57.60498709948867,0.0008687467378776,False
0.46,0.9597570890172284,1.6,2296.0,48.31008,0.3,68900.0,0.33,276.0,2700.0,29.386484829681,6.555031469140086,17698.584966678234,21.223837705843927,8.33328384232025,8.162647123837072,1.7782523731801645,3161,94,1016,1603,110.70661777780774,63.60334750424402,0.0011317992405169,False
0.4700000000000001,1.1327661241457552,1.6,2297.0,48.31008,0.3,68900.0,0.33,276.0,2700.0,39.69520222990107,9.110926141310982,24599.50058153965,27.51245985573526,12.538347866486957,12.182742374165812,3.4274217251759733,3751,108,1228,1887,117.62991175038016,66.53682273490392,0.0014104300400055,False
0.4800000000000001,1.159629665932652,1.6,2298.0,48.31008,0.3,68900.0,0.33,276.0,2700.0,41.19312723483985,9.654727193197614,26067.76342163356,28.556382236209974,13.291411105633497,12.636744998629876,3.636683912435883,4308,114,1348,2216,120.90635417096746,69.10249731951117,0.0014412251063915,False
0.49,1.1109629060228066,1.6,2299.0,48.31008,0.3,68900.0,0.33,276.0,2700.0,37.7666455149456,9.006424661759992,24317.346586751977,26.67851669741841,11.94760073347508,11.088128817527188,2.941176071715088,3940,106,1210,2045,115.24760128569652,65.70515818110438,0.0013188590384898,False
0.5,1.077765701724162,1.6,2300.0,48.31008,0.3,68900.0,0.33,276.0,2700.0,35.43486846063426,8.596917727359216,23211.67786386988,25.43171364804933,11.082720375766115,10.003154812584928,2.485802648406901,3995,104,1150,2128,114.61613923709784,65.30165644456544,0.001248953917795,False
0.03,0.4034301964663166,1.6,2303.0,51.32946,0.1,68900.0,0.33,276.0,2700.0,11.60748552894763,0.1740557342664501,469.9504825194154,6.100973946044246,1.0931392063479926,5.506511582903383,0.9190834720815424,9412,158,3098,4759,716.3085889649951,408.7206391315745,0.0044644473217737,True
0.04,0.6005813473610979,1.6,2304.0,51.32946,0.1,68900.0,0.33,276.0,2700.0,20.154944941407685,0.4029648575416016,1088.0051153623244,10.57036641584253,2.7204768586869283,9.584578525565156,2.3175120011453267,15928,218,5250,8047,849.0215984789357,484.3109114803239,0.0063908192309844,True
0.05,0.4233475458791159,1.6,2305.0,51.32946,0.1,68900.0,0.33,276.0,2700.0,12.013043257732097,0.3000642820555028,810.1735615498575,6.508138185895102,1.2186927041120157,5.504905071836995,0.9186284220565128,9520,160,3124,4828,443.15558091003305,253.63909609324645,0.0029641935886372,True
0.06,0.7221921161189525,1.6,2306.0,51.32946,0.2,68900.0,0.33,276.0,2700.0,25.981816170560126,0.7790020957746852,2103.3056585916497,13.81440154007398,4.199435228559477,12.167414630486148,3.420433132784792,5307,128,1748,2679,673.9053759492152,386.391894215608,0.008141902781494,True
0.0699999999999999,0.5136261723255245,1.6,2307.0,51.32946,0.2,68900.0,0.33,276.0,2700.0,15.41162187696145,0.5386883881735306,1454.4586480685325,8.47869088638501,1.8936468374941755,6.932930990576439,1.3549584493206446,3427,96,1128,1729,379.9133287199232,219.33539781121044,0.0028130942798758,True
0.08,0.5169383953304009,1.6,2308.0,51.32946,0.2,68900.0,0.33,276.0,2700.0,15.34657830519506,0.6127908019153899,1654.5351651715528,8.554883783132208,1.921856260326288,6.791694522062853,1.3090654584108976,3459,96,1138,1746,339.6167268583866,196.0777247007526,0.0025070075692137,True
0.09,0.7043154029215972,1.6,2309.0,51.32946,0.2,68900.0,0.33,276.0,2700.0,24.23233872944143,1.0889284287952223,2940.1067577471003,13.314226860275795,3.956961839130128,10.918111869165632,2.868033410334905,4996,124,1644,2524,407.42952582878905,233.3175317381442,0.0037054505860016,True
0.0999999999999999,0.5163181691526793,1.6,2310.0,51.32946,0.2,68900.0,0.33,276.0,2700.0,14.903895755512934,0.7431003926732517,2006.37106021778,8.540595396109032,1.916554728972148,6.363300359403903,1.1734543362988965,3481,96,1142,1762,272.2655948400156,157.16939667120283,0.0020319913215771,False
0.11,0.6070457694457403,1.6,2311.0,51.32946,0.2,68900.0,0.33,276.0,2700.0,18.8348820981783,1.0331308755185211,2789.453363900008,10.73345464696482,2.789334738589589,8.10142745121348,1.7562038630710677,4020,106,1314,2043,285.0539004093255,164.38023407993228,0.002328884594782,True
0.12,0.4445359718749819,1.6,2312.0,51.32946,0.2,68900.0,0.33,276.0,2700.0,11.538358338031438,0.6886823855449508,1859.442440971367,6.952231542961018,1.3612748050519905,4.58612679507042,0.6725924195070397,2592,80,844,1320,197.8207755332985,114.20378692625438,0.0014055601296726,False
0.13,0.7836197110164219,1.6,2313.0,51.32946,0.3,68900.0,0.33,276.0,2700.0,27.53379911654785,1.785095556535654,4819.7580026462665,15.594308240744692,5.10220292880648,11.93949087580316,3.3171073722708257,2835,92,934,1428,311.7382185927551,179.89615243830326,0.0030821525133094,True
0.14,0.7052243228464132,1.6,2314.0,51.32946,0.3,68900.0,0.33,276.0,2700.0,23.03640416832244,1.6068012716216036,4338.363433378329,13.339463835545407,3.969074872829122,9.696940332777034,2.3622736012075185,2325,80,764,1173,263.99301138618745,152.26972365124485,0.0023740190199954,False
0.15,0.4639156302574475,1.6,2315.0,51.32946,0.2,68900.0,0.33,276.0,2700.0,11.762446395253384,0.8751148961734276,2362.810219668255,7.368294126618069,1.5000230087881947,4.394152268635314,0.6249081126147671,2600,80,856,1310,167.7992281823546,96.68145250500773,0.0012124658760501,False
0.16,0.8166759540810133,1.6,2316.0,51.32946,0.3,68900.0,0.33,276.0,2700.0,28.611922506953647,2.2803751582168896,6157.012927185602,16.591383862662795,5.634096307722674,12.020538644290852,3.353721149505785,2997,94,982,1518,264.4555999118149,152.1894993942144,0.0026875965063982,False
0.17,0.6274300454457393,1.6,2317.0,51.32946,0.2,68900.0,0.33,276.0,2700.0,18.48260258267296,1.560731456389145,4213.974932250691,11.254598580296827,3.013422271806068,7.228004002376132,1.4526908154169231,3921,104,1286,1986,192.89840826210624,111.33587059058009,0.0016227911698919,False
0.18,0.5362971244484779,1.6,2318.0,51.32946,0.3,68900.0,0.33,276.0,2700.0,14.182878945178029,1.2642445928288668,3413.4604006379404,9.0057184694125,2.091816536809458,5.177160475765527,0.8275719439805911,1572,62,514,795,166.43521113778817,96.09065718677394,0.001244635853894,False
0.19,0.5491154804787945,1.6,2319.0,51.32946,0.3,68900.0,0.33,276.0,2700.0,14.54025222853372,1.3669585057033882,3690.787965399148,9.309421132546875,2.2091971157025245,5.230831095986844,0.8422386099991364,1502,62,492,758,161.6856661995238,93.34665483263392,0.0012261817444374,False
0.2,0.8215205641369419,1.6,2320.0,51.32946,0.3,68900.0,0.33,276.0,2700.0,27.842261239536885,2.7674709631345444,7472.17160046327,16.739819231882443,5.714834410425184,11.102442007654442,2.94736344729064,3012,94,986,1527,214.98323556160463,123.63353198821366,0.0021423145755117,False
0.21,0.5806988866028138,1.6,2321.0,51.32946,0.3,68900.0,0.33,276.0,2700.0,15.528855792827002,1.6111336652035717,4350.060896049643,10.075342815096356,2.515249568366572,5.453512977730647,0.9041159031630004,1724,66,568,866,153.3294031101865,88.47891234937286,0.0012062068782702,False
0.22,0.8557357820653171,1.6,2322.0,51.32946,0.2,68900.0,0.33,276.0,2700.0,29.274880432265743,3.197935728498947,8634.426466947158,17.804943118117265,6.305728805243023,11.46993731414848,3.107793076744076,5535,134,1832,2781,201.79908265383733,115.9360210044936,0.0020902426369522,False
0.23,0.6281016402830361,1.6,2323.0,51.32946,0.3,68900.0,0.33,276.0,2700.0,17.265680654126136,1.960070770013688,5292.1910790369575,11.271946259749528,3.020986626779996,5.993734394376608,1.060915856766308,1944,72,638,981,150.2149322554384,86.67336736420157,0.0012359237260789,False
0.24,0.9162175798924166,1.6,2324.0,51.32946,0.3,68900.0,0.33,276.0,2700.0,32.304029607211696,3.847530634969921,10388.332714418786,19.759722030247428,7.4412546716189825,12.544307576964268,3.593724036649061,3235,100,1060,1639,197.6182864545119,112.91367986474955,0.0021816410859691,False
0.25,0.6603235759701932,1.6,2325.0,51.32946,0.3,68900.0,0.33,276.0,2700.0,18.35834131382041,2.262067740752657,6107.582900032176,12.117576331907498,3.397744406135669,6.240764981912912,1.1356766653830117,1972,72,646,997,145.55025895298056,83.82518870246088,0.001228187111822,False
0.26,0.932086446617018,1.6,2326.0,51.32946,0.3,68900.0,0.33,276.0,2700.0,32.72061300386029,4.216868602182172,11385.545225891865,20.2878310895889,7.759000943732452,12.432781914271388,3.54213234155028,3178,100,1046,1603,187.68684609889957,107.01059943626356,0.0020611588156141,False
0.27,0.7337330328970423,1.6,2327.0,51.32946,0.2,68900.0,0.33,276.0,2700.0,21.505902471546896,2.8620728548584258,7727.59670811775,14.141572583543994,4.360750794530915,7.364329888002903,1.4986779396724894,4471,114,1486,2236,147.8437410119233,84.98067805883292,0.0013225669310174,False
0.28,0.845473645457745,1.6,2328.0,51.32946,0.3,68900.0,0.33,276.0,2700.0,27.18538198784316,3.759977317010202,10151.938755927547,17.48239262322554,6.124669338751285,9.702989364617618,2.364692021741082,2695,88,894,1348,161.25002988357517,92.38794982789896,0.0015640116729489,False
0.29,0.811092327779295,1.6,2329.0,51.32946,0.3,68900.0,0.33,276.0,2700.0,25.07186599347999,3.5843403669023983,9677.718990636477,16.421037273740108,5.541932160845667,8.65082871973988,1.9575917939432683,2438,84,806,1223,151.21068879467558,86.72371449790742,0.0014230651370069,False
0.3,0.7099878777358499,1.6,2330.0,51.32946,0.3,68900.0,0.33,276.0,2700.0,19.70599744293355,2.8993509486754165,7828.247561423625,13.472067758543018,4.032933747650936,6.233929684390533,1.1335827989755192,2057,74,678,1034,132.44305965807524,76.10353134402445,0.0011549655725482,False
0.31,0.9411188017479468,1.6,2331.0,51.32946,0.3,68900.0,0.33,276.0,2700.0,31.94127149732752,4.888502957590372,13198.957985494006,20.5912503698453,7.943616590976292,11.350021127482218,3.05511363338592,3075,98,1016,1545,159.92042811403647,91.2003980238331,0.0017143886724981,False
0.32,0.6884102909755626,1.6,2332.0,51.32946,0.3,68900.0,0.33,276.0,2700.0,18.285217015703928,2.857005583797409,7713.915076253004,12.875967803398831,3.748691277041739,5.409249212305095,0.8916856932443298,1873,70,620,937,122.35654085503135,70.08866978296348,0.0010397017918924,False
0.33,0.985076079979248,1.6,2333.0,51.32946,0.3,68900.0,0.33,276.0,2700.0,34.07523799382567,5.547147992186529,14977.299578903629,22.09715530249497,8.881671763892466,11.978082691330696,3.3345237717059373,3359,102,1110,1688,156.0771177670433,88.72798964172841,0.0017473627945223,False
0.34,0.8117810898543214,1.6,2334.0,51.32946,0.3,68900.0,0.33,276.0,2700.0,23.98185870047661,3.9945978739765615,10785.41425973672,16.442007823446044,5.553249569726877,7.539850877030567,1.558651695750315,2387,82,790,1196,132.0380527124383,75.67807776672332,0.0012387267786642,False
0.3500000000000001,0.7778685253397546,1.6,2335.0,51.32946,0.3,68900.0,0.33,276.0,2700.0,22.025587445592887,3.764680612963281,10164.63765500086,15.423639871209527,5.013008337766919,6.601947574383358,1.2483277248036375,2243,80,748,1115,124.63431667699098,71.3580403922237,0.0011361711357948,False
0.36,0.6962468938202236,1.6,2336.0,51.32946,0.3,68900.0,0.33,276.0,2700.0,17.892208852706645,3.1228814955899407,8431.78003809284,13.09110772147344,3.850437098047329,4.801101131233205,0.7275556024573886,1893,70,626,948,107.00055285136696,61.3948823253453,0.0009542568971991,False
0.37,1.017886088428011,1.6,2337.0,51.32946,0.3,68900.0,0.33,276.0,2700.0,35.04089989173123,6.376479084848755,17216.49352909164,23.252824245480987,9.625564396201764,11.788075646250242,3.2490853113530083,3429,104,1142,1710,143.54106138567286,81.37463554055213,0.0016246777714205,False
0.38,0.8438877911177196,1.6,2338.0,51.32946,0.2,68900.0,0.33,276.0,2700.0,24.800473226828384,4.597166265038874,12412.34891560496,17.432783549684963,6.096984155271044,7.367689677143421,1.49981789023217,6733,122,1700,3773,130.03721367299346,74.45382144051669,0.0012031648465663,False
0.39,0.7235221851434763,1.6,2339.0,51.32946,0.3,68900.0,0.33,276.0,2700.0,18.60271340428981,3.503291690757495,9458.887565045236,13.851936723990113,4.217834293404991,4.750776680299699,0.7145426026474957,1867,70,626,922,103.7612275226071,59.399711378392375,0.0009305408796663,False
0.4,0.7209961238179983,1.6,2340.0,51.32946,0.3,68900.0,0.33,276.0,2700.0,18.3025131595768,3.5264613453621982,9521.445632477937,13.780688030302484,4.182933474807299,4.521825129274314,0.6564721294451004,1896,70,634,939,102.75135141054542,58.884770588881786,0.0009104676845751,False
0.4100000000000001,1.0374044379544685,1.6,2341.0,51.32946,0.3,68900.0,0.33,276.0,2700.0,35.20709244653564,7.073106146687765,19097.386596056967,23.95315509805573,10.08624022492521,11.253937348479903,3.013134078237444,3402,104,1126,1703,132.70910008612938,75.07041736391082,0.0014862619374878,False
0.42,0.8751649074660999,1.6,2342.0,51.32946,0.2,68900.0,0.33,276.0,2700.0,25.60212734351797,5.221277197792667,14097.4484340402,18.422871608663,6.657650821944159,7.179255734854973,1.436373624151492,7085,124,1770,3982,121.71427821591666,69.86516489425885,0.0011633900738217,False
0.43,0.735820509632352,1.6,2343.0,51.32946,0.2,68900.0,0.33,276.0,2700.0,18.450835310486035,3.8004105203485214,10261.108404941013,14.201107526380603,4.39033311815256,4.2497277841054295,0.5899225978040374,5042,102,1274,2815,107.5047478695949,61.67076603215735,0.0009066943514728,False
0.44,1.0824555577008248,1.6,2344.0,51.32946,0.3,68900.0,0.33,276.0,2700.0,37.25159913666994,8.016942857665123,21645.745715695837,25.606172714114443,11.202400327920309,11.645426422555497,3.185457470255184,3564,106,1178,1785,126.2587870140346,71.434232459911,0.0014832027394237,False
0.45,0.8353604611825378,1.6,2345.0,51.32946,0.3,68900.0,0.33,276.0,2700.0,22.907318963878403,4.96329501316706,13400.89653555106,17.167113286130785,5.949463085916943,5.740205677747618,0.9861680727498828,2707,82,816,1417,113.96408750237175,65.64333010507417,0.0010192514009801,False
0.46,1.118831504774187,1.6,2346.0,51.32946,0.3,68900.0,0.33,276.0,2700.0,39.05594428948977,8.779007144896102,23703.319291219475,26.978101945034027,12.1587009143477,12.077842344455746,3.379693769451599,3698,108,1224,1848,126.37437245348876,71.52086995305767,0.0015022250013529,False
0.4700000000000001,0.9369868584698162,1.6,2347.0,51.32946,0.3,68900.0,0.33,276.0,2700.0,27.88729057820081,6.336066903161422,17107.38063853584,20.452193668672397,7.858822147371169,7.435096909528415,1.5227552442097467,2679,88,872,1349,108.33673378552557,61.4758285494513,0.0011410630782033,False
0.4800000000000001,0.8405438715835734,1.6,2348.0,51.32946,0.2,68900.0,0.33,276.0,2700.0,22.586493928612644,5.189135199703165,14010.665039198546,17.328385415303913,6.038864957616745,5.258108513308731,0.8497297579135799,6189,114,1552,3467,105.4664970489843,60.60272740753462,0.0009844760578658,False
0.49,0.922301279786711,1.6,2349.0,51.32946,0.3,68900.0,0.33,276.0,2700.0,26.65586193745042,6.284282685273896,16967.56325023952,19.9614368698356,7.562080005132679,6.694425067614819,1.2777973198587826,3029,88,882,1608,113.161008479125,64.72582667328481,0.0010904816760915,False
0.5,1.0024574430870097,1.6,2350.0,51.32946,0.3,68900.0,0.33,276.0,2700.0,30.92981302920819,7.470653869502899,20170.765447657825,22.706010188158142,9.27103080986884,8.223802841050045,1.8003769403659415,3236,94,972,1694,116.82021040882584,66.57207155635463,0.0011934619935674,False
0.03,0.4056148014740136,1.6,2353.0,54.34884,0.1,68900.0,0.33,276.0,2700.0,11.694183171958,0.1753561989116054,473.4617370613348,6.145146344234614,1.106515652367278,5.549036827723387,0.9311594534556724,9418,158,3100,4762,748.6604987846008,426.778754856424,0.0047608593370599,True
0.04,0.579838766280063,1.6,2354.0,54.34884,0.1,68900.0,0.33,276.0,2700.0,19.14336915854977,0.3827333418844437,1033.380023087998,10.05415216595907,2.506592675839327,9.0892169925907,2.1238593339548832,15058,212,4950,7627,864.2667093552722,492.9790753466437,0.0063624551439283,True
0.05,0.4648818712436634,1.6,2355.0,54.34884,0.1,68900.0,0.33,276.0,2700.0,13.723144177270518,0.342816805043822,925.6053736183196,7.389285431951554,1.507152696012539,6.333858745318964,1.164335890968717,11225,176,3694,5678,541.3878719072534,309.5601696783524,0.0035470718187445,True
0.0699999999999999,0.6526422576173285,1.6,2357.0,54.34884,0.2,68900.0,0.33,276.0,2700.0,22.03690937785629,0.7705734507048494,2080.5483169030936,11.913619572271822,3.3054497222835155,10.123289805584468,2.534876271578666,4539,118,1498,2286,499.4495062467888,285.651799436274,0.0044423893319473,True
0.08,0.4362602287773052,1.6,2358.0,54.34884,0.2,68900.0,0.33,276.0,2700.0,11.953894555643418,0.4770834519333117,1288.1253202199418,6.777435369044912,1.3044643940407543,5.176459186598506,0.8273809421074425,2654,82,870,1343,308.5234763644005,178.12108104188397,0.0021143836198484,True
0.09,0.6411921117367883,1.6,2359.0,54.34884,0.2,68900.0,0.33,276.0,2700.0,20.971355517492384,0.942184184257514,2543.897297495288,11.612344493872897,3.1707650060808,9.35901102361949,2.2285808218232863,4568,116,1506,2303,388.9005479551357,222.87146983578276,0.0033184386039973,True
0.0999999999999999,0.4256737956059441,1.6,2360.0,54.34884,0.2,68900.0,0.33,276.0,2700.0,11.163205579691487,0.5560658838821818,1501.377886481891,6.556343228988843,1.233888300908288,4.606862350702644,0.6778224170261061,2607,80,854,1320,241.08998584670343,139.19335669058202,0.0016632002417614,False
0.11,0.7507570180796448,1.6,2361.0,54.34884,0.3,68900.0,0.33,276.0,2700.0,26.231254207873707,1.4399313415517672,3887.8146221897714,14.63029287110898,4.605646366740956,11.600961336764728,3.165715025189189,2693,88,880,1367,378.25860822272745,218.3587405666565,0.003583228814826,True
0.12,0.6166568313280483,1.6,2362.0,54.34884,0.3,68900.0,0.33,276.0,2700.0,19.07053034447063,1.1406127059313034,3079.654306014519,10.977869687422528,2.893667320052313,8.092660657048102,1.7530546141210095,2035,74,668,1027,289.401705460446,167.08505806289443,0.0023195960019409,True
0.13,0.6478136124882329,1.6,2363.0,54.34884,0.3,68900.0,0.33,276.0,2700.0,20.361229909758936,1.3188785580943747,3560.9721068548115,11.786166967796827,3.248231028659801,8.575062941962107,1.929352470565426,2066,76,680,1040,281.5183062359844,162.518479928765,0.0023128701389046,True
0.14,0.6592150795827827,1.6,2364.0,54.34884,0.3,68900.0,0.33,276.0,2700.0,20.695467138549045,1.442935679537307,3895.926334750729,12.088051632303356,3.384328483411775,8.607415506245689,1.941392803874468,2090,76,686,1055,264.5271641071744,152.63559318449308,0.0022117741794858,False
0.15,0.816990254943047,1.6,2365.0,54.34884,0.3,68900.0,0.33,276.0,2700.0,28.896790009745796,2.16019066726036,5832.514801602972,16.60099592211302,5.6393125044473,12.295794087632771,3.4791218371869403,2969,94,974,1502,299.72420966796494,172.86233916224822,0.0030488900792911,True
0.16,0.5483698971105356,1.6,2366.0,54.34884,0.3,68900.0,0.33,276.0,2700.0,15.09136358676728,1.1987304446019804,3236.572200425347,9.291643066574672,2.202262794521188,5.79972052019261,1.0035323499192077,1666,66,542,847,198.8937335392029,114.83114935864756,0.0015146388604813,False
0.17,0.6284184758292155,1.6,2367.0,54.34884,0.3,68900.0,0.33,276.0,2700.0,18.52945076572903,1.5647135519489102,4224.7265902620575,11.280134238854156,3.024559277084513,7.2493165268748765,1.459845725135603,2024,74,662,1025,212.9583011228604,122.90413489127624,0.0017223522080417,False
0.18,0.7413411873537087,1.6,2368.0,54.34884,0.3,68900.0,0.33,276.0,2700.0,23.96201522125232,2.1443668576754007,5789.790515723582,14.35908535106296,4.469168576021176,9.602929870189358,2.3248017183457748,2382,82,784,1200,229.66863607544855,132.36126616060903,0.0020821703498753,False
0.19,0.5284426616832786,1.6,2369.0,54.34884,0.3,68900.0,0.33,276.0,2700.0,13.663456748554916,1.2836629351054023,3465.889924784587,8.821664755058167,2.0218052928052046,4.841791993496749,0.7381423576998021,1512,62,498,759,162.77804338120933,93.80073529866944,0.0012342086330847,False
0.2,0.892916331207317,1.6,2370.0,54.34884,0.3,68900.0,0.33,276.0,2700.0,31.995220469553924,3.182766886136249,8593.470592567872,18.99573598075152,6.989755886078425,12.999484488802404,3.806988999942176,3128,98,1024,1586,246.32421112053171,141.1064733555388,0.0026812733190508,False
0.21,0.6641601020081764,1.6,2371.0,54.34884,0.2,68900.0,0.33,276.0,2700.0,19.377672758530807,2.015259446602472,5441.200505826672,12.220000256537077,3.4444301610075763,7.157672501993732,1.429170714405105,4079,108,1344,2057,181.72960743180263,104.74845174899968,0.0015295196780293,False
0.22,0.7468994815666958,1.6,2372.0,54.34884,0.3,68900.0,0.33,276.0,2700.0,23.30459907457318,2.5412047791527663,6861.252903712469,14.518913435831468,4.549424423138033,8.785685638741711,2.008219643985267,2389,82,784,1207,195.91501828013045,112.71074015096065,0.0017300448941292,False
0.23,0.6923472510219939,1.6,2373.0,54.34884,0.3,68900.0,0.33,276.0,2700.0,20.318128570181145,2.3111022803600147,6239.97615697204,12.983857073402095,3.799595697912404,7.334271496779047,1.4884934175523892,2169,76,712,1095,175.32331068359233,100.92988475350596,0.0014915024933959,False
0.24,0.860862878897265,1.6,2374.0,54.34884,0.3,68900.0,0.33,276.0,2700.0,29.05264733821819,3.4573647626907005,9334.884859264892,17.96708505064217,6.397431849115728,11.08556228757602,2.940067086425028,3005,94,994,1508,198.2765124113498,113.74724251844658,0.0020363418487496,False
0.25,0.5926915360060719,1.6,2375.0,54.34884,0.3,68900.0,0.33,276.0,2700.0,15.293614884590138,1.878976937098872,5073.237730166955,10.372740797393783,2.637859304764977,4.920874087196353,0.758882367666105,1693,66,554,856,141.06503177679542,80.95788818034266,0.0011244106802556,False
0.26,0.7610496881090701,1.6,2376.0,54.34884,0.3,68900.0,0.33,276.0,2700.0,23.12120356371534,2.9689453749633303,8016.152512400992,14.929305432533152,4.757767678792311,8.191898131182189,1.7888223038289803,2310,80,760,1164,167.0237332385182,95.9426422681954,0.0015236185136534,False
0.27,0.9473707044574105,1.6,2377.0,54.34884,0.3,68900.0,0.33,276.0,2700.0,33.37798246730513,4.46480365428579,12054.969866571631,20.80246812408752,8.07301082958572,12.575514343217607,3.6082071752999294,3153,100,1038,1590,191.96741519455307,109.9149430673739,0.0021621351304902,False
0.28,0.7700609943060246,1.6,2378.0,54.34884,0.3,68900.0,0.33,276.0,2700.0,23.137846280002773,3.1933223179126533,8621.970258364165,15.193279038757932,4.893488062274111,7.94456724124484,1.7001657443614575,2410,84,796,1210,159.0419544694075,91.2866032617226,0.0014453732969478,False
0.29,0.8412130499734121,1.6,2379.0,54.34884,0.3,68900.0,0.33,276.0,2700.0,26.708766445749852,3.8216909324814594,10318.56551769994,17.349254865771172,6.050467720732491,9.359511579978683,2.2287767882510314,2671,88,886,1336,164.6617781335668,94.32857557236268,0.0015901015272073,False
0.3,0.7408495836904877,1.6,2380.0,54.34884,0.3,68900.0,0.33,276.0,2700.0,21.2191435866903,3.1263228702389285,8441.071749645107,14.344986720866595,4.4621130627795855,6.874156865823704,1.335790192540657,2259,78,742,1140,144.12146203105166,82.77351997999439,0.0012893276199812,False
0.31,0.9864402536631072,1.6,2381.0,54.34884,0.3,68900.0,0.33,276.0,2700.0,34.69499775560926,5.315330527624043,14351.392424584916,22.144666609065663,8.911848523164318,12.550331146543591,3.5965179955402755,3384,104,1122,1695,174.782793055457,99.44106157038613,0.0019968435200598,False
0.32,0.7706310956262282,1.6,2382.0,54.34884,0.3,68900.0,0.33,276.0,2700.0,22.292118465576905,3.4981098157770867,9444.896502598134,15.210048001439668,4.902154550328138,7.082070464137237,1.4040447345510514,2341,82,778,1168,139.8771063987026,80.22849398579332,0.0012875316256796,False
0.33,0.9519198989047144,1.6,2383.0,54.34884,0.3,68900.0,0.33,276.0,2700.0,32.06947447882202,5.21619701221093,14083.731932969513,20.95677810134515,8.167996097932228,11.112696377476873,2.951799085721298,3075,98,1012,1551,161.58987514622737,92.01387170189228,0.001727183487586,False
0.34,1.0006457375838718,1.6,2384.0,54.34884,0.3,68900.0,0.33,276.0,2700.0,34.768356032389754,5.828302420401476,15736.416535083985,22.642193163571243,9.229952027538925,12.126162868818511,3.401649607137447,3312,102,1094,1665,162.0634439567914,92.28883868357404,0.0018411818854779,False
0.3500000000000001,0.6831090311995744,1.6,2385.0,54.34884,0.3,68900.0,0.33,276.0,2700.0,17.47446856601339,2.968234809037165,8014.233984400347,12.73130640851181,3.6808161826952985,4.74316215750158,0.712581373658133,1753,68,584,871,116.6074664187492,66.87922453083111,0.0010149767827201,False
0.36,0.8385156147204154,1.6,2386.0,54.34884,0.3,68900.0,0.33,276.0,2700.0,24.953175498512003,4.393855491834902,11863.409827954236,17.265199574894666,6.003782637003354,7.687975923617337,1.6099271451684525,2595,86,862,1296,136.37101447073377,77.96144731106415,0.0013005936803328,False
0.37,0.852355400366879,1.6,2387.0,54.34884,0.3,68900.0,0.33,276.0,2700.0,25.471343358959725,4.606111126286028,12436.500040972276,17.69840158863159,6.245721457804368,7.772941770328135,1.63961033151834,2605,86,864,1303,135.2944242978637,77.36129535143326,0.0012980985240992,False
0.38,0.740522310482919,1.6,2388.0,54.34884,0.2,68900.0,0.33,276.0,2700.0,19.5933006560947,3.607803476599474,9741.06938681858,14.335604267730576,4.457419868349103,5.257696388364124,0.8496163917496284,5208,106,1344,2892,127.81823934320563,73.39017863040431,0.001071782286935,False
0.39,0.8167340575540977,1.6,2389.0,54.34884,0.3,68900.0,0.33,276.0,2700.0,23.171519940379643,4.394208965295166,11864.364206296948,16.59316061643955,5.635060376365742,6.578359323940092,1.240851411070576,2409,82,800,1201,122.41525326247246,69.70994483761251,0.0011755029747155,False
0.4,0.8995739276746884,1.6,2390.0,54.34884,0.3,68900.0,0.33,276.0,2700.0,27.37113409774827,5.340185532996491,14418.500939090529,19.21262844609281,7.116943204062443,8.158505651655457,1.776757671065952,2614,88,868,1306,129.67093802252222,74.38638231418442,0.0016104392148631,False
0.4100000000000001,0.7411191228373712,1.6,2391.0,54.34884,0.3,68900.0,0.33,276.0,2700.0,19.059263819508136,3.762801278147128,10159.563450997246,14.352716042826993,4.465980639898795,4.706547776681143,0.7031793617516673,1914,70,638,951,106.16784236377602,60.659248051195135,0.0009771481835666,False
0.42,1.0499553195505176,1.6,2392.0,54.34884,0.3,68900.0,0.33,276.0,2700.0,35.72843335844886,7.347801460928157,19839.063944506022,24.40854667732597,10.3897270805364,11.319886681122888,3.0419256196082447,3406,104,1124,1708,137.42664037817485,77.9718891650388,0.0015656685699729,False
0.43,0.7922354478273004,1.6,2393.0,54.34884,0.3,68900.0,0.33,276.0,2700.0,21.142016808224707,4.379014542362335,11823.339264378305,15.851538614513812,5.237666159477603,5.290478193710895,0.8586516171152674,2167,76,720,1079,111.9230157650082,64.04390976751759,0.0010204634910103,False
0.44,0.9832753976340688,1.6,2394.0,54.34884,0.2,68900.0,0.33,276.0,2700.0,31.205054059145382,6.686702940609727,18054.09793964626,22.034512929796424,8.841938218196274,9.170541129348958,2.155235277586548,8245,140,2052,4637,132.94697809235737,75.86161457380072,0.0013883275403954,False
0.45,0.868513200779139,1.6,2395.0,54.34884,0.3,68900.0,0.33,276.0,2700.0,24.618645985371348,5.348343593002973,14440.527701108029,18.21025112257076,6.535815044619623,6.408394862800588,1.1874714516166502,2736,84,856,1408,117.22030733462084,67.35036767390436,0.0011304327919373,False
0.46,0.834890500620475,1.6,2396.0,54.34884,0.3,68900.0,0.33,276.0,2700.0,22.68744911594863,5.01425325498164,13538.483788450429,17.15252472849139,5.941398647948764,5.534924387457242,0.9271453929671232,2368,78,764,1194,119.15278788772969,68.33090966361858,0.0010536033326756,False
0.4700000000000001,1.115923241985713,1.6,2397.0,54.34884,0.3,68900.0,0.33,276.0,2700.0,38.60362291034381,8.854405001215035,23906.893503280597,26.867192863221213,12.08040283225314,11.736430047122596,3.225997831038105,3791,108,1214,1928,133.72784323653124,76.21452577517718,0.0015436832334934,False
0.4800000000000001,0.9749401613923704,1.6,2398.0,54.34884,0.3,68900.0,0.33,276.0,2700.0,29.799619085829544,6.920285237435223,18684.770141075103,21.7456073156398,8.659480608593135,8.054011770189742,1.739195371157912,3130,94,982,1605,124.34078230010856,71.26843558495176,0.0012554038364889,False
0.49,1.18900831081057,1.6,2399.0,54.34884,0.3,68900.0,0.33,276.0,2700.0,42.88609090935049,10.260688783389412,27703.85971515141,29.71880566046323,14.147381023578893,13.167285248887264,3.886692240189479,4334,114,1356,2230,136.16257114502906,77.23467035453525,0.0016647410836586,False
0.5,0.8418680213027718,1.6,2400.0,54.34884,0.3,68900.0,0.33,276.0,2700.0,22.27520313136185,5.307001395041311,14328.90376661154,17.369692143791788,6.061837677582432,4.905510987570061,0.7548362825411203,2756,78,762,1493,115.58580112216268,66.47145575606041,0.0010055768175039,False
0.05,0.4352416765970291,1.6,2405.0,57.36822,0.1,68900.0,0.33,276.0,2700.0,12.493902227283805,0.3120857562942968,842.6315419946015,6.756040973407804,1.2975721203362318,5.737861253876001,0.9854863640419348,10115,166,3324,5123,531.8253647508566,304.34384498386004,0.0034357238763478,True
0.06,0.4758049837551301,1.6,2406.0,57.36822,0.1,68900.0,0.33,276.0,2700.0,13.980993860149407,0.4189774264622459,1131.239051448064,7.628218863674883,1.5891689109510156,6.352774996474524,1.1701914844887698,11208,176,3686,5673,489.08220048498896,280.21001601199833,0.0032661110362982,True
0.0699999999999999,0.6270429062892577,1.6,2407.0,57.36822,0.2,68900.0,0.33,276.0,2700.0,20.743914373863205,0.7253186255650902,1958.3602890257437,11.244603704735978,3.009067110830524,9.499310669127228,2.2837484852654337,4367,112,1432,2213,520.7561724090172,297.7023034120267,0.0043702707990581,True
0.08,0.7578482018718748,1.6,2408.0,57.36822,0.2,68900.0,0.33,276.0,2700.0,27.424460245589454,1.0959060795311533,2958.9464147341137,14.836013706420085,4.710121117732577,12.588446539169375,3.614215038201423,5477,132,1802,2768,561.4223915550554,321.48264119284613,0.0053653001735386,True
0.09,0.6342854727804786,1.6,2409.0,57.36822,0.2,68900.0,0.33,276.0,2700.0,20.62671081929565,0.9266751728386576,2502.0229666643754,11.432210920140314,3.091185484019716,9.194499899155335,2.164510311181058,4283,112,1404,2171,415.51583608177583,238.15403033972905,0.0034424404761883,True
0.0999999999999999,0.504599685559812,1.6,2410.0,57.36822,0.2,68900.0,0.33,276.0,2700.0,14.397055132071491,0.7177583615011817,1937.9475760531905,8.272449203601687,1.8180464056616068,6.124605928469805,1.100288044160425,3202,90,1044,1630,300.4063318385035,173.4337019777815,0.0022023067643011,True
0.11,0.5891467617585507,1.6,2411.0,57.36822,0.2,68900.0,0.33,276.0,2700.0,17.98637625953648,0.9864630543932212,2663.450246861697,10.284459915578998,2.60124684149606,7.701916343957484,1.614783787102839,3924,104,1280,1998,309.7629378269554,178.6895787640646,0.0024964694949753,True
0.12,0.5534248071053578,1.6,2412.0,57.36822,0.3,68900.0,0.33,276.0,2700.0,16.13039151616344,0.96420437623287,2603.3518158287493,9.41244862713951,2.2495362740248024,6.717942889023929,1.2853318977919324,1796,68,582,917,275.1650809790769,158.86179712328612,0.0021104974284606,False
0.13,0.5028072335279632,1.6,2413.0,57.36822,0.2,68900.0,0.33,276.0,2700.0,13.726145099657684,0.8875980454377906,2396.5147226820345,8.231738055816276,1.8032549357295264,5.494407043841408,0.9156568902917356,2877,86,946,1452,232.43572315922063,134.12838985688447,0.0017161207102717,False
0.14,0.550986680795239,1.6,2414.0,57.36822,0.3,68900.0,0.33,276.0,2700.0,15.608375578508506,1.086839270334628,2934.466029903496,9.354100508460448,2.2266586957807704,6.254275070048058,1.1398194254461422,1695,66,558,852,239.51967414490116,137.45122801917472,0.0018194024442242,False
0.15,0.8290396182150117,1.6,2415.0,57.36822,0.2,68900.0,0.33,276.0,2700.0,29.5921048391191,2.2123392794633543,5973.316054551056,16.971365851481057,5.841571631939678,12.620738987638042,3.629232352476324,5986,140,1974,3019,312.1737128716268,180.01900437757388,0.0033021083599573,True
0.16,0.7784554986040584,1.6,2416.0,57.36822,0.3,68900.0,0.33,276.0,2700.0,26.464889169178747,2.1086124911948976,5693.253726226223,15.441020408403665,5.022066702540862,11.023868760775084,2.913454211345964,2729,90,896,1379,285.6465791744389,164.76541182031997,0.0027446225586225,True
0.17,0.7587259522250918,1.6,2417.0,57.36822,0.3,68900.0,0.33,276.0,2700.0,25.13556666359336,2.1262334032673613,5740.830188821876,14.861565834962423,4.723154646782321,10.274000828630935,2.59692124351496,2613,86,856,1323,260.78471124082216,150.37570976145344,0.0024416798129206,False
0.18,0.4998296258719129,1.6,2418.0,57.36822,0.2,68900.0,0.33,276.0,2700.0,12.664992067481784,1.127634773836205,3044.613889357753,8.164287492115866,1.7788445254212055,4.500704575365919,0.6512097515850006,2837,84,934,1430,167.39247598166696,96.48506461484789,0.0012697258913421,False
0.19,0.7600284185824895,1.6,2419.0,57.36822,0.3,68900.0,0.33,276.0,2700.0,24.71328915798887,2.3333970140016294,6300.171937804399,14.899517525313598,4.742536047072901,9.813771632675271,2.409139033071272,2432,82,800,1226,235.83901978399632,135.67410299592743,0.0021736555978878,False
0.2,0.8940621865460787,1.6,2420.0,57.36822,0.3,68900.0,0.33,276.0,2700.0,32.06396183629861,3.1896410228107177,8612.030761588938,19.032986512695327,7.01154359027513,13.030975323603284,3.821902567464412,3120,98,1020,1584,259.4561964197282,148.68661083332094,0.0028368196870615,False
0.21,0.5564006700605915,1.6,2421.0,57.36822,0.3,68900.0,0.33,276.0,2700.0,14.474149273443484,1.5003894806683031,4051.051597804418,9.483868072593715,2.27765264325865,4.990281200849767,0.777263162590347,1527,62,500,771,165.96124333600554,95.59118586248158,0.0012711177899809,False
0.22,0.6458933136977694,1.6,2422.0,57.36822,0.3,68900.0,0.33,276.0,2700.0,18.296542488255607,1.9903185546578328,5373.860097576148,11.735643335921717,3.225646591552745,6.560899152333892,1.2353280368949129,1928,72,634,971,184.82234076521829,106.61382923560994,0.0014920794246876,False
0.23,0.7518814610334845,1.6,2423.0,57.36822,0.3,68900.0,0.33,276.0,2700.0,23.331934181872345,2.6576899257044966,7175.76279940214,14.662829537112316,4.622115586307278,8.66910464476003,1.9644256606027817,2299,80,756,1159,195.7380705050589,112.58110010039525,0.0017678996691935,False
0.24,0.6798879607832988,1.6,2424.0,57.36822,0.3,68900.0,0.33,276.0,2700.0,19.49760107190099,2.310759210732634,6239.049868978112,12.64375442318195,3.639948823810915,6.853846648719042,1.329189613078281,2085,76,686,1050,172.56800782334108,99.44033783118708,0.0014786845348641,False
0.25,0.8898922771002071,1.6,2425.0,57.36822,0.3,68900.0,0.33,276.0,2700.0,30.475937314684764,3.776767240860698,10197.271550323883,18.897585677303876,6.932460216502217,11.57835163738089,3.155692975641519,2969,96,978,1496,208.20802693970865,119.44499872396666,0.0021963863697673,False
0.26,0.6652278164455974,1.6,2426.0,57.36822,0.3,68900.0,0.33,276.0,2700.0,18.3858837040633,2.3533537932085653,6354.055241663126,12.248570883113096,3.4574928817926924,6.137312820950205,1.1041390885841271,1965,72,644,993,157.70599842931637,90.81474263601346,0.0013400004437439,False
0.27,0.942293485436229,1.6,2427.0,57.36822,0.3,68900.0,0.33,276.0,2700.0,33.06922259315643,4.423121071275715,11942.426892444431,20.630861588717355,7.967828058838569,12.438361004439075,3.5447069875628534,3192,100,1050,1611,203.89253947352665,116.12990877244636,0.0022553051948461,False
0.28,0.5819270709141312,1.6,2428.0,57.36822,0.2,68900.0,0.33,276.0,2700.0,14.28648540082938,1.9541317948283776,5276.1558460366205,10.105633629357962,2.527642543814488,4.180851771471417,0.57351074898611,3057,90,1012,1529,133.3953460295843,76.91764979491133,0.001055433763472,False
0.29,0.8798106739457974,1.6,2429.0,57.36822,0.3,68900.0,0.33,276.0,2700.0,28.873002456178597,4.135505153993631,11165.863915782802,18.57203216481004,6.743585453873843,10.300970291368554,2.6080802998802124,2892,94,954,1455,179.62945214450573,102.69857406494546,0.0018094048577543,False
0.3,0.7072348137951793,1.6,2430.0,57.36822,0.2,68900.0,0.33,276.0,2700.0,19.57334088685682,2.879452465263906,7774.521656212548,13.395360673963603,3.9959499171555177,6.177980212893216,1.116497451891611,4122,108,1354,2073,162.0257889379959,91.95235897762716,0.0012839249154877,False
0.31,0.6179331802132926,1.6,2431.0,57.36822,0.2,68900.0,0.33,276.0,2700.0,15.29776359284244,2.308759232395183,6233.649927466994,11.010502625397448,2.907699732942428,4.287260967444993,0.5989405005472452,3201,92,1058,1598,125.21672367847104,71.99122818941774,0.0010452752847294,False
0.32,0.8346778233082239,1.6,2432.0,57.36822,0.3,68900.0,0.33,276.0,2700.0,25.648777325659346,4.035175233390275,10894.97313015374,17.145924604821335,5.937751396959614,8.502852720838007,1.9025761635693392,2542,86,846,1267,158.9911939166632,90.9453557822812,0.0015174333280928,False
0.33,0.9401294393851134,1.6,2433.0,57.36822,0.3,68900.0,0.33,276.0,2700.0,31.369536504785597,5.100707246494921,13771.909565536287,20.55791523059476,7.923260875151022,10.81162127419083,2.8225536286561006,3007,96,996,1507,169.24785434251964,96.64692024099786,0.0017784824505102,False
0.34,0.7321152783391535,1.6,2434.0,57.36822,0.3,68900.0,0.33,276.0,2700.0,19.969616862100168,3.312516761452568,8943.795255921932,14.09550946590811,4.337910469304829,5.874107396192057,1.025393707852261,2145,76,708,1077,133.68216749992445,76.7267555800022,0.0011989876949559,False
0.3500000000000001,0.9342501562513894,1.6,2435.0,57.36822,0.3,68900.0,0.33,276.0,2700.0,30.523360473136727,5.251790892783817,14179.835410516307,20.36032872094142,7.802976330017602,10.163031752195304,2.5511854372337845,2988,96,988,1500,157.23789822124752,89.40490847219678,0.0016493944675452,False
0.36,0.8340804841709011,1.6,2436.0,57.36822,0.3,68900.0,0.33,276.0,2700.0,24.71769077362809,4.351468241355797,11748.964251660653,17.127393154537735,5.927515000374229,7.590297619090354,1.576046759018432,2514,84,834,1257,143.03962311575768,81.42398773522231,0.0013683725930557,False
0.37,0.6991330527351495,1.6,2437.0,57.36822,0.3,68900.0,0.33,276.0,2700.0,17.840834203761077,3.194466932574277,8625.060717950548,13.170730952537546,3.8883349676006977,4.67010325122353,0.6938680350264206,1841,68,612,917,119.47934115589476,68.49618809752253,0.0010534957240182,False
0.38,0.9579666739962448,1.6,2438.0,57.36822,0.3,68900.0,0.33,276.0,2700.0,31.170785587218305,5.807525613512958,15680.319156484986,21.162691588058895,8.29533911497309,10.008093999159406,2.487813501460133,3331,100,1106,1666,149.7961834722572,85.3244527148923,0.0015864401771344,False
0.39,0.8916034899682956,1.6,2439.0,57.36822,0.1,68900.0,0.33,276.0,2700.0,27.15754077676954,5.171483028391201,13963.004176656244,18.95309747844188,6.964845494048527,8.20444329832766,1.7933624656573262,40975,254,7004,25629,158.1500421997383,87.479482949252,0.0014255775255858,False
0.4,0.7448611643329892,1.6,2440.0,57.36822,0.2,68900.0,0.33,276.0,2700.0,19.42164295628575,3.750287304703985,10125.77572270076,14.46021170619218,4.519890115777415,4.96143125009357,0.7696028110734296,5130,104,1298,2865,127.4340532299754,73.20087871887762,0.0010890684410854,False
0.4100000000000001,1.0497520990676552,1.6,2441.0,57.36822,0.3,68900.0,0.33,276.0,2700.0,35.97582985045788,7.230697314491826,19522.88274912793,24.40114156718207,10.384767516347267,11.574688283275808,3.1540702018554434,3370,104,1118,1687,147.74342028528912,84.0065611808036,0.0017026330691966,False
0.42,0.890135574334096,1.6,2442.0,57.36822,0.3,68900.0,0.33,276.0,2700.0,26.409305008775604,5.390784507496772,14555.118170241283,18.905473759538904,6.937058906368813,7.5038312492367005,1.5462743988720415,2542,86,846,1265,127.40070439069044,72.47788069227751,0.0013050190338328,False
0.43,0.9867067093028584,1.6,2443.0,57.36822,0.3,68900.0,0.33,276.0,2700.0,31.645177665599025,6.637194126697818,17920.424142084106,22.153952159784808,8.917750331526772,9.491225505814215,2.2805562048289545,2994,96,1004,1482,135.46938497073535,77.06757911745112,0.0014805374235041,False
0.44,0.9275183283487882,1.6,2444.0,57.36822,0.2,68900.0,0.33,276.0,2700.0,28.02292724228365,5.986635040900138,16163.914610430373,20.13515736268144,7.666672647380436,7.88776987960221,1.6800376064802975,7650,132,1926,4285,136.6581055922689,78.33875218499412,0.0013517191611447,False
0.45,1.1478105513476655,1.6,2445.0,57.36822,0.3,68900.0,0.33,276.0,2700.0,41.22907458323869,9.085690027523126,24531.36307431244,28.09485472998815,12.95663083299913,13.134219853250542,3.8709408054760033,3886,112,1286,1947,148.4099654191177,84.37010731818276,0.0018177291982311,False
0.46,0.9368717314778968,1.6,2446.0,57.36822,0.3,68900.0,0.33,276.0,2700.0,28.10003907448385,6.259148945444736,16899.702152700786,20.448325321383923,7.856467770514733,7.651713753099923,1.5973188250699977,2638,88,870,1319,121.72948925768566,69.02008873043081,0.0012976070711007,False
0.4700000000000001,1.0240339366343434,1.6,2447.0,57.36822,0.3,68900.0,0.33,276.0,2700.0,32.89942937461483,7.51391952031872,20287.582704860542,23.472380014082297,9.769193641137942,9.427049360532536,2.255274120819222,3172,98,1044,1586,133.79198206948172,76.45520027264884,0.0014400614751611,False
0.4800000000000001,1.1159904431753238,1.6,2448.0,57.36822,0.3,68900.0,0.33,276.0,2700.0,38.34632042044204,8.971493557742226,24223.032605904013,26.86975323869536,12.082208425604556,11.476567181746685,3.110714867862331,3749,108,1202,1902,139.5802077005901,79.95670693835147,0.001602033589602,False
0.49,0.8689695410431639,1.6,2449.0,57.36822,0.3,68900.0,0.33,276.0,2700.0,23.839375706639935,5.594243558725325,15104.457608558378,18.224802421096165,6.544128435397526,5.6145732855437736,0.9498848766722006,2629,80,800,1363,126.28284694868005,72.30760522922836,0.0011079721306216,False
0.5,1.1548944897584144,1.6,2450.0,57.36822,0.3,68900.0,0.33,276.0,2700.0,40.34432354325328,9.824281498014168,26525.56004463825,28.37105565709631,13.156630604212332,11.973267886156972,3.332349106198164,4556,112,1342,2409,142.63865352137475,81.25939329484521,0.0016333924320523,False
0.05,0.547939594991881,1.6,2455.0,60.3876,0.1,68900.0,0.33,276.0,2700.0,17.402978067830773,0.4348126523079698,1173.9941612315183,9.281389084182113,2.198266787145903,8.12158898364866,1.7634541348379331,13891,200,4572,7027,736.4274868507682,421.16420193351183,0.0051160117402816,True
0.06,0.5581827878182395,1.6,2456.0,60.3876,0.2,68900.0,0.33,276.0,2700.0,17.653822720328858,0.5291622922675427,1428.7381891223654,9.526744694739763,2.2945922067029265,8.127078025589094,1.7654299144353838,3830,102,1260,1934,591.0227692267955,338.5594182841512,0.0044058185544704,True
0.0699999999999999,0.6101764664311602,1.6,2457.0,60.3876,0.2,68900.0,0.33,276.0,2700.0,19.910010340646583,0.6961319844025082,1879.5563578867725,10.812815192733552,2.823062095340616,9.097195147913034,2.126930110938108,4199,110,1376,2129,515.9398898230402,297.86189670140084,0.0043876662902874,True
0.08,0.7297191462942838,1.6,2458.0,60.3876,0.2,68900.0,0.33,276.0,2700.0,25.863797826402465,1.0334795827636711,2790.394873461912,14.027404085832991,4.304217390939773,11.836393740569472,3.2707378081761025,5245,128,1724,2653,553.1802228701945,316.420084011686,0.0052620931694621,True
0.09,0.4472389418457561,1.6,2459.0,60.3876,0.1,68900.0,0.33,276.0,2700.0,12.204768771357813,0.5476877806814564,1478.7570078399324,7.009695253484365,1.3801440981242934,5.195073517873446,0.832456317442837,10247,164,3372,5183,295.1843842722148,170.31006369993102,0.0021747462546484,True
0.0999999999999999,0.643607802169716,1.6,2460.0,60.3876,0.2,68900.0,0.33,276.0,2700.0,20.85405450595238,1.0406083301952245,2809.642491527105,11.675631641714538,3.1988932471328018,9.178422864237842,2.158284916937577,4552,116,1496,2302,392.86184239562886,225.5092308020831,0.0033250516030162,True
0.11,0.7134050429868534,1.6,2461.0,60.3876,0.3,68900.0,0.33,276.0,2700.0,24.209018364294945,1.3287083701549374,3587.512599418331,13.567543285478225,4.07913307370989,10.641475078816722,2.7504247035549527,2502,84,820,1266,398.8421215804042,230.19359539249552,0.0036437538518401,True
0.12,0.8034311212232672,1.6,2462.0,60.3876,0.3,68900.0,0.33,276.0,2700.0,28.928657988769988,1.732100364589266,4676.670984391018,16.188582503339056,5.417018586213379,12.740075485430932,3.684918221624113,2899,94,946,1474,411.6572768527555,237.4760564137761,0.0041387022901025,True
0.13,0.750782992966414,1.6,2463.0,60.3876,0.3,68900.0,0.33,276.0,2700.0,25.714556844755787,1.666844808869169,4500.480983946756,14.631044116907823,4.606026396698408,11.083512727847962,2.939181587829239,2617,86,858,1324,357.39760435665374,206.31091755208195,0.0033447436390402,True
0.14,0.4896896452219972,1.6,2464.0,60.3876,0.2,68900.0,0.33,276.0,2700.0,12.98837734963144,0.9034393943132342,2439.286364645732,7.936262016701428,1.6972170787694436,5.052115332930012,0.7937776844562094,2779,84,914,1402,221.90418580054623,128.0753185996585,0.0016282545288826,False
0.15,0.4600619638430813,1.6,2465.0,60.3876,0.2,68900.0,0.33,276.0,2700.0,11.610001627318082,0.8636815385782796,2331.9401541613547,7.284807752592362,1.471789045360943,4.325193874725721,0.6081075067826635,2603,80,858,1310,197.7742140439551,114.15284272822458,0.0014110688100618,False
0.16,0.7714992405067067,1.6,2466.0,60.3876,0.3,68900.0,0.33,276.0,2700.0,26.08201974418176,2.077982937195097,5610.553930426762,15.235599309130668,4.915370165380636,10.846420435051094,2.8373872281855386,2711,90,890,1370,297.8366598787394,171.84042184078749,0.0028308980922343,True
0.17,0.5920428602191277,1.6,2467.0,60.3876,0.3,68900.0,0.33,276.0,2700.0,16.837723975375845,1.4209167747688876,3836.475291875997,10.35656223427365,2.631136006858206,6.481161741102195,1.2102192320893186,1841,70,604,929,226.32889671902527,130.2502741992277,0.0017585369943142,False
0.18,0.8767345914865956,1.6,2468.0,60.3876,0.3,68900.0,0.33,276.0,2700.0,31.577756021197395,2.829783529670612,7640.415530110652,18.473208416148825,6.686608407460907,13.10454760504857,3.856824877790296,3107,98,1018,1574,298.3916557605926,171.2672819380888,0.0032223549506565,True
0.19,0.8354214033654359,1.6,2469.0,60.3876,0.3,68900.0,0.33,276.0,2700.0,28.8922468864879,2.7303979982090283,7372.074595164377,17.1690054653791,5.950509344930969,11.7232414211088,3.220111346721941,2984,94,978,1511,270.06350527284314,155.38417680426855,0.0027572365868956,False
0.2,0.5012604406299199,1.6,2470.0,60.3876,0.3,68900.0,0.33,276.0,2700.0,12.365768455821431,1.2198216847629963,3293.51854886009,8.196671359026775,1.7905492699759658,4.169097096794657,0.5707275852129694,1379,58,448,701,166.16431112399195,95.763809953491,0.0012202314601404,False
0.21,0.8177081247699896,1.6,2471.0,60.3876,0.3,68900.0,0.33,276.0,2700.0,27.373183635277474,2.8547880886608707,7707.927839384351,16.622959380747076,5.651237741194295,10.750224254530398,2.7964496525334246,2874,92,948,1446,240.28353186946268,138.1887474641122,0.0023746809721939,False
0.22,0.548125396446431,1.6,2472.0,60.3876,0.3,68900.0,0.33,276.0,2700.0,13.937466707478634,1.5108202187723678,4079.214590685393,9.28581611141088,2.199991693998604,4.651650596067755,0.6891714752262363,1414,60,470,703,160.08988757956723,92.4025916700068,0.0012599609866654,False
0.23,0.8825879029589947,1.6,2473.0,60.3876,0.3,68900.0,0.33,276.0,2700.0,30.573640692612084,3.490486174439574,9424.31267098685,18.661459078393836,6.795288375081914,11.912181614218252,3.30480220064234,3032,96,996,1532,235.70445410396195,135.2181559569059,0.0024993915701034,False
0.24,0.7898798043615236,1.6,2474.0,60.3876,0.3,68900.0,0.33,276.0,2700.0,25.108684062770436,2.9840891696369694,8057.040758019817,15.781023503647216,5.200408667724981,9.327660559123215,2.216319498088011,2509,86,828,1261,205.1438393292184,117.99263711408824,0.0019219569495684,False
0.25,0.7769469226947092,1.6,2475.0,60.3876,0.3,68900.0,0.33,276.0,2700.0,24.183159114606664,2.9901699658509404,8073.458907797539,15.396368281607424,4.998806438888886,8.786790832999241,2.008636473037946,2508,86,826,1263,196.70886744412195,113.03421722126126,0.0018073898909864,False
0.26,0.568805424290431,1.6,2476.0,60.3876,0.3,68900.0,0.33,276.0,2700.0,14.086764229381751,1.7944682614999656,4845.064306049907,9.78397447178265,2.3971550710909653,4.302789757599104,0.6026868095909996,1484,60,492,740,141.05645591031416,81.12645671784426,0.0011431170127796,False
0.27,0.6581784357711181,1.6,2477.0,60.3876,0.3,68900.0,0.33,276.0,2700.0,17.856396049542195,2.369389487887793,6397.351617297042,12.060468663883846,3.371811778681965,5.795927385658349,1.002422290794172,2001,72,654,1014,159.8115118259712,92.01183586661442,0.0013386796569682,False
0.28,0.7576511555686252,1.6,2478.0,60.3876,0.3,68900.0,0.33,276.0,2700.0,22.49917865041152,3.1039088497698786,8380.553894378672,14.830280166767505,4.707198300979186,7.668898483644016,1.603289451209307,2234,78,736,1124,175.7094913967033,100.95561553165366,0.0015741419296844,False
0.29,0.8782090170909578,1.6,2479.0,60.3876,0.3,68900.0,0.33,276.0,2700.0,28.781705529686967,4.122267099652338,11130.121169061313,18.520546867610093,6.713880670743685,10.261158662076872,2.5916135710913477,2890,94,954,1453,189.9806433421624,108.67465642071896,0.0018988784630736,False
0.3,0.6375523177382514,1.6,2480.0,60.3876,0.3,68900.0,0.33,276.0,2700.0,16.342542784790318,2.394832749953933,6466.048424875618,11.517264801694862,3.128671600522024,4.825277983095456,0.7338388505680911,1739,68,572,875,139.3134005286887,79.93691290512665,0.0011721879574733,False
0.31,0.7682295398154126,1.6,2481.0,60.3876,0.3,68900.0,0.33,276.0,2700.0,22.384704692214065,3.407235102797784,9199.534777554018,15.13946389967552,4.865711556006628,7.245240792538544,1.4584764532088443,2337,82,774,1170,161.43670990421367,92.60317885823986,0.0014650729705126,False
0.32,0.7574509043694572,1.6,2482.0,60.3876,0.3,68900.0,0.33,276.0,2700.0,21.62693259563068,3.391680076585596,9157.53620678111,14.824454372674248,4.704229102919804,6.802478222956429,1.312549026334208,2257,78,740,1141,153.92257049850997,88.44382692770785,0.0013962244475297,False
0.33,0.694709255101535,1.6,2483.0,60.3876,0.3,68900.0,0.33,276.0,2700.0,18.38671887429944,2.958542337464703,7988.064311154698,13.048772888007596,3.830340259397964,5.337945986291841,0.8717979219332608,1907,70,632,953,141.1177270323748,80.78991584727586,0.0012056791035267,False
0.34,0.6453038091244352,1.6,2484.0,60.3876,0.2,68900.0,0.33,276.0,2700.0,15.960717171091988,2.6310038139811764,7103.710297749177,11.720151887856098,3.2187329427040035,4.24056528323589,0.587729128722827,3906,96,1140,2070,140.80260386567065,81.12871389251468,0.0010924740721851,False
0.3500000000000001,0.7778174537275213,1.6,2485.0,60.3876,0.3,68900.0,0.33,276.0,2700.0,22.02301300801185,3.7642300863869673,10163.421233244811,15.422128027736733,5.012220666218138,6.60088498027512,1.2479905798311703,2243,80,748,1115,146.62071908863714,83.94623954061154,0.0013365492500709,False
0.36,0.951752058994447,1.6,2486.0,60.3876,0.3,68900.0,0.33,276.0,2700.0,31.300388503513485,5.5363538327351725,14948.155348384966,20.951075682683307,8.164479192732829,10.349312820830178,2.6281253599976564,2967,96,980,1491,165.48636707944843,94.0866078724136,0.0017367539368234,False
0.37,0.981756187969441,1.6,2487.0,60.3876,0.3,68900.0,0.33,276.0,2700.0,32.83467916391035,5.968328250201816,16114.486275544905,21.98172584538432,8.808503277866432,10.85295331852603,2.840175027664616,3254,100,1078,1631,165.71195856887064,94.40935341649318,0.0017758925767079,False
0.38,0.7217781109360638,1.6,2488.0,60.3876,0.3,68900.0,0.33,276.0,2700.0,18.70656188390751,3.4393231098839068,9286.172396686548,13.802727189454377,4.193718411492831,4.903834694453135,0.7543953016089238,1951,72,648,973,122.19513379655098,70.0388484757905,0.0011219770514024,False
0.39,0.7358468350546418,1.6,2489.0,60.3876,0.2,68900.0,0.33,276.0,2700.0,19.181754639983957,3.616204731718009,9763.752775638624,14.201859028042932,4.390706978196936,4.979895611941021,0.7745022464789266,4974,104,1292,2752,137.88867759055407,79.2425695536347,0.0011581513685387,False
0.4,0.7251442739988405,1.6,2490.0,60.3876,0.2,68900.0,0.33,276.0,2700.0,18.49498139151028,3.5649549917487677,9625.378477721672,13.897773023283724,4.240340531926461,4.597208368226552,0.6753855401776936,4965,102,1248,2781,132.03411163834096,76.02481420204928,0.001110377351995,False
0.4100000000000001,0.9042128857605428,1.6,2491.0,60.3876,0.2,68900.0,0.33,276.0,2700.0,27.402076166556483,5.47307780929204,14777.310085088508,19.3644158509622,7.206421640763941,8.037660315594287,1.7333438314719016,7820,130,1960,4392,149.27254589499304,85.44765286087237,0.0014598896947203,False
0.42,0.9032820142876744,1.6,2492.0,60.3876,0.3,68900.0,0.33,276.0,2700.0,27.12741538016062,5.541587685487589,14962.28675081649,19.333914220652137,7.188410056697674,7.793501159508484,1.6468223712100851,2621,88,870,1310,138.9524342541961,78.94552181914014,0.0013986244544226,False
0.43,0.8555398678380262,1.6,2493.0,60.3876,0.3,68900.0,0.33,276.0,2700.0,24.35232479084241,5.069230758624869,13686.923048287146,17.79876053127678,6.3022411692148,6.553564259565629,1.233010410589931,2506,82,806,1273,135.09273707767494,77.405407194933,0.0012820871948233,False
0.44,0.9032118733628036,1.6,2494.0,60.3876,0.2,68900.0,0.33,276.0,2700.0,26.68463679399947,5.692211142277174,15368.97008414837,19.33161681300199,7.187054038645036,7.35301998099748,1.494842896367862,7522,128,1912,4196,142.1604482155463,81.53858491140531,0.00137075602003,False
0.45,0.918991306365582,1.6,2495.0,60.3876,0.3,68900.0,0.33,276.0,2700.0,27.33039784446,5.958487761297922,16087.91695550439,19.851574014334588,7.496190077162581,7.478823830125414,1.5377023158646583,2683,88,884,1343,130.4534973586567,73.98466632610042,0.001355418301862,False
0.46,0.9456952502047498,1.6,2496.0,60.3876,0.3,68900.0,0.33,276.0,2700.0,28.59291377893485,6.372510127468612,17205.777344165253,20.745767292574048,8.038204755576784,7.847146486360803,1.665694628108172,2791,90,906,1410,141.27308937935845,80.56934506686892,0.0013691387967138,False
0.4700000000000001,1.0135520876417896,1.6,2497.0,60.3876,0.3,68900.0,0.33,276.0,2700.0,32.27571819854376,7.367347393942015,19891.83796364344,23.0986165904396,9.525120976189545,9.17710160810416,2.1577735822475272,3209,98,1046,1614,143.7147237720778,82.52112127095765,0.0014945814979066,False
0.4800000000000001,0.9612022958055162,1.6,2498.0,60.3876,0.3,68900.0,0.33,276.0,2700.0,29.02064028141042,6.733330324374634,18179.991875811516,21.273253060431195,8.363992378027291,7.747387220979224,1.6306620536526566,3361,94,1018,1754,139.47832142379812,79.56530748797701,0.0013691500735193,False
0.49,0.8812684407941556,1.6,2499.0,60.3876,0.2,68900.0,0.33,276.0,2700.0,24.47620570160081,5.75026690749074,15525.720650225,18.618948159462303,6.770693336472996,5.857257542138505,1.0204264289822556,6583,120,1614,3726,129.31723344114434,74.01258163637092,0.0012122848984414,False
0.5,1.0728756388570195,1.6,2500.0,60.3876,0.3,68900.0,0.33,276.0,2700.0,35.133682962088294,8.521621352722924,23008.377652351897,25.250395727618425,10.95880127013008,9.883287234469869,2.437179917407157,3493,100,1086,1800,146.3296929962402,83.0731567856175,0.0015380750501689,False
0.05,0.4579162413768772,1.6,2505.0,63.40698,0.1,68900.0,0.33,276.0,2700.0,13.43029515183425,0.3354955794080568,905.8380644017536,7.238484284910168,1.4562075890477808,6.191810866924081,1.1207120096397238,10971,172,3604,5559,629.4878581831935,359.69961272549307,0.0040578316350942,True
0.06,0.4219616321139715,1.6,2506.0,63.40698,0.1,68900.0,0.33,276.0,2700.0,11.764717266000211,0.3524891286378899,951.7206473223029,6.479483635889922,1.2096928477576518,5.285233630110289,0.8572037191197619,9361,158,3072,4747,451.8347723614352,259.110775135138,0.0030817202331143,True
0.0699999999999999,0.4395295020312846,1.6,2507.0,63.40698,0.2,68900.0,0.33,276.0,2700.0,12.277161114793332,0.4289822614975395,1158.252106043357,6.846281669886265,1.326734147725077,5.4308794449070685,0.8977518862275373,2607,82,858,1314,422.35527512622326,243.8468985496428,0.002821882044434,True
0.08,0.6286095392090728,1.6,2508.0,63.40698,0.2,68900.0,0.33,276.0,2700.0,20.582428798138366,0.8222248216331101,2220.007018409397,11.28507310807655,3.026714969461347,9.297355690061815,2.2044901478282366,4401,112,1440,2235,504.7428561313668,288.8178424966645,0.0042267135140555,True
0.09,0.7291583455194531,1.6,2509.0,63.40698,0.2,68900.0,0.33,276.0,2700.0,25.57066210810736,1.1491529808351857,3102.713048255001,14.011485255753987,4.296355275875087,11.559176852353367,3.147202295039901,5235,128,1720,2649,515.1246223344115,295.171598385092,0.0048849538618634,True
0.0999999999999999,0.428675938929468,1.6,2510.0,63.40698,0.2,68900.0,0.33,276.0,2700.0,11.28048451774526,0.5619298307848711,1517.210543119152,6.618755302579812,1.2536650112849903,4.661729215165448,0.6917351805001194,2579,80,844,1307,290.4183479540748,167.60413806743983,0.0019595983140371,True
0.11,0.5532029682592117,1.6,2511.0,63.40698,0.2,68900.0,0.33,276.0,2700.0,16.331093701927195,0.8954225137247098,2417.6407870567164,9.407133503430495,2.247448816855268,6.923960198496697,1.3520263031305584,3599,98,1176,1829,324.36920247466054,187.1865571081261,0.0025266458807119,True
0.12,0.6126665059574683,1.6,2512.0,63.40698,0.3,68900.0,0.33,276.0,2700.0,18.87904847892753,1.1291237939987164,3048.6342437965345,10.876111485753544,2.850065205361599,8.002936993173982,1.7209414113628827,2016,74,660,1020,337.4341441489845,194.81751962707315,0.002681509577901,True
0.13,0.5598369520589246,1.6,2513.0,63.40698,0.3,68900.0,0.33,276.0,2700.0,16.209566809312612,1.0490204565653611,2832.355232726475,9.566614265925786,2.3103839730367386,6.642952543386826,1.2613635164713777,1660,66,544,838,286.51043716632,165.41608094436535,0.0022015794134604,True
0.14,0.7348063204289164,1.6,2514.0,63.40698,0.2,68900.0,0.33,276.0,2700.0,24.59772800044957,1.7160939398705024,4633.4536376503565,14.172169119927842,4.375945184916991,10.425558880521733,2.6598512450464886,5007,124,1656,2517,331.0977846456444,191.07268785799477,0.0031132192199652,True
0.15,0.560623435384815,1.6,2515.0,63.40698,0.3,68900.0,0.33,276.0,2700.0,15.832467583217166,1.1803664852707096,3186.989510230916,9.585594638679714,2.317915418496569,6.2468729445374525,1.1375489332258597,1677,66,550,846,250.5050365253609,144.32776598201443,0.0019338300912401,False
0.16,0.460641133460629,1.6,2516.0,63.40698,0.2,68900.0,0.33,276.0,2700.0,11.455518010207664,0.9078627984772102,2451.2295558884675,7.297331133084582,1.476011810854777,4.158186877123081,0.5681490123775669,2613,80,862,1314,192.89592673602905,111.12525305420832,0.0014008699849773,False
0.17,0.7975957245898866,1.6,2517.0,63.40698,0.3,68900.0,0.33,276.0,2700.0,27.271392902931492,2.307778633611117,6231.0023107500165,16.012515788720904,5.323065912100085,11.258877114210591,3.015287278488968,2837,92,928,1439,306.06874950156003,176.393461769001,0.0029718039280264,True
0.18,0.5208898195345779,1.6,2518.0,63.40698,0.3,68900.0,0.33,276.0,2700.0,13.533425522204205,1.2057937847612208,3255.6432188552963,8.646141255256614,1.9558404044459723,4.88728426694759,0.7500466196847515,1419,60,466,714,200.7455881193328,115.74547042598836,0.0014811808778928,False
0.19,0.5062686831764058,1.6,2519.0,63.40698,0.3,68900.0,0.33,276.0,2700.0,12.746870853013608,1.1965872750289757,3230.7856425782343,8.310428985224192,1.8318847880113027,4.436441867789416,0.6352975129823271,1397,58,458,704,183.14938906223853,105.33154036841788,0.0013573548560359,False
0.2,0.5991670109342324,1.6,2520.0,63.40698,0.3,68900.0,0.33,276.0,2700.0,16.54994311228364,1.6382391504092189,4423.245706104891,10.53482473686284,2.705551944290701,6.015118375420798,1.067312793881482,1871,70,614,944,214.78128853496315,123.96148197144592,0.0016183699347778,False
0.21,0.7432767828855377,1.6,2521.0,63.40698,0.3,68900.0,0.33,276.0,2700.0,23.34941434631323,2.4322923133196275,6567.189245962994,14.414655052501695,4.497015722512223,8.934759293811535,2.0647234091925952,2386,82,784,1204,237.94847283445944,136.99031002522045,0.0020934159594088,False
0.22,0.8571556380165877,1.6,2522.0,63.40698,0.2,68900.0,0.33,276.0,2700.0,29.35670196957328,3.206936097602675,8658.727463527222,17.849779222713575,6.331041084101566,11.506922746859704,3.1241049864988906,5611,136,1858,2818,249.67142084604484,143.38997396342484,0.0025918161938301,False
0.23,0.6138029919282326,1.6,2523.0,63.40698,0.3,68900.0,0.33,276.0,2700.0,16.61454694291066,1.885190393223908,5090.014061704553,10.905052517804291,2.8624421959457464,5.709494425106369,0.9772518027218382,1797,68,590,906,182.41595824191543,105.15289407180408,0.0014769863773761,False
0.24,0.9260685582065282,1.6,2524.0,63.40698,0.3,68900.0,0.33,276.0,2700.0,32.89879262722262,3.918902197370987,10581.035932901665,20.086813390910915,7.637516347631968,12.811979236311704,3.718614150260981,3203,100,1054,1616,246.6088161848258,141.02697537990252,0.0027501729969949,False
0.25,0.5718042843998519,1.6,2525.0,63.40698,0.3,68900.0,0.33,276.0,2700.0,14.393583634968078,1.7664730308961172,4769.477183419516,9.857105936382975,2.42660544087772,4.536477698585102,0.6601324099816028,1488,60,492,744,155.56234522653506,89.64905818805985,0.0012489859833725,False
0.26,0.7432971416759759,1.6,2526.0,63.40698,0.3,68900.0,0.33,276.0,2700.0,22.20907702045987,2.8503689243401205,7695.996095718325,14.415240040670428,4.497309193408484,7.793836979789441,1.646940269068363,2317,80,764,1165,191.32848756400148,110.02115292114108,0.0017203471101559,False
0.27,0.735529855053427,1.6,2527.0,63.40698,0.3,68900.0,0.33,276.0,2700.0,21.59618731683589,2.8742613089724367,7760.505534225579,14.192811480137696,4.386206706917553,7.403375836698196,1.5119453979451167,2230,78,736,1120,184.1682526531821,105.8294854230096,0.0016388516035005,False
0.28,0.928890496989262,1.6,2528.0,63.40698,0.3,68900.0,0.33,276.0,2700.0,31.99550297589726,4.433394255337884,11970.164489412287,20.18096229736452,7.694332899520941,11.814540678532744,3.260938644183057,3104,98,1024,1562,215.5010911652039,123.06840396583311,0.0023242303726179,False
0.29,0.9674839736970624,1.6,2529.0,63.40698,0.3,68900.0,0.33,276.0,2700.0,34.067231331005665,4.8886683408435525,13199.404520277592,21.48864980374445,8.498300108797135,12.57858152726121,3.609631767953583,3385,104,1122,1696,213.5010154277246,121.61205780757042,0.0024207564305604,False
0.3,0.8681202970141912,1.6,2530.0,63.40698,0.3,68900.0,0.33,276.0,2700.0,27.9650252006974,4.138205112339991,11173.153803317977,18.197726813464,6.528662628944052,9.7672983872334,2.3904575166040614,2796,90,930,1395,190.81322118597305,109.09566424532028,0.0018830065721289,False
0.31,0.687123741034128,1.6,2531.0,63.40698,0.3,68900.0,0.33,276.0,2700.0,18.419275062699032,2.7925935102229555,7540.00247760198,12.840795371715636,3.732148331423362,5.5784796909833965,0.9395548212004066,1863,70,616,933,154.3232045769122,88.6072295958784,0.0013174326205565,False
0.32,0.9144309582600584,1.6,2532.0,63.40698,0.3,68900.0,0.33,276.0,2700.0,30.116836187672465,4.750064651312372,12825.174558543406,19.70066042029565,7.406004297109528,10.416175767376814,2.655939645797156,3055,96,1012,1531,188.8442018960126,107.62378700582086,0.0019261516944405,False
0.33,0.7954432750939291,1.6,2533.0,63.40698,0.3,68900.0,0.33,276.0,2700.0,23.34928027085874,3.7773649678969634,10198.8854133218,15.947787725757795,5.288669463391034,7.401492545100943,1.5113044954940702,2387,82,790,1196,163.8008526603604,93.5026638936424,0.0015268894491186,False
0.34,0.7720745391856035,1.6,2534.0,63.40698,0.3,68900.0,0.33,276.0,2700.0,21.942224730776196,3.647860099127445,9849.222267644102,15.252541979878718,4.924140058684716,6.689682750897475,1.2762799595572711,2360,82,778,1187,157.19877024880267,90.07515425988592,0.0014288623439586,False
0.3500000000000001,0.9024508029275584,1.6,2535.0,63.40698,0.3,68900.0,0.33,276.0,2700.0,28.695817819814565,4.931970928452438,13316.321506821583,19.306696533572865,7.172350800590099,9.3891212862417,2.2403798721376607,2678,90,890,1337,171.93861740756032,98.0220086959139,0.0017304200248366,False
0.36,0.8322894068929365,1.6,2536.0,63.40698,0.3,68900.0,0.33,276.0,2700.0,24.62287320333887,4.334401078703741,11702.8829125001,17.071881726678537,5.896888240326692,7.550991476660332,1.5624871616229503,2534,84,840,1268,157.6520857617288,89.75733475885892,0.0015075991451922,False
0.37,0.8567842888496515,1.6,2537.0,63.40698,0.3,68900.0,0.33,276.0,2700.0,25.70945122915426,4.650161082271883,12555.434922134084,17.838047893739912,6.324414761773888,7.871403335414349,1.674253679502005,2593,86,860,1297,156.69167102909935,89.3993846558329,0.001524824912799,False
0.38,1.0349453946937088,1.6,2538.0,63.40698,0.3,68900.0,0.33,276.0,2700.0,35.839013430973736,6.694488903826488,18075.12004033152,23.864395900743972,10.027447542803156,11.97461753022976,3.332958638976668,3435,104,1142,1716,176.48674823493118,100.30334757668996,0.0020111956893609,False
0.39,0.7624336365492147,1.6,2539.0,63.40698,0.2,68900.0,0.33,276.0,2700.0,20.456866128420916,3.8648514719632177,10435.098974300688,14.96971361666358,4.778457023628205,5.487152511757332,0.913605551664987,5132,106,1312,2856,148.23545173543303,85.28320714754841,0.0012695330393345,False
0.4,0.9800036304140672,1.6,2540.0,63.40698,0.3,68900.0,0.33,276.0,2700.0,31.979115271479703,6.261781767742776,16906.810772905494,21.92090281416884,8.770032347360912,10.058212457310866,2.508250579618136,3252,100,1080,1626,160.72416902794146,91.23169276139868,0.0017293031613157,False
0.4100000000000001,0.999340878515428,1.6,2541.0,63.40698,0.3,68900.0,0.33,276.0,2700.0,32.88556694937205,6.597193419769232,17812.422233376925,22.596280823600758,9.200437115679156,10.289286125771294,2.6032436959099243,3197,100,1062,1598,158.3014152419346,89.86573699709523,0.001739005982543,False
0.42,0.8446583500200947,1.6,2542.0,63.40698,0.3,68900.0,0.33,276.0,2700.0,23.992164684828232,4.883185039467826,13184.59960656313,17.45688046236354,6.1104264249154765,6.535284222464693,1.227241385447651,2490,82,806,1261,143.45875757549842,82.2305116951619,0.0013501165311103,False
0.43,0.8733440269939831,1.6,2543.0,63.40698,0.3,68900.0,0.33,276.0,2700.0,25.291506752457323,5.271154880371943,14232.118177004246,18.36455698692925,6.624158079414459,6.926949765528068,1.3530031990425169,2588,86,848,1300,140.97178271140754,80.3557752874914,0.0013756951670308,False
0.44,0.8507128557511874,1.6,2544.0,63.40698,0.3,68900.0,0.33,276.0,2700.0,23.895431019363148,5.0785858718577686,13712.181854015977,17.646736196317462,6.216693484205977,6.248694823045685,1.1381076123482083,2591,82,814,1330,131.39750113254516,74.80698730107146,0.0013027736626387,False
0.45,0.7994093309656887,1.6,2545.0,63.40698,0.2,68900.0,0.33,276.0,2700.0,21.11397931983632,4.559793593257592,12311.442701795497,16.067144612270237,5.352155837924883,5.046834707566081,0.7923622446672915,5609,110,1412,3137,135.10121689914283,77.53909850787458,0.0012004082112842,False
0.46,1.0322360575584888,1.6,2546.0,63.40698,0.3,68900.0,0.33,276.0,2700.0,33.634432260669804,7.532059378267512,20336.56032132228,23.76677830833887,9.962923129916897,9.867653952330931,2.430863751649383,3153,98,1052,1565,148.10481448283508,83.998247675486,0.0016427942109446,False
0.4700000000000001,0.8111997584092407,1.6,2547.0,63.40698,0.3,68900.0,0.33,276.0,2700.0,21.31736411927887,4.792134185314764,12938.762300349865,16.424307399814086,5.543696458876733,4.893056719464784,0.7515622735619685,2347,76,722,1220,139.61436529514805,80.441068573019,0.0011598265806513,False
0.4800000000000001,0.935785186195074,1.6,2548.0,63.40698,0.3,68900.0,0.33,276.0,2700.0,27.604425045105724,6.393438667661506,17262.284402686066,20.41183304900976,7.834269567034954,7.192591996095963,1.4408308993734478,2810,88,876,1450,141.7644537939835,81.02359416360504,0.0013875753798883,False
0.49,0.8018452384700545,1.6,2549.0,63.40698,0.3,68900.0,0.33,276.0,2700.0,20.497706060236016,4.775534495356367,12893.94313746219,16.140648254845804,5.391383409824925,4.3570578053902125,0.6158489144685584,2422,74,700,1290,127.9436452484751,73.13553379338546,0.0011242242079221,False
0.5,1.1841740455626502,1.6,2550.0,63.40698,0.3,68900.0,0.33,276.0,2700.0,42.286349419421526,10.309787967056234,27836.427511051832,29.526037470010355,14.004178617066067,12.760311949411172,3.694390650009833,4528,114,1354,2379,156.51643068702143,88.91664907566498,0.0018790615811784,False
0.05,0.731673665984634,1.6,2555.0,66.42636,0.2,68900.0,0.33,276.0,2700.0,26.775206155393874,0.6691183544970445,1806.61955714202,14.082946649492657,4.331688492309285,12.692259505901218,3.66257013781224,5317,130,1752,2683,932.4811084492952,532.478385656485,0.00944500921359,True
0.06,0.7321880214895656,1.6,2556.0,66.42636,0.2,68900.0,0.33,276.0,2700.0,26.53309823008177,0.7955405575603346,2147.959505412904,14.097579304925592,4.338935896352544,12.435518925156174,3.543395338792209,5320,130,1754,2683,808.0013897900807,461.155047195717,0.0078430615796001,True
0.0699999999999999,0.7456184303144773,1.6,2557.0,66.42636,0.2,68900.0,0.33,276.0,2700.0,27.01011421640024,0.9446356200538888,2550.5161741455,14.482008104652987,4.530848594113663,12.528106111747247,3.586212974059774,5518,132,1818,2785,715.5231592144611,409.16281054974326,0.0069172741170348,True
0.08,0.6928999238203303,1.6,2558.0,66.42636,0.2,68900.0,0.33,276.0,2700.0,23.88108672269878,0.954171138614944,2576.262074260349,12.999033814353323,3.806775716066924,10.882052908345456,2.8526045774519795,4844,122,1594,2447,590.3789648646592,337.3582119042652,0.0052640504304005,True
0.09,0.3914124018851416,1.6,2559.0,66.42636,0.2,68900.0,0.33,276.0,2700.0,10.031896362966872,0.4499085223038646,1214.7530102204346,5.860120720075277,1.0212698522550676,4.171775642891595,0.571361329951203,2398,76,788,1210,313.19468786818885,180.81812793581815,0.0020114025613641,True
0.0999999999999999,0.5859668106780574,1.6,2560.0,66.42636,0.2,68900.0,0.33,276.0,2700.0,18.058725836142614,0.9008418967047394,2432.2731211027963,10.20553350064333,2.568668320491711,7.853192335499283,1.6678264237869718,3906,104,1272,1992,387.8170205153994,223.8363724452169,0.003135973154606,True
0.11,0.6486317544487745,1.6,2561.0,66.42636,0.3,68900.0,0.33,276.0,2700.0,20.868445486346506,1.1449768618677727,3091.4375270429864,11.807720680039166,3.25788260226135,9.060724806307336,2.112905740393577,2212,78,730,1111,397.87204807490446,229.7114952331863,0.003355473298955,True
0.12,0.8067581354610296,1.6,2562.0,66.42636,0.3,68900.0,0.33,276.0,2700.0,29.120156716139324,1.743590288231426,4707.693778224851,16.289348886297837,5.471045779156708,12.830807829841486,3.727455490925282,2950,94,968,1492,453.9409199811089,261.9030383796476,0.0045813250740588,True
0.13,0.589485591389727,1.6,2563.0,66.42636,0.3,68900.0,0.33,276.0,2700.0,17.565237877247014,1.1371390759810986,3070.275505148966,10.29288465259849,2.6047329484499007,7.2723532246485245,1.467593872468802,1933,72,632,979,316.68280553369954,182.8029475863884,0.002472999075076,True
0.14,0.6921287887201047,1.6,2564.0,66.42636,0.3,68900.0,0.33,276.0,2700.0,22.35927438877598,1.559402187053352,4210.38590504405,12.97786007884079,3.796759869689202,9.38141430993519,2.2373576826358508,2283,80,752,1149,334.2207571273995,192.9427997989953,0.0029299243467948,True
0.15,0.4860769381589166,1.6,2565.0,66.42636,0.2,68900.0,0.33,276.0,2700.0,12.653601322895543,0.9419515157465896,2543.269092515792,7.8556446716974655,1.6686914111075912,4.797956651198078,0.7267398953610016,2792,84,920,1406,223.0242899680927,128.71974618485356,0.0016676901219415,False
0.16,0.721415320044787,1.6,2566.0,66.42636,0.3,68900.0,0.33,276.0,2700.0,23.39722161909761,1.8631990871884083,5030.637535408703,13.792500549573491,4.188712762959624,9.604721069524125,2.325513675771216,2353,82,772,1189,307.8106047457551,177.32879717831912,0.0027399844333316,True
0.17,0.5046510996177138,1.6,2567.0,66.42636,0.3,68900.0,0.33,276.0,2700.0,13.04522285066141,1.0985541791681623,2966.0962837540383,8.273618139015452,1.8184717558935224,4.771604711645958,0.71991757672536,1432,60,468,724,213.46245639218668,123.24041408269798,0.001563547112393,False
0.18,0.6061746852729349,1.6,2568.0,66.42636,0.3,68900.0,0.33,276.0,2700.0,17.278157764487798,1.542819686566745,4165.613153730212,10.711417197917944,2.7799945957479584,6.5667405665698535,1.2371749091812134,1849,70,610,928,243.1326690625104,140.35281592650483,0.0018969455379534,False
0.19,0.7896888444296293,1.6,2569.0,66.42636,0.3,68900.0,0.33,276.0,2700.0,26.32324565662861,2.4863428813724053,6713.125779705494,15.775313316350692,5.197395669774575,10.54793234027792,2.7110527884021693,2727,90,898,1374,281.77503088144755,162.35431606055755,0.0027121596645293,True
0.2,0.525688550175078,1.6,2570.0,66.42636,0.3,68900.0,0.33,276.0,2700.0,13.364626233020871,1.319707462482942,3563.210148703944,8.757494783217021,1.9975978537633052,4.60713144980385,0.6778903912803633,1353,58,444,681,204.331048819936,116.60565096580916,0.0055218188517773,False
0.21,0.5351973092505449,1.6,2571.0,66.42636,0.2,68900.0,0.33,276.0,2700.0,13.578028097435569,1.406296757187346,3797.001244405834,8.979853133645731,2.0819261370995226,4.598174963789836,0.6756293799121766,3035,88,996,1535,178.27917885178363,102.80504456599516,0.0013989165797628,False
0.22,0.5399962467197506,1.6,2572.0,66.42636,0.3,68900.0,0.33,276.0,2700.0,13.596656416923366,1.473331086811287,3977.993934390475,9.092937106319326,2.1252910007576853,4.5037193106040405,0.6519599139463983,1495,60,492,751,174.68122023487237,100.28990431761032,0.0013571943097333,False
0.23,0.7171223835846304,1.6,2573.0,66.42636,0.3,68900.0,0.33,276.0,2700.0,21.55067898045088,2.4528455775410314,6622.683059360785,13.671738983031414,4.129761811039431,7.878939997419462,1.6769162334983991,2259,80,744,1137,311.0856703680193,160.90336104914712,0.0019146159951032,True
0.24,0.680437670831461,1.6,2574.0,66.42636,0.3,68900.0,0.33,276.0,2700.0,19.5241317538876,2.31394289257103,6247.6458099417805,12.658677650622208,3.646903324039967,6.865454103265391,1.332960431468937,2073,76,682,1044,200.82689080513373,115.71762834342236,0.0017151639075997,False
0.25,0.5709370934046261,1.6,2575.0,66.42636,0.3,68900.0,0.33,276.0,2700.0,14.35669052812362,1.7618613925405595,4757.025759859511,9.835935022100886,2.418066628349664,4.520755506022734,0.6562052358091044,1484,60,490,743,160.40470965974697,92.35141748073691,0.0013053476430059,False
0.26,0.9551671900053932,1.6,2576.0,66.42636,0.3,68900.0,0.33,276.0,2700.0,34.12861999973563,4.399909511645967,11879.755681444112,21.067245293149615,8.236228144807034,13.061374706586015,3.836318633161067,3205,100,1052,1621,244.928086368046,139.7420590711762,0.0028031723430291,False
0.27,0.7388604755688495,1.6,2577.0,66.42636,0.3,68900.0,0.33,276.0,2700.0,21.76397006806919,2.896911980388936,7821.662347050127,14.288003384932953,4.433636022679375,7.475966683136241,1.536724042290439,2222,78,732,1118,581.9756885824613,304.75056715454855,0.0017253870850104,True
0.28,0.7202025207945133,1.6,2578.0,66.42636,0.3,68900.0,0.33,276.0,2700.0,20.61882504769529,2.840659345389604,7669.780232551931,13.758337206808877,4.1720059490081365,6.860487840886412,1.3313466036185324,2189,78,722,1100,184.3881240397548,106.0641747530974,0.0016129186890309,False
0.29,0.9249660138921828,1.6,2579.0,66.42636,0.3,68900.0,0.33,276.0,2700.0,31.49999037647057,4.516418402435969,12194.329686577115,20.05008335868129,7.615389996785376,11.44990701778928,3.098971594349408,3030,98,1002,1521,732.0175894041071,401.2454844943229,0.0023187194469577,True
0.3,0.9498738738738998,1.6,2580.0,66.42636,0.3,68900.0,0.33,276.0,2700.0,32.72778810151799,4.85261954746299,13102.072778150074,20.88731198763482,8.125189088014187,11.840476113883168,3.2725695405511965,3104,98,1020,1568,213.35248117957047,121.50487149872028,0.0023493879976708,False
0.31,0.91094015076665,1.6,2581.0,66.42636,0.3,68900.0,0.33,276.0,2700.0,30.164884830788388,4.613163024276801,12455.540165547363,19.585493841585293,7.337434185358753,10.579390989203096,2.724271161081952,3088,96,1022,1549,201.21757574684185,114.91431526151383,0.0020794766592825,False
0.32,0.8510102307194911,1.6,2582.0,66.42636,0.3,68900.0,0.33,276.0,2700.0,26.53774499293869,4.177410060154973,11279.007162418426,17.65608494551851,6.2219425718098895,8.88166004742018,2.044532511654917,2669,88,884,1337,186.61920614267368,106.7397974685066,0.0018112946231192,False
0.33,0.9441963633599402,1.6,2583.0,66.42636,0.3,68900.0,0.33,276.0,2700.0,31.61017908529805,5.140413272279477,13879.115835154587,20.69510165724726,8.007147175976156,10.91507742805079,2.8667339036966792,3017,96,1000,1511,196.36201332038928,112.1148872951354,0.0020759252050594,False
0.34,0.9171446933292,1.6,2584.0,66.42636,0.3,68900.0,0.33,276.0,2700.0,29.77830092903252,4.979993052831028,13445.981242643777,19.79040188850412,7.459588395605992,9.987899040528395,2.479595342774964,3070,96,1014,1543,186.43213903931496,106.12125928781832,0.0019076397969509,False
0.3500000000000001,0.9164831908384704,1.6,2585.0,66.42636,0.3,68900.0,0.33,276.0,2700.0,29.496008158267248,5.072004237681657,13694.411441740474,19.768509368281745,7.446504237048536,9.727498789985503,2.374499999366879,2858,92,952,1424,180.6231917355288,103.13042867805292,0.0018552258923174,False
0.36,0.7709328585788435,1.6,2586.0,66.42636,0.3,68900.0,0.33,276.0,2700.0,21.472105449290165,3.767262882974976,10171.609784032436,15.218927364390408,4.906745718996311,6.253178084899757,1.1394828360213358,2251,80,750,1120,152.3340333147777,87.09972809679394,0.0014156133941976,False
0.37,1.0643731224694302,1.6,2587.0,66.42636,0.3,68900.0,0.33,276.0,2700.0,37.97608939169984,6.91948914234295,18682.620684325964,24.936563115920208,10.745444837487923,13.039526275779629,3.825955695144973,3653,108,1214,1826,191.57283035738524,108.62516096123926,0.0022998726250381,False
0.38,0.8960322440837287,1.6,2588.0,66.42636,0.3,68900.0,0.33,276.0,2700.0,27.631119802998416,5.13498911451118,13864.470609180184,19.097108115922456,7.049102814428504,8.53401168707596,1.914113699917324,2570,88,854,1283,167.9586919519832,95.81823182244018,0.0016638846871793,False
0.39,1.0278441583203537,1.6,2589.0,66.42636,0.2,68900.0,0.33,276.0,2700.0,35.13380587613827,6.726854722768104,18162.50775147388,23.60892981331763,9.858888639139458,11.524876062820638,3.1320339163713538,9531,152,2410,5332,185.4881059030291,105.86405044713533,0.0020182050944589,False
0.4,0.906782744669468,1.6,2590.0,66.42636,0.3,68900.0,0.33,276.0,2700.0,27.770875913293622,5.420133896105554,14634.361519484995,19.448734820284493,7.256293765736292,8.322141093009133,1.8361598696307384,2601,88,864,1299,157.86418258789314,89.97932599242075,0.0016120774147493,False
0.4100000000000001,0.9760347361668752,1.6,2591.0,66.42636,0.3,68900.0,0.33,276.0,2700.0,31.50005470042475,6.313163408735036,17045.5412035846,21.7834465139665,8.683303507986514,9.716608186458252,2.3701400992514774,3039,96,1016,1509,163.9194836517881,93.22420428876715,0.0017604789329559,False
0.42,1.1166201216121747,1.6,2592.0,66.42636,0.3,68900.0,0.33,276.0,2700.0,39.99514212468971,8.243810301838732,22258.287814964577,26.89374959649506,12.099135284294103,13.101392528194648,3.8553249824553735,3779,110,1256,1889,177.0779013161787,100.25852059466644,0.0021690354913878,False
0.43,0.9447950818799298,1.6,2593.0,66.42636,0.3,68900.0,0.33,276.0,2700.0,29.220881348781266,6.115970418581999,16513.1201301714,20.715332872779523,8.019543772563631,8.505548476001742,1.903573353981632,2649,90,886,1314,151.9879738352302,86.26045253441819,0.0016009271157801,False
0.44,1.052762025421688,1.6,2594.0,66.42636,0.3,68900.0,0.33,276.0,2700.0,35.389468500736456,7.607274117759753,20539.64011795133,24.510925826301307,10.458378319574368,10.878542674435147,2.851104201814615,3536,104,1180,1760,162.9171425475852,92.37603508708628,0.0018460544698183,False
0.45,0.859934454069383,1.6,2595.0,66.42636,0.3,68900.0,0.33,276.0,2700.0,24.17051724657027,5.247514626772733,14168.28949228638,17.937675083417542,6.38076441541802,6.232842163152728,1.133249788645287,2743,84,856,1411,139.6809537956578,80.48095259258116,0.0013787498347043,False
0.46,0.9302677503211764,1.6,2596.0,66.42636,0.3,68900.0,0.33,276.0,2700.0,27.73370656190484,6.174892467551571,16672.20966238924,20.22698455071145,7.722158883765685,7.506722011193393,1.5472664162141143,2672,88,874,1343,142.3559891647151,80.66206279318138,0.0014881431367264,False
0.4700000000000001,0.8069397486999251,1.6,2597.0,66.42636,0.2,68900.0,0.33,276.0,2700.0,21.108785157064737,4.743118129194177,12806.418948824276,16.294857474117634,5.474004640771345,4.813927682947103,0.7308865115771681,5693,110,1422,3196,138.90888084749446,79.86920754102326,0.0012286589426471,False
0.4800000000000001,0.8373809668866811,1.6,2598.0,66.42636,0.1,68900.0,0.33,276.0,2700.0,22.42767395776229,5.151018406699086,13907.749698087531,17.229897238211997,5.98421274662607,5.197776719550298,0.8331943399269841,39011,224,5852,25103,143.55319437358406,81.58845372435206,0.0012768190456069,False
0.49,0.9648681227471017,1.6,2599.0,66.42636,0.3,68900.0,0.33,276.0,2700.0,29.006440891470863,6.860174529008903,18522.47122832404,21.39883260186233,8.442206515489529,7.607608289608528,1.5820319864806258,3207,92,966,1674,150.8728876961223,86.70278676246917,0.0014889341856162,False
0.5,0.9474751427929672,1.6,2600.0,66.42636,0.3,68900.0,0.33,276.0,2700.0,27.820730353547248,6.693383200587661,18072.134641586686,20.80600486896521,8.075183589415566,7.014725484582037,1.3818003888279051,3085,88,886,1648,147.02245013241722,83.70720486164592,0.001436983937429,False
0.05,0.4841808105041436,1.6,2605.0,69.44574,0.1,68900.0,0.33,276.0,2700.0,14.547249463797073,0.3634194372071266,981.232480459242,7.813463956375565,1.653836110287726,6.733785507421508,1.2904166730805993,11577,180,3798,5874,731.0772819978126,418.0527026807451,0.0047862738796338,True
0.06,0.5830452865876455,1.6,2606.0,69.44574,0.2,68900.0,0.33,276.0,2700.0,18.829332064272627,0.5644275725860608,1523.9544459823642,10.133245249148022,2.538958256674206,8.696086815124605,1.9745306840881447,4048,108,1328,2050,660.2440849993391,381.1900677641117,0.00545606600816,True
0.0699999999999999,0.4013934512096376,1.6,2607.0,69.44574,0.1,68900.0,0.33,276.0,2700.0,10.771488807848252,0.3762837307545689,1015.966073037336,6.059899294026394,1.0807549235993394,4.711589513821858,0.7044711928447706,8816,152,2896,4466,393.86536929212247,226.5708431320192,0.0027413193144814,True
0.08,0.4222755954594566,1.6,2608.0,69.44574,0.2,68900.0,0.33,276.0,2700.0,11.399083143514224,0.4548909954481431,1228.2056877099865,6.485970776166074,1.2117281864143057,4.91311236734815,0.7568371909661626,2568,80,842,1299,388.1973563652271,224.1147387581429,0.0025902809560476,True
0.09,0.6330581295182556,1.6,2609.0,69.44574,0.2,68900.0,0.33,276.0,2700.0,20.56571668866459,0.9239304369602624,2494.6121797927085,11.400325762297417,3.077173807863582,9.165390926367174,2.1532433709033194,4257,112,1398,2154,502.19524355327695,287.8189235546756,0.0041544870528622,True
0.0999999999999999,0.5570059863976602,1.6,2610.0,69.44574,0.2,68900.0,0.33,276.0,2700.0,16.71729062105554,0.8337701359503837,2251.1793670660363,9.49842264797931,2.2833977881382044,7.218867973076229,1.4496276521878206,3715,100,1218,1882,389.9692071647754,225.0717059798244,0.003053270035133,True
0.11,0.7885761295698748,1.6,2611.0,69.44574,0.3,68900.0,0.33,276.0,2700.0,28.35023077804889,1.556475052911401,4202.482642860783,15.742058543038688,5.179860748655827,12.6081722350102,3.6233856957444255,2874,94,940,1458,496.8949101082264,286.80920763655735,0.005023541328127,True
0.12,0.5782930195429438,1.6,2612.0,69.44574,0.2,68900.0,0.33,276.0,2700.0,17.262726658629916,1.0321444847808594,2786.79010890832,10.01611657925363,2.4910809073615536,7.246610079376285,1.4589364225806942,3767,102,1236,1907,339.74765122299664,196.05101029436267,0.0027122431141124,True
0.13,0.5697011903444142,1.6,2613.0,69.44574,0.2,68900.0,0.33,276.0,2700.0,16.655699934571604,1.0780191097071543,2910.651596209317,9.805795326191328,2.405928994980799,6.849904608380276,1.3279098852736444,3559,98,1166,1804,310.5193159009362,179.07617202584615,0.0024650606837396,True
0.14,0.5881119634785996,1.6,2614.0,69.44574,0.3,68900.0,0.33,276.0,2700.0,17.287042780327535,1.204345974461961,3251.7341310472943,10.258748317960658,2.5906178055445226,7.028294462366878,1.3862718310825617,1955,72,638,992,307.0649589000065,177.27860929300053,0.0024045567693168,True
0.15,0.7460251276588297,1.6,2615.0,69.44574,0.3,68900.0,0.33,276.0,2700.0,24.9497704511363,1.8641642003646457,5033.243340984544,14.493720029285978,4.536740769814151,10.45605042185032,2.6725765694495056,2581,86,844,1309,353.5081289746609,203.83870446082375,0.0032697381736921,True
0.16,0.4712732951764466,1.6,2616.0,69.44574,0.2,68900.0,0.33,276.0,2700.0,11.875557704458224,0.9414659740172558,2541.958129846591,7.528728209738303,1.5548258238928525,4.346829494719921,0.6133598498755967,2571,80,844,1299,215.5698251186609,124.28568344789922,0.0015790207360951,False
0.17,0.7406566158072123,1.6,2617.0,69.44574,0.3,68900.0,0.33,276.0,2700.0,24.16854599212271,2.0440366461923727,5518.898944719406,14.339454282936064,4.459345474862915,9.829091709186644,2.4153088286705424,2405,82,792,1211,312.05336281329585,179.6602183136321,0.0028231588140591,True
0.18,0.5149495087219613,1.6,2618.0,69.44574,0.3,68900.0,0.33,276.0,2700.0,13.286214846255076,1.1835448239257995,3195.5710245996597,8.509099250779602,1.904887113132285,4.777115595475474,0.7213422892064856,1384,60,452,700,214.3288716338091,123.51456180329517,0.0015988668034583,False
0.19,0.7530077787015891,1.6,2619.0,69.44574,0.3,68900.0,0.33,276.0,2700.0,24.33868382545725,2.297809507411126,6204.08567001004,14.69545230613605,4.638648959087342,9.6432315193212,2.340839451676216,2436,82,800,1230,284.7821701259136,164.15706546729385,0.0025849552400681,True
0.2,0.6533409896571614,1.6,2620.0,69.44574,0.2,68900.0,0.33,276.0,2700.0,19.072207945745905,1.890465633755444,5104.2572111396985,11.93211121245132,3.3137806096252924,7.140096733294586,1.423314975869849,4131,108,1356,2091,237.20921014239997,136.8260189667818,0.001997373638455,False
0.21,0.707678757303144,1.6,2621.0,69.44574,0.3,68900.0,0.33,276.0,2700.0,21.52342047843281,2.240562957192181,6049.519984418889,13.407717142213851,4.001899443167253,8.115703336218964,1.7613364859750718,2193,78,724,1101,248.1037716589893,142.74129274478952,0.0021331467381242,False
0.22,0.5242358975152707,1.6,2622.0,69.44574,0.3,68900.0,0.33,276.0,2700.0,12.945374785000388,1.4016901072997594,3784.563289709351,8.723725204752492,1.9849007898273376,4.221649580247895,0.5832106825275782,1371,58,448,693,185.07649152734285,106.5752168679365,0.0013674072836097,False
0.23,0.5932905090489986,1.6,2623.0,69.44574,0.2,68900.0,0.33,276.0,2700.0,15.698393179655046,1.779832710449512,4805.548318213682,10.38768911989782,2.64407677325492,5.310704059757226,0.8642440628054078,3278,94,1084,1646,191.12380123565663,110.14370455193873,0.0015499514038579,False
0.24,0.5519366439942835,1.6,2624.0,69.44574,0.3,68900.0,0.33,276.0,2700.0,13.735510038289114,1.6193082866989683,4372.132374087215,9.37681682620785,2.235555535061536,4.358693212081263,0.6162472483625672,1460,60,482,731,177.62935675754167,102.10303990405107,0.001353311529451,False
0.25,0.922584479898859,1.6,2625.0,69.44574,0.3,68900.0,0.33,276.0,2700.0,32.41705375747899,4.019406796209983,10852.398349766954,19.970849482842908,7.56773441907181,12.44620427463608,3.5483276228618266,3191,100,1052,1607,261.7600850037587,149.3916614419336,0.0028556981341992,False
0.26,0.9493511225351596,1.6,2626.0,69.44574,0.3,68900.0,0.33,276.0,2700.0,33.77129566756666,4.353457348463828,11754.334840852336,20.869580543634257,8.11427485257728,12.901715123932403,3.760817504113452,3188,100,1050,1607,254.85524730719575,145.5079751841111,0.0028980599109404,False
0.27,0.8671285623414635,1.6,2627.0,69.44574,0.3,68900.0,0.33,276.0,2700.0,28.6498190888398,3.826501598192968,10331.554315121017,18.166131260740705,6.510630981543774,10.483687828099091,2.6841293833508058,2974,94,980,1498,229.0174639173216,131.15525813982762,0.0023106347587624,False
0.28,0.699758786940322,1.6,2628.0,69.44574,0.3,68900.0,0.33,276.0,2700.0,19.622059207004696,2.7011121276929213,7293.002744770887,13.18802129628471,3.896581753531444,6.4340379107199865,1.1954696258385225,2071,74,684,1039,186.4603648709001,107.21457170574438,0.0016273546085218,False
0.29,0.6583956379696765,1.6,2629.0,69.44574,0.2,68900.0,0.33,276.0,2700.0,17.475211965250313,2.4828255328089748,6703.628938584232,12.066245732862267,3.3744319663661058,5.408966232388044,0.891606433557131,3646,100,1218,1813,172.04085599696725,98.5549092049054,0.0014548931689696,False
0.3,0.7234031811429967,1.6,2630.0,69.44574,0.3,68900.0,0.33,276.0,2700.0,20.357866047342487,2.997131239336759,8092.254346209249,13.84857656310297,4.216186057460151,6.509289484239517,1.219054818123392,2116,76,702,1057,182.1896665466515,104.6464779988664,0.0015950519458484,False
0.31,0.803306448075765,1.6,2631.0,69.44574,0.3,68900.0,0.33,276.0,2700.0,24.202111234992213,3.688933116928398,9960.119415706677,16.18481189411829,5.415000539730009,8.017299340873922,1.726067422801611,2483,84,818,1250,191.8165891842308,109.81395041525548,0.0017879068792517,False
0.32,0.7715811893698117,1.6,2632.0,69.44574,0.3,68900.0,0.33,276.0,2700.0,22.34040578114367,3.505835786267733,9465.75662292288,15.238012212855294,4.916618804289581,7.102393568288376,1.4107830180218484,2342,82,778,1169,176.6377461262369,101.63281748337084,0.0016479287457621,False
0.33,0.8893168890932777,1.6,2633.0,69.44574,0.3,68900.0,0.33,276.0,2700.0,28.43300861720076,4.616180145043216,12463.686391616682,18.87893660498909,6.92159213796957,9.55407201221167,2.305411992926355,2706,90,896,1356,196.9250198484446,112.39682605534088,0.0019565827182987,False
0.34,0.9486939858642054,1.6,2634.0,69.44574,0.3,68900.0,0.33,276.0,2700.0,31.622505411872943,5.293507814913935,14292.471100267623,20.84730056481365,8.100568006984332,10.775204847059287,2.807060192070397,3008,96,996,1508,200.45601498468503,114.41637486658053,0.0021148057080613,False
0.3500000000000001,0.999280804551946,1.6,2635.0,69.44574,0.3,68900.0,0.33,276.0,2700.0,34.418999794527124,5.933527774026231,16020.524989870824,22.594168111378902,9.19907973099064,11.82483168314822,3.2655519569644085,3337,102,1102,1678,201.4768184872821,114.3944554587322,0.0022716501564501,False
0.36,0.8312262108229664,1.6,2636.0,69.44574,0.3,68900.0,0.33,276.0,2700.0,24.566665095832334,4.324283619352564,11675.565772251924,17.03896788721892,5.878754982217364,7.527697208613418,1.5544713628648,2533,84,840,1267,172.609828456301,98.25065509226928,0.0016487738692407,False
0.37,1.0638096289487673,1.6,2637.0,69.44574,0.3,68900.0,0.33,276.0,2700.0,37.9398600575154,6.912786715518826,18664.52413190083,24.915828453512795,10.731399088043196,13.024031604002602,3.8186123725243695,3660,108,1218,1827,200.18754447641217,113.51522631772636,0.0024019709318391,False
0.38,0.7058177018325043,1.6,2638.0,69.44574,0.3,68900.0,0.33,276.0,2700.0,17.965437933702365,3.298509559344529,8905.97581023023,13.35595073628964,3.9769951214077865,4.609487197412724,0.678485562063257,1842,68,614,915,142.89873364435576,81.8874423207897,0.0012614294326383,False
0.39,0.7842705185627177,1.6,2639.0,69.44574,0.3,68900.0,0.33,276.0,2700.0,21.5307458820856,4.074258023927829,11000.496664605138,15.613673530948974,5.112358123249999,5.917072351136623,1.03810009932217,2351,80,764,1187,153.3300775427557,87.7584168332677,0.0014214058958595,False
0.4,1.0562895916627355,1.6,2640.0,69.44574,0.3,68900.0,0.33,276.0,2700.0,36.65016014684831,7.1959907428165,19429.17500560455,24.63988031654251,10.54506958987356,12.010279830305798,3.3490788470570614,3583,106,1194,1786,186.43549441594536,105.3508879290718,0.0021525604093962,False
0.4100000000000001,0.9945484889948298,1.6,2641.0,69.44574,0.3,68900.0,0.33,276.0,2700.0,32.59843728311904,6.538331838187363,17653.49596310588,22.428024583908112,9.092550341498924,10.170412699210928,2.554218503311561,3234,100,1074,1617,172.66004745238402,98.22780871277764,0.0018911363508281,False
0.42,1.056757038547523,1.6,2642.0,69.44574,0.3,68900.0,0.33,276.0,2700.0,36.15352649995179,7.437071020643769,20080.091755738176,24.656991875204493,10.556591424327529,11.496534624747294,3.119520403683758,3518,106,1170,1755,175.35530382203925,99.86388570031404,0.0020262970565107,False
0.43,0.883746611103067,1.6,2643.0,69.44574,0.2,68900.0,0.33,276.0,2700.0,25.847624931145774,5.390720288790367,14554.94477973399,18.69882684899634,6.816933205608159,7.148798082149433,1.426212916817792,6814,124,1704,3826,163.81443128556913,93.90655754842638,0.001563011817799,False
0.44,0.815213722576644,1.6,2644.0,69.44574,0.3,68900.0,0.33,276.0,2700.0,22.087918515918588,4.680933121099831,12638.519426969544,16.546698028452717,5.609868540602871,5.541220487465871,0.9289354195030396,2276,78,760,1126,146.48674205510477,84.53731775461448,0.0013456370189005,False
0.45,0.7516735079308887,1.6,2645.0,69.44574,0.08,68900.0,0.33,276.0,2700.0,18.83318923668662,4.046615824548911,10925.86272628206,14.656809850968845,4.619067031337233,4.176379385717777,0.5724512067883216,59292,250,7748,38972,435.3614003238689,237.1111350972189,0.001223583453559,True
0.46,1.053861314442623,1.6,2646.0,69.44574,0.3,68900.0,0.33,276.0,2700.0,34.95302099881923,7.835334788041881,21155.40392771308,24.55107813402649,10.485344977941448,10.401942864792735,2.650010189899567,3650,104,1174,1851,168.31467174156228,96.33989787340604,0.0018515638221177,False
0.4700000000000001,1.1067476807030825,1.6,2647.0,69.44574,0.3,68900.0,0.33,276.0,2700.0,38.01495910813155,8.716069007694479,23533.38632077509,26.51866831538892,11.83548182973757,11.496290792742627,3.119412822043092,3761,108,1220,1899,173.3190552169212,98.70393398882602,0.0019477993390344,False
0.4800000000000001,0.9032133253921396,1.6,2648.0,69.44574,0.3,68900.0,0.33,276.0,2700.0,25.837025362079668,5.969262743735252,16117.00940808518,19.331664371761217,7.187082108753983,6.505360990318451,1.2178193650187312,2777,84,818,1466,154.27579406900833,88.44509080728301,0.001448710048569,False
0.49,0.9438652847479772,1.6,2649.0,69.44574,0.3,68900.0,0.33,276.0,2700.0,27.835262732236277,6.5732358799964254,17747.736875990347,20.68391809358237,8.000297321840431,7.151344638653903,1.427061441844006,2981,88,880,1573,154.99103868137456,88.44493335167836,0.001517083190752,False
0.5,1.1703869682002748,1.6,2650.0,69.44574,0.3,68900.0,0.33,276.0,2700.0,41.36652531973866,10.079831942135518,27215.5462437659,28.979498658256706,13.600873929475,12.38702666148196,3.5210419873394816,4665,114,1354,2478,172.0728587887791,97.95065988603508,0.0020178775480426,False
0.05,0.5692377121487204,1.6,2655.0,72.46512,0.1,68900.0,0.33,276.0,2700.0,18.40244086219996,0.4597992221671923,1241.4578998514194,9.794502483045742,2.4013868398574627,8.607938379154218,1.9415876176902704,14525,206,4756,7385,905.8773287576616,517.3129230825285,0.0065579314446983,True
0.06,0.6949414446949085,1.6,2656.0,72.46512,0.2,68900.0,0.33,276.0,2700.0,24.504429750973376,0.7346805031870853,1983.6373586051304,13.055161808084328,3.833370790363011,11.44926794288905,3.098690287175926,4767,122,1574,2400,823.8542268218517,470.078124492471,0.0077691964830219,True
0.0699999999999999,0.6470768455159637,1.6,2657.0,72.46512,0.2,68900.0,0.33,276.0,2700.0,21.753004321827724,0.7606367737437149,2053.71928910803,11.766771452081272,3.239554515933628,9.986232869746452,2.478917742189913,4568,118,1506,2303,722.678886566536,413.8642333824473,0.0058343556434365,True
0.08,0.5622988385988288,1.6,2658.0,72.46512,0.2,68900.0,0.33,276.0,2700.0,17.39776683608388,0.6948383431509297,1876.0635265075105,9.626079339884011,2.3340090588121503,7.771687496199867,1.6391707156612203,3881,102,1274,1964,625.8639301807223,361.28430514994926,0.0078929612378751,True
0.09,0.5552579134358056,1.6,2659.0,72.46512,0.2,68900.0,0.33,276.0,2700.0,16.853877258095817,0.7568976625846598,2043.6236889785816,9.456416075587782,2.266830578791322,7.397461182508035,1.509932916206662,3674,100,1210,1853,451.2540115445072,260.47472345190243,0.0034999166862159,True
0.0999999999999999,0.6497569318010291,1.6,2660.0,72.46512,0.3,68900.0,0.33,276.0,2700.0,21.162118029800244,1.056011506387618,2851.2310672465687,11.837390627828754,3.2711850711454566,9.32472740197149,2.2151735647578388,2158,78,712,1084,470.7918319947517,271.7990779624982,0.0040583527657043,True
0.11,0.7940962820126294,1.6,2661.0,72.46512,0.3,68900.0,0.33,276.0,2700.0,28.665533536999565,1.5738167046536886,4249.305102564959,15.907340433472804,5.26721514989244,12.75819310352676,3.693398445238752,2935,94,964,1483,529.7740406110074,305.7533846749675,0.005307559180678,True
0.12,0.468620813660872,1.6,2662.0,72.46512,0.2,68900.0,0.33,276.0,2700.0,12.502724970303568,0.7465443834812777,2015.6698353994495,7.470733944865445,1.5349329649240329,5.031991025438123,0.7883885814427551,2606,82,858,1313,301.2983011999412,173.9412991997518,0.0021287142524478,True
0.13,0.7728695704261173,1.6,2663.0,72.46512,0.3,68900.0,0.33,276.0,2700.0,26.932245125617307,1.745994547125166,4714.185277237949,15.275969512673564,4.936275617813553,11.656275612943745,3.1902810706883877,2784,92,916,1404,432.7074527898689,249.55902276572053,0.0042352028914917,True
0.14,0.613421566232339,1.6,2664.0,72.46512,0.3,68900.0,0.33,276.0,2700.0,18.471163693808144,1.2872344384056038,3475.5329836951305,10.89533575346374,2.8582845819284097,7.5758279403444035,1.571050143522806,1939,72,638,976,332.08146533555936,191.5054391496124,0.0026641179213073,True
0.15,0.5760764678227432,1.6,2665.0,72.46512,0.3,68900.0,0.33,276.0,2700.0,16.526380848485168,1.2324099801658095,3327.5069464476856,9.961679551223323,2.4689400209804058,6.564701297261843,1.2365300408145965,1850,70,608,932,296.98306854597604,170.83175235827534,0.0022827763825846,True
0.16,0.7456489349670987,1.6,2666.0,72.46512,0.2,68900.0,0.33,276.0,2700.0,24.68054421732927,1.965864895046942,5307.835216626743,14.482886422519629,4.531290376136488,10.197657794809643,2.5654254810895463,4977,124,1648,2499,337.0414569924538,194.47854296699865,0.0031734426134877,True
0.17,0.7588806629257456,1.6,2667.0,72.46512,0.3,68900.0,0.33,276.0,2700.0,25.143917210995745,2.126943199796578,5742.746639450761,14.866071614504037,4.72545423858383,10.27784559649171,2.598511038787252,2614,86,856,1324,329.4753886854812,189.9843252045264,0.0030854420518215,True
0.18,0.7523726604981236,1.6,2668.0,72.46512,0.3,68900.0,0.33,276.0,2700.0,24.548044837285357,2.1971095231185225,5932.195712420011,14.67705276347147,4.6293214532983615,9.870992073813882,2.432211930179839,2422,82,798,1219,310.3378274619952,178.65952615432047,0.0028554003837465,True
0.19,0.8298443425054394,1.6,2669.0,72.46512,0.2,68900.0,0.33,276.0,2700.0,28.573330105371944,2.7001009040030177,7290.272440808148,16.996231226217073,5.855238906076178,11.577098879154873,3.15513800207316,5854,138,1932,2950,316.87336706855666,182.4419213673688,0.0032542239972841,True
0.2,0.6868190326900803,1.6,2670.0,72.46512,0.3,68900.0,0.33,276.0,2700.0,20.70464887298462,2.053709726479317,5545.016261494156,12.832471175309706,3.7282369022146944,7.872177697674914,1.6745271757353772,2210,78,728,1112,263.4515024705018,151.85541970011303,0.0022320302945715,False
0.21,0.749473806108571,1.6,2671.0,72.46512,0.3,68900.0,0.33,276.0,2700.0,23.673798962135827,2.466352697980998,6659.152284548694,14.593200919423548,4.586896402632061,9.08059804271228,2.120543704651064,2407,82,794,1210,274.5602405758953,158.02785729252224,0.0024212521660728,False
0.22,0.5955681726576727,1.6,2672.0,72.46512,0.3,68900.0,0.33,276.0,2700.0,15.992742067881233,1.7369005084166538,4689.631372724965,10.444614163557985,2.66780123804444,5.548127904323247,0.9309007296277862,1688,66,558,845,215.3594152402812,123.79368739666492,0.0016869205640863,False
0.23,0.7060898234059797,1.6,2673.0,72.46512,0.3,68900.0,0.33,276.0,2700.0,20.998004129260007,2.3892879696540064,6451.0775180658175,13.36351453222902,3.980630592831196,7.634489597030987,1.59134262317719,2138,76,706,1073,234.10854156783645,134.74462597953826,0.0020428858412965,False
0.24,0.8644991519412226,1.6,2674.0,72.46512,0.3,68900.0,0.33,276.0,2700.0,29.261505453133896,3.4824277364805867,9402.554888497583,18.08248084923411,6.462974780780101,11.179024603899787,2.9805470442995143,3081,96,1014,1554,269.13812767621306,154.18444839549753,0.0027433945326547,False
0.25,0.6385578353432236,1.6,2675.0,72.46512,0.3,68900.0,0.33,276.0,2700.0,17.34694267380613,2.1356429107508728,5766.235859027356,11.543497921046727,3.14026559984367,5.8034447527594,1.0046226890927974,1922,72,630,971,199.1132965484435,114.73099849412384,0.0016589618389111,False
0.26,0.6828191657343843,1.6,2676.0,72.46512,0.3,68900.0,0.33,276.0,2700.0,19.22062482594289,2.4618701390524773,6647.049375441688,12.72341689189264,3.677126960141508,6.497207934050248,1.2152568210890302,1988,74,660,992,205.3840515503981,118.21871141173408,0.0017537991319204,False
0.27,0.5924410407728242,1.6,2677.0,72.46512,0.3,68900.0,0.33,276.0,2700.0,14.914526105769523,1.9722370454784797,5325.040022791894,10.366491965429317,2.635261765323745,4.548034140340208,0.6630247198452657,1632,64,540,816,176.57000179724326,101.6166714218336,0.001401811352136,False
0.28,0.8267766680217223,1.6,2678.0,72.46512,0.2,68900.0,0.33,276.0,2700.0,26.15522976387886,3.615756005655304,9762.54121526932,16.901529629851247,5.803245318522074,9.253700134027614,2.1874893128667705,5305,128,1758,2662,223.11663687790173,127.87404103033286,0.0021408830983102,False
0.29,0.9598194075862057,1.6,2679.0,72.46512,0.3,68900.0,0.33,276.0,2700.0,33.59772978653213,4.820590616894892,13015.594665616209,21.22596745578697,8.334606547875264,12.371762330745156,3.5140159309803725,3524,104,1164,1772,242.1588612117669,138.02197711950754,0.0027284944393509,False
0.3,0.957067219222886,1.6,2680.0,72.46512,0.3,68900.0,0.33,276.0,2700.0,33.16293534057792,4.917891633322074,13278.3074099696,21.132003880248572,8.276318033633773,12.030931460329342,3.358426400311699,3457,102,1142,1738,233.90834743210985,133.2323722808734,0.0026083646335203,False
0.31,0.8966330634667379,1.6,2681.0,72.46512,0.3,68900.0,0.33,276.0,2700.0,29.338731902946314,4.485109320461284,12109.795165245469,19.116683047623223,7.06058260718892,10.222048855323088,2.575473286727636,2909,94,960,1463,286.4517725499266,161.27251241599816,0.0021999330410264,True
0.32,0.7710754303454304,1.6,2682.0,72.46512,0.3,68900.0,0.33,276.0,2700.0,22.314695568974347,3.5017221523203297,9454.64981126489,15.223123329060789,4.90891580746353,7.091572239913559,1.4071936551432005,2341,82,778,1168,199.69697268501596,111.65727514494388,0.0017180510657482,False
0.33,0.7185586695912682,1.6,2683.0,72.46512,0.3,68900.0,0.33,276.0,2700.0,19.51555185827492,3.1447997798206577,8490.959405515776,13.71209057186178,4.149427310432789,5.803461286413143,1.0046275306121313,2115,76,700,1059,173.63799198715822,99.7193589635162,0.0015166788045522,False
0.34,0.8078972742210249,1.6,2684.0,72.46512,0.3,68900.0,0.33,276.0,2700.0,23.778859354412678,3.960087985145695,10692.237559893376,16.323914291754495,5.489621292148821,7.4549450626581795,1.5295333070031265,2389,82,792,1195,188.6933687147412,107.1621129180596,0.0017356898215306,False
0.3500000000000001,0.8758895926615087,1.6,2685.0,72.46512,0.3,68900.0,0.33,276.0,2700.0,27.208275764462908,4.671651068765903,12613.457885667938,18.446103201637857,6.671010021254533,8.76217256282505,1.9993589524886304,2674,90,890,1333,192.60385788554876,110.08294050897698,0.0018953126666244,False
0.36,0.7415144410103357,1.6,2686.0,72.46512,0.2,68900.0,0.33,276.0,2700.0,20.02853332205424,3.507419900072509,9470.033730195775,14.364055515073058,4.471656770602258,5.664477806981182,0.9642368705297488,4669,106,1328,2505,178.7847118495389,102.962032987693,0.0014905210829263,False
0.37,0.912730667248132,1.6,2687.0,72.46512,0.3,68900.0,0.33,276.0,2700.0,28.802158087926205,5.222311851144823,14100.241998091024,19.644527205555978,7.372555172963181,9.157630882370228,2.150243321818357,2861,92,952,1427,735.0927346852234,397.85534370527887,0.0019157936763453,True
0.38,0.6816575433473699,1.6,2688.0,72.46512,0.2,68900.0,0.33,276.0,2700.0,16.86791906226239,3.0899809737713357,8342.948629182605,12.691821208432186,3.662365508649427,4.176097853830205,0.5723845348780916,4663,98,1186,2602,157.82922011158126,90.97140711348167,0.0012861083897346,False
0.39,0.861768286694832,1.6,2689.0,72.46512,0.3,68900.0,0.33,276.0,2700.0,25.535357124564637,4.855157216211242,13108.924483770354,17.99578676588068,6.413712379844017,7.539570358683953,1.558555163632775,2624,86,876,1304,271.9926176171699,154.38568457979375,0.0017046502317895,False
0.4,0.91211917166401,1.6,2690.0,72.46512,0.3,68900.0,0.33,276.0,2700.0,28.068472905370022,5.479653294520843,14795.063895206276,19.624357124070645,7.360548798761592,8.44411578129938,1.8808955042407485,2760,90,920,1374,174.0241747527707,98.89400612888257,0.001774685540851,False
0.4100000000000001,0.7966112493649739,1.6,2691.0,72.46512,0.3,68900.0,0.33,276.0,2700.0,21.747810103957256,4.313953266459189,11647.67381943981,15.982896382582698,5.307316568801689,5.764913721374558,0.9933633023425,2410,80,768,1230,150.92600918792857,86.08014657573956,0.001452765527923,False
0.42,0.9190187719213372,1.6,2692.0,72.46512,0.3,68900.0,0.33,276.0,2700.0,27.99844264543336,5.7245034111949,15456.15921022623,19.85248450333957,7.496735324178996,8.14595814209379,1.772231912984096,2720,90,908,1352,166.81639381353838,94.72535704294776,0.0017149350500976,False
0.43,1.037266629874892,1.6,2693.0,72.46512,0.3,68900.0,0.33,276.0,2700.0,34.68722209171639,7.291233678312816,19686.3309314446,23.94817689390388,10.082939629645434,10.739045197812512,2.7917059513326183,3388,102,1112,1702,180.42410878629744,102.4271342541636,0.0020120046377527,False
0.44,1.0275837202062663,1.6,2694.0,72.46512,0.3,68900.0,0.33,276.0,2700.0,33.84521812884323,7.26753903594324,19622.355397046747,23.59958467785217,9.85274119093499,10.245633450991058,2.5852021549917508,3416,102,1106,1727,174.14063585227603,98.55567304921198,0.001937632261698,False
0.45,0.7931685502258883,1.6,2695.0,72.46512,0.3,68900.0,0.33,276.0,2700.0,20.809290005361103,4.491238497500669,12126.343943251806,15.879509171367948,5.252470316175401,4.929780833993158,0.761231818674732,2259,76,716,1157,152.3909834229447,87.80352054630738,0.0013308460997355,False
0.46,1.0794216393358909,1.6,2696.0,72.46512,0.3,68900.0,0.33,276.0,2700.0,36.541860518935394,8.200767877668598,22142.07326970521,25.493250131275403,11.124884647704704,11.048610387659991,2.9241167700361057,3485,104,1152,1745,175.08030555131867,99.29710345913487,0.0019993290841587,False
0.4700000000000001,0.8013973515027455,1.6,2697.0,72.46512,0.2,68900.0,0.33,276.0,2700.0,20.83878326073163,4.679667683556164,12635.102745601642,16.127122051833574,5.38415725312086,4.711661208898057,0.7044895695646956,5761,110,1438,3236,151.54932062267932,87.19718541254183,0.0013278236653238,False
0.4800000000000001,1.0811675732177095,1.6,2698.0,72.46512,0.3,68900.0,0.33,276.0,2700.0,36.14331837564826,8.44277306699172,22795.48728087764,25.558205613221823,11.169450869708362,10.58511276242644,2.726677802716642,3737,104,1150,1938,177.0714307905685,100.48341709351163,0.0019324140663661,False
0.49,1.1436660915690016,1.6,2699.0,72.46512,0.3,68900.0,0.33,276.0,2700.0,39.87456717508383,9.52286546849408,25711.736764934016,27.933848098911028,12.840526629431343,11.940719076172805,3.317661160937263,3912,108,1228,2010,177.96865528877808,101.43088263931536,0.0020581212751667,False
0.5,1.1731099824346856,1.6,2700.0,72.46512,0.3,68900.0,0.33,276.0,2700.0,41.54743782387782,10.125060068170171,27337.662184059463,29.087064113355105,13.679931925673191,12.460373710522717,3.55487185750302,4625,114,1348,2453,177.86667380140628,100.99347021854626,0.0021120339289178,False
0.05,0.3652649666603469,1.6,2705.0,75.4845,0.1,68900.0,0.33,276.0,2700.0,9.767016049014794,0.2439136018375706,658.5667249614407,5.348630220701405,0.8747672485350115,4.418385828313389,0.6308536466974408,7821,140,2562,3972,556.1658613271478,319.19357881009205,0.0036040949424529,True
0.06,0.4910546713829326,1.6,2706.0,75.4845,0.1,68900.0,0.33,276.0,2700.0,14.635175905887984,0.438602887834523,1184.227797153212,7.966807880133382,1.70807112666664,6.668368025754603,1.269468238832117,11591,180,3808,5873,658.4485573599626,376.90825453146346,0.0044839074899961,True
0.0699999999999999,0.4047910980947689,1.6,2707.0,75.4845,0.1,68900.0,0.33,276.0,2700.0,10.902666955319736,0.38087496591607,1028.3624079733893,6.128477094060405,1.1014607409869266,4.774189861259331,0.7205857750708565,9030,154,2960,4584,433.13511185755885,248.93577293863487,0.003012085189025,True
0.08,0.7277103126636466,1.6,2708.0,75.4845,0.2,68900.0,0.33,276.0,2700.0,25.75386486571599,1.0290822643362134,2778.522113707776,13.970418105657346,4.276095924516498,11.783446760058643,3.2470136601802846,5219,128,1718,2636,699.3873924101147,400.3176817868826,0.0065498967216514,True
0.09,0.4110388560088902,1.6,2709.0,75.4845,0.2,68900.0,0.33,276.0,2700.0,10.777938041617686,0.483480397843151,1305.3970741765077,6.255338556073511,1.1401457713276624,4.522599485544175,0.6566653734845114,2450,78,806,1235,363.9345752921777,210.11482898244543,0.0024325808335858,True
0.0999999999999999,0.7728540486817086,1.6,2710.0,75.4845,0.3,68900.0,0.33,276.0,2700.0,27.72898392490049,1.384354801142633,3737.757963085109,15.275511974607053,4.936038511670085,12.45347195029344,3.551683710527452,2857,94,938,1444,577.6569381626532,333.4159747631907,0.0058155661755155,True
0.11,0.686303119655655,1.6,2711.0,75.4845,0.3,68900.0,0.33,276.0,2700.0,22.78562278993781,1.2504216135652917,3376.138356626287,12.818382488876058,3.721620097627549,9.967240301061754,2.471198484062258,2509,84,820,1273,474.513192501594,273.95755502793514,0.0042261242643112,True
0.12,0.4959209624384777,1.6,2712.0,75.4845,0.2,68900.0,0.33,276.0,2700.0,13.631090430685832,0.8142463111042157,2198.4650399813827,8.076084329540564,1.747105576746059,5.555006101145269,0.9328592656418432,2918,86,960,1472,326.46704978445814,188.42713085709315,0.0023868468729366,True
0.13,0.5922458433415183,1.6,2713.0,75.4845,0.3,68900.0,0.33,276.0,2700.0,17.693697482902085,1.145488950348678,3092.820165941431,10.361623680798004,2.633238727874344,7.33207380210408,1.4877497775256658,1927,72,632,973,358.94583266947905,207.21058745304464,0.0028293931643698,True
0.14,0.8106790416278891,1.6,2714.0,75.4845,0.3,68900.0,0.33,276.0,2700.0,28.80334480965248,2.010487116514704,5428.315214589699,16.408459787304167,5.53514817274617,12.394885022348308,3.524661056231466,2936,94,960,1490,444.7621849555081,256.0881817031044,0.0044961238960177,True
0.15,0.8364562380019764,1.6,2715.0,75.4845,0.3,68900.0,0.33,276.0,2700.0,30.023713234066356,2.244709909084285,6060.71675452757,17.201150047896974,5.968293056304863,12.82256318616938,3.723583147220578,3093,96,1014,1566,429.4334081789193,247.3919957888876,0.0044266242320983,True
0.16,0.5477972459224082,1.6,2716.0,75.4845,0.3,68900.0,0.33,276.0,2700.0,15.066376158593682,1.196731450348091,3231.174915939846,9.277997968957829,2.196945831413444,5.788378189635855,1.0002143810653528,1671,66,544,849,275.9482566025008,159.31854356031548,0.0021007415432412,False
0.17,0.8458972233271405,1.6,2717.0,75.4845,0.3,68900.0,0.33,276.0,2700.0,30.031297549802908,2.5423705285951907,6864.400427207015,17.495653782998044,6.13207730177822,12.535643766804863,3.589706773183029,3058,96,1000,1552,381.08214041511206,218.9183449391714,0.0039817245426322,True
0.18,0.4874122833842634,1.6,2718.0,75.4845,0.2,68900.0,0.33,276.0,2700.0,12.163401030219084,1.0824915804825608,2922.7272673029142,7.885404606490372,1.6792012736183808,4.2779964237287125,0.59670969313582,2734,82,900,1378,216.14075232416417,124.47373061040716,0.0016168144756002,False
0.19,0.7406280255735352,1.6,2719.0,75.4845,0.3,68900.0,0.33,276.0,2700.0,23.68416461487328,2.2356301824056457,6036.201492495244,14.338634673318998,4.458935518230627,9.34552994155428,2.223305335824981,2394,82,790,1203,302.518371857803,174.46145799844055,0.0027245540876135,True
0.2,0.8038111894899697,1.6,2720.0,75.4845,0.3,68900.0,0.33,276.0,2700.0,26.85179916595799,2.6684247557766554,7204.746840596969,16.200079682060515,5.423173537447203,10.651719483897471,2.754748781670548,2769,90,908,1401,313.4791552080666,179.96767467572678,0.0030185056215004,True
0.21,0.9043994049834482,1.6,2721.0,75.4845,0.3,68900.0,0.33,276.0,2700.0,32.4107792726249,3.383735630582351,9136.086202572347,19.370530098221863,7.2100340467592146,13.040249174403035,3.826298416176864,3103,98,1014,1576,330.56309457661143,189.0986869971509,0.0036630623590291,True
0.22,0.6063315964130136,1.6,2722.0,75.4845,0.3,68900.0,0.33,276.0,2700.0,16.474771514945978,1.7899237475937757,4832.794118503194,10.71538546492794,2.7816756477569013,5.759386050018037,0.9917519001631256,1882,70,618,949,227.0794378128412,131.0295248019092,0.0017995452614989,False
0.23,0.801419746146813,1.6,2723.0,75.4845,0.3,68900.0,0.33,276.0,2700.0,25.975514042839333,2.9617016097157047,7996.594346232403,16.127798251172603,5.3845184218506414,9.84771579166673,2.4228168121349367,2584,86,852,1300,271.1600577972602,155.71265260983665,0.0026095570575482,False
0.24,0.7129541300522676,1.6,2724.0,75.4845,0.3,68900.0,0.33,276.0,2700.0,21.12049775048801,2.5055068121630764,6764.868392840306,13.554927979554895,4.07301813734624,7.565569770933115,1.5675113251831632,2138,76,706,1073,238.89590869346517,137.45076076955303,0.0020780455097798,False
0.25,0.8100147095022274,1.6,2725.0,75.4845,0.3,68900.0,0.33,276.0,2700.0,25.959154011065092,3.2121693279082435,8672.857185352257,16.388251245941607,5.524254218982521,9.570902765123488,2.312084891074277,2563,86,842,1294,252.8590366726046,145.17741067470914,0.0023989614671096,False
0.26,0.8469639886174342,1.6,2726.0,75.4845,0.3,68900.0,0.33,276.0,2700.0,27.759327619009085,3.571901502151519,9644.1340558091,17.529071504908025,6.1507588798553,10.23025611410106,2.5788573777037804,2899,92,952,1465,303.6849806500532,175.11818270013248,0.0025055219978279,True
0.27,0.9408195418906228,1.6,2727.0,75.4845,0.3,68900.0,0.33,276.0,2700.0,32.97983065088057,4.411053159068474,11909.84352948488,20.58116464494757,7.937455965510912,12.398666005933002,3.526402806442438,3191,100,1050,1610,267.6709080234383,152.47481379196884,0.0029604007082825,False
0.28,0.9089922935217718,1.6,2728.0,75.4845,0.3,68900.0,0.33,276.0,2700.0,30.81633428389092,4.2683106384569065,11524.438723833648,19.521364455548294,7.299346912208651,11.29496982834262,3.031036273751744,3163,98,1040,1597,251.1084592573941,143.2549697446552,0.0026526434217414,False
0.29,0.8468945440895668,1.6,2729.0,75.4845,0.3,68900.0,0.33,276.0,2700.0,27.02263757333734,3.8672022459816473,10441.446064150448,17.52689520016992,6.149541657327618,9.49574237316742,2.282339411345971,2667,88,882,1338,231.91745114699057,133.15761399078147,0.0022384326665413,False
0.3,0.808604186099708,1.6,2730.0,75.4845,0.3,68900.0,0.33,276.0,2700.0,24.709074157003425,3.649812455785897,9854.493630621922,16.345380839434007,5.501168447807175,8.363693317569417,1.8513559920212777,2476,84,816,1246,215.46385067639235,123.493682739374,0.0020206639357781,False
0.31,0.7741870678937635,1.6,2731.0,75.4845,0.3,68900.0,0.33,276.0,2700.0,22.68901642195922,3.454403420908423,9326.889236452742,15.314827761339664,4.956427261995682,7.374188660619556,1.5020238410872588,2381,82,788,1193,197.95400470369248,113.489983265434,0.0018518094451554,False
0.32,0.6938718368871525,1.6,2732.0,75.4845,0.3,68900.0,0.33,276.0,2700.0,18.54084060223074,2.8979053576417004,7824.344465632591,13.025741775878998,3.819422623872547,5.515098826351743,0.9215172662308464,1912,70,634,955,179.84597093156106,103.12862012059504,0.0015529412148233,False
0.33,0.905187627728862,1.6,2733.0,75.4845,0.3,68900.0,0.33,276.0,2700.0,29.336263235053984,4.765217156989202,12866.086323870844,19.396378316509782,7.225312525224479,9.939884918544198,2.460095368235277,2901,94,956,1461,216.68614199604352,123.57489613978262,0.002183630407251,False
0.34,0.687632215606776,1.6,2734.0,75.4845,0.2,68900.0,0.33,276.0,2700.0,17.86809430628621,2.9552579269641965,7979.196402803331,12.854691366199804,3.738681081967045,5.013402940086404,0.7834231550028483,4033,100,1228,2097,180.300642885898,103.77525072400134,0.0014718198444202,False
0.3500000000000001,1.0196498322786924,1.6,2735.0,75.4845,0.3,68900.0,0.33,276.0,2700.0,35.68291822822251,6.15471349992383,16617.726449794343,23.315714991241165,9.666631872067562,12.367203236981346,3.5119183721437315,3511,106,1166,1756,221.87424083128423,125.76113485286096,0.0025661997182604,False
0.36,0.978304780754178,1.6,2736.0,75.4845,0.3,68900.0,0.33,276.0,2700.0,32.88202859832998,5.821049049802126,15716.83243446574,21.86201741337453,8.732842058061056,11.02001118495545,2.91179300825893,3253,100,1078,1630,211.55852928787704,120.5591736526352,0.0022815569141007,False
0.37,0.962257302178172,1.6,2737.0,75.4845,0.3,68900.0,0.33,276.0,2700.0,31.67126904262641,5.753097377764358,15533.362919963767,21.309359601336865,8.38645483942917,10.36190944128954,2.6333574616648123,3291,100,1092,1647,201.81949474407955,114.91301991399511,0.0021515440094322,False
0.38,0.7231096773361312,1.6,2738.0,75.4845,0.3,68900.0,0.33,276.0,2700.0,18.768972057805165,3.4511810429244623,9318.188815896048,13.840290800017936,4.212122663523671,4.928681257787229,0.7609416205992083,1958,72,650,977,153.0293176987769,87.65638934737571,0.0014162046416281,False
0.39,0.8088818063797556,1.6,2739.0,75.4845,0.3,68900.0,0.33,276.0,2700.0,22.76979400595221,4.315872408081822,11652.85550182092,16.35381467284445,5.505707427670084,6.415979333107764,1.189835019588262,2339,80,772,1173,168.84964837315798,96.38835874785158,0.0016134511862287,False
0.4,0.9631877671788976,1.6,2740.0,75.4845,0.3,68900.0,0.33,276.0,2700.0,30.98881524534735,6.063721762516307,16372.04875879403,21.34122705325726,8.406297276813255,9.64758819209009,2.342575514296948,3098,96,1038,1535,189.34564293366705,107.85239761014438,0.0020063050572166,False
0.4100000000000001,1.0345784525318131,1.6,2741.0,75.4845,0.3,68900.0,0.33,276.0,2700.0,35.03223070176848,7.0372594890105,19000.60062032835,23.851164149801694,10.01869311752613,11.18106655196679,2.9814336285156298,3407,104,1128,1705,195.2786907008576,110.51391954970634,0.0021788484945493,False
0.42,1.0133434743500211,1.6,2742.0,75.4845,0.2,68900.0,0.33,276.0,2700.0,33.48021723690011,6.8756760754028985,18564.325403587827,23.09120584997229,9.520303070755826,10.389011386927816,2.644626995352928,8646,144,2134,4871,195.89566780470227,111.56861947371456,0.0020951799686788,False
0.43,1.0841386808503848,1.6,2743.0,75.4845,0.3,68900.0,0.33,276.0,2700.0,37.62215516903751,7.922244289937088,21390.059582830138,25.668918405090235,11.245551464363237,11.95323676394727,3.323307174426147,3565,106,1186,1778,192.1679138073219,108.8700507375075,0.0022515807748779,False
0.44,0.8883684208332902,1.6,2744.0,75.4845,0.2,68900.0,0.33,276.0,2700.0,25.88197545430202,5.515625647544187,14892.189248369305,18.84821367985327,6.903700637463355,7.033761774448749,1.3880749899191676,6785,124,1700,3803,175.53937322630196,100.59647497917707,0.0016783142312561,False
0.45,1.1383974333657576,1.6,2745.0,75.4845,0.3,68900.0,0.33,276.0,2700.0,40.60540719841536,8.945364865937885,24152.485138032287,27.729791109437684,12.693890591070849,12.87561608897768,3.7485257251329616,3783,110,1250,1898,193.36421994190707,110.3405145923947,0.0023473378458585,False
0.46,0.859644959745471,1.6,2746.0,75.4845,0.3,68900.0,0.33,276.0,2700.0,23.95323009424734,5.305382879990343,14324.533775973923,17.928509123193187,6.375572887094735,6.024720971054151,1.070190007104392,2719,82,818,1424,159.75640760472837,92.1733460409282,0.0015283218727825,False
0.4700000000000001,1.0005047269114635,1.6,2747.0,75.4845,0.3,68900.0,0.33,276.0,2700.0,31.507064602552187,7.186713798883997,19404.127256986794,22.637229546319848,9.22675958662292,8.86983505623234,2.0400457877389213,3086,96,1002,1555,175.1194047242881,100.62229214565774,0.0018328896009165,False
0.4800000000000001,1.0620512694661997,1.6,2748.0,75.4845,0.3,68900.0,0.33,276.0,2700.0,34.95987691443016,8.158747116299372,22028.617214008304,24.85117805490806,10.687644955522924,10.1086988595221,2.528897839223552,3838,104,1156,2008,183.5107050333696,104.1991838805646,0.0019695219683452,False
0.49,0.8558016370341539,1.6,2749.0,75.4845,0.3,68900.0,0.33,276.0,2700.0,23.165977292925533,5.429260947365297,14659.0045578863,17.80702156086311,6.306901417654501,5.358955732062423,0.8776404702892044,2497,78,764,1295,159.46184463461884,91.239639837619,0.0014290221155871,False
0.5,0.9987119604935376,1.6,2750.0,75.4845,0.3,68900.0,0.33,276.0,2700.0,30.71319418524895,7.416499158513088,20024.547727985337,22.574167204978927,9.186232861789131,8.139026980270021,1.7697337032760432,3297,94,974,1740,175.21096973943068,100.10901235098316,0.0017484005455011,False
0.04,0.4240879148066563,1.6,2754.0,78.50388,0.1,68900.0,0.33,276.0,2700.0,12.23857368870911,0.2446374324876293,660.5210677165993,6.523465514114063,1.2235168004898005,5.715108174595047,0.9788793680021712,9816,164,3226,4971,869.8288105362534,497.6709102111815,0.0055820809582679,True
0.06,0.5109108343526505,1.6,2756.0,78.50388,0.2,68900.0,0.33,276.0,2700.0,15.504486033429332,0.4646821916607631,1254.6419174840603,8.416434138075452,1.8707088921570136,7.08805189535388,1.4060267004962508,3619,98,1190,1828,676.9151125417078,390.81105483154624,0.0049230454694316,True
0.0699999999999999,0.6093436214518082,1.6,2757.0,78.50388,0.2,68900.0,0.33,276.0,2700.0,19.869203615180275,0.6947037490111903,1875.7001223302136,10.791679221293158,2.8140654991984406,9.077524393887115,2.1193617501872506,4170,110,1370,2109,673.671999888163,388.94411656338593,0.0056902693834035,True
0.08,0.6581403180488328,1.6,2758.0,78.50388,0.2,68900.0,0.33,276.0,2700.0,22.07181731652541,0.8818003623685942,2380.8609783952043,12.059454944184564,3.371352080407264,10.012362372340853,2.48955171803867,4653,118,1534,2346,662.9685112112086,379.6268730574385,0.0056717841294207,True
0.09,0.722973273871536,1.6,2759.0,78.50388,0.2,68900.0,0.33,276.0,2700.0,25.23456349330181,1.134028543168937,3061.8770665561296,13.836440797116849,4.2102350624897245,11.39812269618496,3.0762065193207877,5031,124,1660,2535,644.6435627058171,369.0557732924143,0.0059427605030911,True
0.0999999999999999,0.5563794580006004,1.6,2760.0,78.50388,0.2,68900.0,0.33,276.0,2700.0,16.68873637187776,0.832342423491494,2247.324543427034,9.483358204586636,2.2774514762878426,7.205378167291125,1.4451090527963486,3726,100,1222,1887,440.5198533221268,254.2495845432327,0.0034463278397879,True
0.11,0.4234480646777389,1.6,2761.0,78.50388,0.2,68900.0,0.33,276.0,2700.0,10.895983993576754,0.5964914797657438,1610.5269953675083,6.510218346437985,1.2193469988894616,4.385765647138769,0.6228555191237178,2531,78,824,1289,318.096387910372,183.64939469234957,0.002187099508502,True
0.12,0.7049521401570313,1.6,2762.0,78.50388,0.3,68900.0,0.33,276.0,2700.0,23.51230711517623,1.4071193121736416,3799.222142868832,13.331904261685844,3.965445130522255,10.180402853490389,2.5583258183486137,2506,84,820,1270,475.5544397802704,274.5177164505875,0.004216925992189,True
0.13,0.4395895097892529,1.6,2763.0,78.50388,0.2,68900.0,0.33,276.0,2700.0,11.164313216940256,0.721078973061158,1946.9132272651264,6.847547859490977,1.3271450157285622,4.316765357449279,0.6060660426674043,2489,78,812,1265,282.9228368125006,163.15506405400086,0.0019705718520848,True
0.14,0.5435780300892694,1.6,2764.0,78.50388,0.3,68900.0,0.33,276.0,2700.0,15.281676153874049,1.0639703106102143,2872.7198386475784,9.177716817069925,2.158011666703996,6.103959336804126,1.0940413560937814,1688,66,552,854,323.1197556340195,186.50264083853384,0.0024448019861113,True
0.15,0.7019525136210901,1.6,2765.0,78.50388,0.3,68900.0,0.33,276.0,2700.0,22.625912780173497,1.6898748750424353,4562.662162614575,13.248716273513304,3.9255792197002224,9.377196506660194,2.235704344657787,2307,80,760,1161,377.1985922571301,217.498150701458,0.0032952745209011,True
0.16,0.651325400438739,1.6,2766.0,78.50388,0.3,68900.0,0.33,276.0,2700.0,19.85167455544017,1.5795553220958107,4264.799369658689,11.878802872768723,3.289784115919838,7.972871682671441,1.7102287938240277,2128,76,696,1078,333.5603821680949,192.52374045562357,0.0027684156710731,True
0.17,0.4928758055401497,1.6,2767.0,78.50388,0.2,68900.0,0.33,276.0,2700.0,12.563563718872686,1.057613152966121,2855.5555130085268,8.007633212510896,1.7226169141749512,4.55593050636179,0.6650037612088302,2826,84,934,1419,237.91134198505355,137.13648504484752,0.001793829437756,False
0.18,0.7741693832101415,1.6,2768.0,78.50388,0.3,68900.0,0.33,276.0,2700.0,25.72394502128108,2.3029405396781413,6217.939457130981,15.314305880709307,4.956156428725728,10.40963914057177,2.6532158890475865,2729,90,896,1379,350.776775678924,201.9632628137994,0.0032695740507901,True
0.19,0.6823022061254187,1.6,2769.0,78.50388,0.3,68900.0,0.33,276.0,2700.0,20.70411713808891,1.9525256721111304,5271.819314700053,12.709351600848278,3.6705531034027694,7.994765537240633,1.7180274312916388,2136,78,706,1071,326.6698919256146,188.24760588119207,0.0026632655334126,True
0.2,0.764044654062102,1.6,2770.0,78.50388,0.3,68900.0,0.33,276.0,2700.0,24.685152889559337,2.451760128136788,6619.752345969327,15.016812339414065,4.802611424104066,9.668340550145274,2.3508512959672787,2411,82,794,1214,311.6312623061472,179.5184952817373,0.0028420139507414,True
0.21,0.760864186750556,1.6,2771.0,78.50388,0.3,68900.0,0.33,276.0,2700.0,24.27506584711532,2.529485720903851,6829.611446440398,14.923892868276315,4.754998774385287,9.351172978839005,2.225513053481436,2435,82,798,1232,301.6252582072282,173.54465772710415,0.0026798859729355,True
0.22,0.6341369717008128,1.6,2772.0,78.50388,0.3,68900.0,0.33,276.0,2700.0,17.746961011613276,1.929864592227177,5210.634399013379,11.42835099646791,3.0894880749633846,6.3186100151453655,1.159623482736207,1919,72,632,965,241.9691994939604,139.5905704387801,0.0019915750803763,False
0.23,0.5658209344914418,1.6,2773.0,78.50388,0.3,68900.0,0.33,276.0,2700.0,14.504639349735138,1.6425510200087212,4434.887754023547,9.711417848400789,2.368063227013637,4.793221501334351,0.7255122070049163,1517,62,500,761,205.8573654970602,118.76278898462988,0.0016496615358839,False
0.24,0.9085111540634332,1.6,2774.0,78.50388,0.3,68900.0,0.33,276.0,2700.0,31.842146746310167,3.792104691661738,10238.682667486692,19.505538567057684,7.289958220950858,12.336608179252485,3.49785352928912,3179,98,1048,1601,301.1254474750091,172.03629476134356,0.0032797614833246,True
0.25,0.8936637704945494,1.6,2775.0,78.50388,0.3,68900.0,0.33,276.0,2700.0,30.697130349543865,3.804416370218091,10271.924199588846,19.02003069067416,7.003963123976113,11.677099658869707,3.1995467537580216,2996,96,986,1511,283.9004798973216,162.73229938608176,0.003030757939295,True
0.26,0.7952371069028155,1.6,2776.0,78.50388,0.3,68900.0,0.33,276.0,2700.0,24.922382545168382,3.203098642552229,8648.366334891018,15.941593984736407,5.285382175337859,8.980788560431973,2.08228353278563,2538,86,840,1272,251.5501714651976,144.35387712774923,0.0023418310437289,False
0.27,0.7593460788815174,1.6,2777.0,78.50388,0.3,68900.0,0.33,276.0,2700.0,22.80821121078088,3.0378845346550136,8202.288243568537,14.87962997082994,4.732376300439407,7.928581239950938,1.6944917657843934,2333,80,766,1178,233.4581770450882,134.10873277058758,0.0021205961756987,False
0.28,0.798483940309271,1.6,2778.0,78.50388,0.3,68900.0,0.33,276.0,2700.0,24.62979114200183,3.402194598592512,9185.92541619978,16.0392599863175,5.337300356171262,8.590531155684332,1.9351057575787505,2423,84,802,1214,236.8410231766484,135.9275386394511,0.002198621962024,False
0.29,0.7459947677292927,1.6,2779.0,78.50388,0.2,68900.0,0.33,276.0,2700.0,21.68994586672986,3.0939619485235643,8353.697261013624,14.492845591317929,4.5363007547693295,7.197100275411934,1.4423388062457652,4533,114,1502,2272,216.7836229185632,124.5892437777049,0.001942985976946,False
0.3,0.8105918930895695,1.6,2780.0,78.50388,0.3,68900.0,0.33,276.0,2700.0,24.814941829792176,3.665692606704211,9897.37003810137,16.405808154640585,5.533718315003972,8.40913367515159,1.868025708299761,2438,84,804,1226,229.9775021615669,131.95567241766838,0.0021088548063344,False
0.31,0.8016129845125888,1.6,2781.0,78.50388,0.3,68900.0,0.33,276.0,2700.0,24.11294856978169,3.675112903820746,9922.804840316016,16.133633547378405,5.387635495014706,7.979315022403281,1.71252259119396,2482,84,818,1249,216.3599054961164,123.85085471303952,0.0020157926972589,False
0.32,0.980441829704449,1.6,2782.0,78.50388,0.3,68900.0,0.33,276.0,2700.0,34.056831245509656,5.380463860566328,14527.252423529086,21.936103413261304,8.779641401688252,12.120727832248352,3.399177541121924,3334,102,1100,1678,243.7999296928063,139.0504130184612,0.0027424814484559,False
0.33,0.8334771568824215,1.6,2783.0,78.50388,0.3,68900.0,0.33,276.0,2700.0,25.35562930513635,4.108412558552796,11092.713908092548,17.108685034867406,5.917187220723092,8.246944270268944,1.808774662170296,2599,86,864,1297,210.48290617383853,120.02263148279256,0.0020129849511977,False
0.34,0.8352172771145211,1.6,2784.0,78.50388,0.3,68900.0,0.33,276.0,2700.0,25.22291367058093,4.205577218894297,11355.058491014604,17.16266796556393,5.947005347056218,8.060245705017,1.741428128161921,2578,86,858,1285,201.7395347930333,115.12489221422024,0.0019658120603308,False
0.3500000000000001,0.7977002884491087,1.6,2785.0,78.50388,0.1,68900.0,0.33,276.0,2700.0,23.03518476242824,3.941360143409834,10641.672387206552,16.015663179436356,5.324740407096076,7.019521582991882,1.383380263686242,33789,234,6242,20808,202.69458131817885,116.44380051908574,0.001837926197019,False
0.36,0.8243095660248367,1.6,2786.0,78.50388,0.3,68900.0,0.33,276.0,2700.0,24.202389218537075,4.258713961439299,11498.527695886109,16.825539784672458,5.761641289821592,7.376849433864617,1.5029273283822926,2543,84,844,1271,195.4833105136385,111.835475229159,0.0018420174471372,False
0.37,0.886302776639943,1.6,2787.0,78.50388,0.3,68900.0,0.33,276.0,2700.0,27.321622180648596,4.948412708298468,13360.714312405864,18.78138126478002,6.864835978775384,8.540240915868573,1.9164232704769155,2576,88,856,1286,195.46001313502128,111.41857305776227,0.0019839451496949,False
0.38,0.8970643233861797,1.6,2788.0,78.50388,0.3,68900.0,0.33,276.0,2700.0,27.6885252751062,5.145896154211572,13893.919616371244,19.13073925856312,7.068829897152262,8.557786016543076,1.9229337429406896,2570,88,854,1283,192.12881469564087,109.47819700001244,0.001969564907426,False
0.39,0.8882194487609438,1.6,2789.0,78.50388,0.3,68900.0,0.33,276.0,2700.0,26.97129582785372,5.135165263352604,13864.946211052027,18.84339020874948,6.900893139299613,8.127905619104236,1.7657278759470092,2614,88,868,1306,187.13230116114963,106.28867310533217,0.001897672844891,False
0.4,1.071908331568804,1.6,2790.0,78.50388,0.3,68900.0,0.33,276.0,2700.0,37.64258337987893,7.394475389422622,19965.08355144108,25.21460028273339,10.934393692805417,12.42798309714554,3.5399183033827946,3607,108,1200,1801,212.4153915831673,119.8563979216296,0.0025063165389122,False
0.4100000000000001,0.8674397239200886,1.6,2791.0,78.50388,0.2,68900.0,0.33,276.0,2700.0,25.40425442845996,5.0635243529822525,13671.51575305208,18.176041857970866,6.516285125459818,7.228212570489099,1.452760772477566,6861,124,1702,3864,188.63615396875565,108.1590913318776,0.0017928223049078,False
0.42,1.0567013686394364,1.6,2792.0,78.50388,0.3,68900.0,0.33,276.0,2700.0,36.1500378090535,7.436338395555128,20078.113667998845,24.654953710902586,10.555218828588718,11.495084098150915,3.1188804330335893,3515,106,1170,1752,198.7590230469414,112.87689647491636,0.0022902829279361,False
0.43,0.7444593801124085,1.6,2793.0,78.50388,0.3,68900.0,0.33,276.0,2700.0,18.852565297851346,3.886782467632064,10494.312662606571,14.448652996764247,4.514082553076984,4.403912301087097,0.6273000854449204,1936,70,642,965,145.72001290255193,82.9095987031355,0.0013776924374868,False
0.44,0.8044076406323661,1.6,2794.0,78.50388,0.3,68900.0,0.33,276.0,2700.0,21.550280155365048,4.562652681778051,12319.162240800735,16.21812982671154,5.432841476050771,5.332150328653508,0.8701887942727202,2179,76,722,1088,154.69923540739882,88.34571681720116,0.0014770225358899,False
0.45,0.961472011936528,1.6,2795.0,78.50388,0.3,68900.0,0.33,276.0,2700.0,29.71176668342538,6.494295750065132,17534.598525175858,21.28248116439106,8.36973136197994,8.42928551903432,1.8754356119148072,3061,94,1002,1536,184.41168379945287,106.22956713579018,0.0018670202688026,False
0.46,1.1464504869212664,1.6,2796.0,78.50388,0.3,68900.0,0.33,276.0,2700.0,40.86437663645616,9.194946584698377,24826.355778685614,28.04197048671695,12.918455988774118,12.822406149739209,3.7235094040757417,4045,112,1330,2030,200.17080080873208,114.82793848724155,0.002410333246219,False
0.4700000000000001,0.9810016157085348,1.6,2797.0,78.50388,0.3,68900.0,0.33,276.0,2700.0,30.374041289028995,6.920453320206047,18685.223964556328,21.955528727508995,8.791926362005308,8.41851256152,1.8714730417992609,2978,94,978,1489,173.0019364574058,98.3590000760508,0.0018610636595304,False
0.4800000000000001,0.9604099053260702,1.6,2798.0,78.50388,0.3,68900.0,0.33,276.0,2700.0,28.97599869800055,6.722616344356244,18151.06412976186,21.246152681956968,8.347146392918352,7.729846016043581,1.624530048562108,3367,94,1010,1766,177.40987801762685,102.25599727796316,0.0017807863756763,False
0.49,1.121921101589478,1.6,2799.0,78.50388,0.3,68900.0,0.33,276.0,2700.0,38.46697991153818,9.1780065889254,24780.617790098582,27.09615922162498,12.24223468512449,11.370820689913202,3.064228096199089,3952,108,1216,2048,192.82729496301147,109.0203819050266,0.0021732659931727,False
0.5,0.9138875315920852,1.6,2800.0,78.50388,0.3,68900.0,0.33,276.0,2700.0,25.99621877354741,6.237255305587702,16840.589325086796,19.68271189376465,7.39530331005055,6.313506879782764,1.1580480044628478,3230,86,882,1759,171.9369121332999,98.711989640363,0.0016189461291405,False
0.05,0.5117224151269635,1.6,2805.0,81.52326,0.1,68900.0,0.33,276.0,2700.0,15.755756731391616,0.3936321188969915,1062.8067210218771,8.435022490723062,1.877547050146988,7.320734240668553,1.4839149312499966,13027,192,4278,6604,925.0163529861676,528.885343217993,0.006149673435476,True
0.06,0.5170408248531144,1.6,2806.0,81.52326,0.2,68900.0,0.33,276.0,2700.0,15.776862791968416,0.4728534944169352,1276.704434925725,8.557244421294474,1.9227326538863236,7.219618370673942,1.4498791594693885,3606,98,1184,1824,702.9262146997878,404.6533084395776,0.005208604034883,True
0.0699999999999999,0.7149670601405462,1.6,2807.0,81.52326,0.2,68900.0,0.33,276.0,2700.0,25.32259021089548,0.8855722798612213,2391.0451556252974,13.611283748479565,4.100359962749959,11.711306462415918,3.214787682888738,5226,128,1722,2637,831.5416518433702,475.2378304225498,0.007853217868148,True
0.08,0.696811384365219,1.6,2808.0,81.52326,0.2,68900.0,0.33,276.0,2700.0,24.08848342386769,0.9624670066622844,2598.660917988168,13.106664393966431,3.8578312950001634,10.981819029901256,2.8953642883378787,4777,122,1574,2410,769.8375499279982,441.1128335701412,0.0065296798250297,True
0.09,0.4704272721133325,1.6,2809.0,81.52326,0.2,68900.0,0.33,276.0,2700.0,13.15335034856629,0.5903739516558385,1594.009669470764,7.510211425774952,1.548464180272891,5.643138922791338,0.9580902286170524,2722,84,892,1378,440.65372786180393,254.40961892842276,0.0031416375703782,True
0.0999999999999999,0.7036411216152284,1.6,2810.0,81.52326,0.3,68900.0,0.33,276.0,2700.0,23.942947536565924,1.195052981725903,3226.643050659938,13.295518251157567,3.9479906129242575,10.647429285408355,2.752937631198354,2504,84,822,1265,581.623754819536,335.7453331688717,0.005286550778135,True
0.11,0.7015712757799729,1.6,2811.0,81.52326,0.3,68900.0,0.33,276.0,2700.0,23.58296681356428,1.294275534864754,3494.543944134836,13.238159684619466,3.9205303201121655,10.344807128944812,2.6262547852474114,2494,84,816,1264,522.3921145465837,301.6007674577197,0.0047587803781746,True
0.12,0.5840965929558177,1.6,2812.0,81.52326,0.2,68900.0,0.33,276.0,2700.0,17.531457070984985,1.048268309522047,2830.3244357095277,10.159233367958365,2.549625060239212,7.372223703026622,1.501356750717165,3745,102,1228,1897,401.26728238569785,231.59568383060184,0.0032294708771509,True
0.13,0.7205362269241999,1.6,2813.0,81.52326,0.3,68900.0,0.33,276.0,2700.0,24.086759926671224,1.5610380091936735,4214.802624822919,13.767733688509148,4.176598758222255,10.319026238162076,2.6155607490285813,2538,86,828,1290,460.5999215044243,265.7287361581759,0.0041842363582737,True
0.14,0.7412619732556938,1.6,2814.0,81.52326,0.3,68900.0,0.33,276.0,2700.0,24.94430134716301,1.7403540741404502,4698.956000179215,14.356813170921642,4.468031224021852,10.58748817624137,2.7276771498814014,2605,86,854,1318,441.9231833196641,255.0244062182676,0.0040721005075022,True
0.15,0.6691599994323327,1.6,2815.0,81.52326,0.3,68900.0,0.33,276.0,2700.0,20.960181022835336,1.5649449932420736,4225.351481753599,12.354037961843336,3.5058637344189,8.606143060991998,1.9409187411768265,2149,78,712,1075,375.8014153821977,216.84731385541804,0.003170100274478,True
0.16,0.5857211007495663,1.6,2816.0,81.52326,0.2,68900.0,0.33,276.0,2700.0,16.756770462555814,1.3319629946650648,3596.3000855956752,10.199445555320212,2.5661614675504287,6.557324907235602,1.234198472885364,3614,100,1186,1829,308.63659996197714,178.17996253491916,0.0024791214774366,True
0.17,0.7672831597298475,1.6,2817.0,81.52326,0.3,68900.0,0.33,276.0,2700.0,25.59925109575037,2.165646580000725,5847.245766001957,15.111688667998829,4.851397013604142,10.487562427751543,2.6857504336034173,2670,90,878,1347,377.63952657298097,217.50422969719253,0.0035485055722515,True
0.18,0.8745468807127016,1.6,2818.0,81.52326,0.3,68900.0,0.33,276.0,2700.0,31.44737545182561,2.8180492784271425,7608.733051753285,18.403069646274204,6.646271113981259,13.044305805551408,3.828221835554116,3098,98,1016,1568,402.05870827518976,230.78501291393337,0.0043241588525168,True
0.19,0.6123395306069466,1.6,2819.0,81.52326,0.3,68900.0,0.33,276.0,2700.0,17.35508306557492,1.6343674352223023,4412.792075100217,10.867790951741204,2.84651034537421,6.487292113833718,1.2121429101519074,1864,70,614,937,281.6817704495588,162.48706401994357,0.002246530402677,True
0.2,0.7361303968400034,1.6,2820.0,81.52326,0.2,68900.0,0.33,276.0,2700.0,23.21175029348752,2.3044198685296062,6221.933645029937,14.209954861042664,4.394735230485056,9.001795432444855,2.090315361955449,4864,120,1594,2467,308.3483059708065,177.63102941203067,0.0027769738345276,True
0.21,0.7767989500451308,1.6,2821.0,81.52326,0.3,68900.0,0.33,276.0,2700.0,25.12716149169386,2.618955763584556,7071.180561678301,15.391991540220008,4.996528521306185,9.735169951473852,2.377572757721629,2527,86,836,1267,310.47875967738145,178.47015026290774,0.0028912628931193,True
0.22,0.5571933219096492,1.6,2822.0,81.52326,0.3,68900.0,0.33,276.0,2700.0,14.321553917663378,1.5530698118926891,4193.288492110261,9.502928917159572,2.2851776020864034,4.818625000503806,0.7321077901937141,1485,62,490,744,220.35097022457504,126.84698634701114,0.0017408860550084,False
0.23,0.6032358355195439,1.6,2823.0,81.52326,0.2,68900.0,0.33,276.0,2700.0,16.139942298375377,1.830610859102351,4942.649319576348,10.637208310669209,2.7486244475030923,5.5027339877061685,0.9180135884007412,3185,94,1054,1598,228.3867550921609,131.49492231355202,0.001859209722943,False
0.24,0.7622382245349072,1.6,2824.0,81.52326,0.3,68900.0,0.33,276.0,2700.0,23.64137734983305,2.8080123640844823,7581.633383028102,14.964005106426283,4.775532319508135,8.677372243406765,1.9675199554236524,2301,80,756,1161,269.9846791221819,155.07404962059593,0.0024639328504166,False
0.25,0.9447155499838368,1.6,2825.0,81.52326,0.3,68900.0,0.33,276.0,2700.0,33.761590982360886,4.187473949320217,11306.179663164585,20.712644902478896,8.017896349752803,13.04894607988199,3.830422400432586,3216,100,1058,1623,311.5346060058048,177.5768801749279,0.0035192203220884,True
0.26,0.8101545786534169,1.6,2826.0,81.52326,0.3,68900.0,0.33,276.0,2700.0,25.726726268122224,3.307663326536226,8930.69098164781,16.392505050661622,5.526546727256068,9.334221217460602,2.2188834007198417,2569,86,848,1291,263.93511577456064,151.4706875365697,0.0024987226465262,False
0.27,0.7110930398040337,1.6,2827.0,81.52326,0.3,68900.0,0.33,276.0,2700.0,20.382216388607453,2.710375233661599,7318.013130886317,13.502913855217685,4.047839608058608,6.879302533389771,1.3374643743970087,2152,76,706,1087,231.34531186560648,133.1613706236866,0.0020145746625229,False
0.28,0.8246280244898272,1.6,2828.0,81.52326,0.2,68900.0,0.33,276.0,2700.0,26.03797108357641,3.599339790412865,9718.217434114737,16.835340107436817,5.76700108582421,9.202630976139597,2.167661295411345,5300,128,1758,2657,250.3519187570261,143.4934875048732,0.0023995314699921,False
0.29,0.6868684638834663,1.6,2829.0,81.52326,0.3,68900.0,0.33,276.0,2700.0,18.80283926403032,2.6753314911321318,7223.395026056754,12.833821406284835,3.728871259950493,5.969017857745484,1.053539768818362,2056,74,678,1033,209.28158449427636,120.38308242911752,0.0018089344716037,False
0.3,0.8165341133257873,1.6,2830.0,81.52326,0.3,68900.0,0.33,276.0,2700.0,25.13261593917898,3.7133437231122337,10026.028052403031,16.587046851862127,5.631743280893771,8.545569087316853,1.918399557781537,2511,86,838,1248,240.26038349251323,137.99015585322,0.0022164819934991,False
0.31,0.7459493219604059,1.6,2831.0,81.52326,0.3,68900.0,0.33,276.0,2700.0,21.262438784708277,3.233283887134384,8729.866495262837,14.491536688692875,4.535642146000313,6.770902096015398,1.3023582588659297,2229,78,734,1122,212.16973742870329,121.777672403217,0.0018985477464937,False
0.32,0.7314640890254014,1.6,2832.0,81.52326,0.3,68900.0,0.33,276.0,2700.0,20.34099502140231,3.1859300647091504,8602.011174714706,14.076986400696038,4.328737655758137,6.264008620706273,1.1428075910489863,2132,76,708,1064,203.6287730093923,116.87138567352082,0.0017915405916847,False
0.33,0.9184754569040028,1.6,2833.0,81.52326,0.3,68900.0,0.33,276.0,2700.0,30.102253977454755,4.8916056294853325,13207.335199610396,19.834477017114963,7.485954063421684,10.267776960339791,2.594348433936352,3068,96,1016,1538,240.98506525317129,138.52613924072637,0.0024905151483596,False
0.34,0.8892830279798982,1.6,2834.0,81.52326,0.3,68900.0,0.33,276.0,2700.0,28.19125752383922,4.710195673948143,12717.528319659988,18.877839381585208,6.920952894733023,9.313418142254012,2.21075722078488,2676,90,888,1338,220.33125540667717,125.2245048386804,0.0022393463323724,False
0.3500000000000001,0.8878308944238301,1.6,2835.0,81.52326,0.3,68900.0,0.33,276.0,2700.0,27.872652348442607,4.787916970962348,12927.37582159834,18.830812081874832,6.8935739020738085,9.041840266567776,2.105656931111461,2725,90,906,1360,219.34181271036573,125.13421067210116,0.0021726688652453,False
0.36,0.7329462036742272,1.6,2836.0,81.52326,0.1,68900.0,0.33,276.0,2700.0,19.61626706489313,3.4332119737835085,9269.672329215471,14.119160593976664,4.349632610190025,5.497106470916462,0.9164206364065168,28720,210,5222,17731,194.51527160421975,111.86531040738916,0.0016664030115803,False
0.37,0.8896025271206837,1.6,2837.0,81.52326,0.3,68900.0,0.33,276.0,2700.0,27.50456182286504,4.98225654210851,13452.092663692976,18.888193464254325,6.926986002186893,8.616368358610714,1.944729460078383,2592,88,862,1293,208.3517546519296,118.97766412972442,0.0020709451574295,False
0.38,0.8070441152429766,1.6,2838.0,81.52326,0.3,68900.0,0.33,276.0,2700.0,22.882826374413337,4.232813363080012,11428.596080316034,16.298023434859246,5.475705443923037,6.584802939554091,1.2428920808430242,2300,80,764,1148,188.30427441676105,107.15845935692226,0.0017572100350698,False
0.39,0.9373402595370935,1.6,2839.0,81.52326,0.2,68900.0,0.33,276.0,2700.0,29.731185110002777,5.673343673371679,15318.027918103537,20.464070271929472,7.866052072951533,9.267114838073304,2.192708399579854,8276,138,2092,4626,214.12170158547693,122.67672720710368,0.00216416104236,False
0.4,0.7933912690743545,1.6,2840.0,81.52326,0.3,68900.0,0.33,276.0,2700.0,21.785718913490616,4.22310249614496,11402.376739591393,15.886188597648085,5.256007725966185,5.899530315842533,1.0329052298212256,2376,80,768,1206,173.2089041207683,98.13009063913252,0.001657681704674,False
0.4100000000000001,0.9705134001530428,1.6,2841.0,81.52326,0.3,68900.0,0.33,276.0,2700.0,31.17582053911021,6.246695405665556,16866.077595297,21.59288233990837,8.563556217188141,9.582938199201834,2.3168608115225853,3012,96,1008,1494,199.92490145192735,113.72824147867011,0.0021451152181127,False
0.42,0.8863619519180725,1.6,2842.0,81.52326,0.3,68900.0,0.33,276.0,2700.0,26.20477960109248,5.347834171883313,14439.152264084943,18.78329434580521,6.865947428838503,7.421485255287266,1.51811325695519,2557,86,850,1274,181.37994934066523,102.82342789520928,0.0018435184965769,False
0.43,0.9298608453879452,1.6,2843.0,81.52326,0.2,68900.0,0.33,276.0,2700.0,28.37837600625889,5.934831769939608,16024.045778836942,20.213382466759956,7.7139311914863,8.164993539498937,1.7790994215466922,7709,132,1932,4327,198.15178575040687,113.42517310484511,0.0019670062185221,False
0.44,0.7964595347425009,1.6,2844.0,81.52326,0.3,68900.0,0.33,276.0,2700.0,21.15858186078323,4.47647905697005,12086.493453819136,15.978333987931173,5.304892075809277,5.180247872852057,0.8284130188392265,2184,76,722,1089,235.3753975577524,122.84231227345644,0.0015142067908724,False
0.45,0.8813016062418395,1.6,2845.0,81.52326,0.3,68900.0,0.33,276.0,2700.0,25.2935426018908,5.500195331719851,14850.5273956436,18.62001616000543,6.771310859934389,6.673526441885368,1.271115528214538,2702,86,854,1383,181.4981599620251,104.13916655766003,0.0017304042502288,False
0.46,0.9363004553121974,1.6,2846.0,81.52326,0.3,68900.0,0.33,276.0,2700.0,28.06826293240893,6.251840432767516,16879.969168472293,20.429134971056666,7.844791611515513,7.639127961352273,1.592951178747997,2644,88,872,1322,172.96345321031916,98.06962499834091,0.0018419195949434,False
0.4700000000000001,0.987509106486018,1.6,2847.0,81.52326,0.3,68900.0,0.33,276.0,2700.0,30.749965204077995,7.0087954402425625,18923.74768865492,22.1819251892468,8.935537821993659,8.568040014831197,1.9267423817510965,2919,94,964,1455,176.6764564035567,100.83345342792776,0.001936623587315,False
0.4800000000000001,1.0586030844690948,1.6,2848.0,81.52326,0.3,68900.0,0.33,276.0,2700.0,34.74836409395814,8.107984039386086,21891.55690634243,24.72462268277421,10.602171775229143,10.023741411183927,2.4941877358430595,3896,104,1160,2050,198.3756128826167,112.80757845808084,0.0021231985315805,False
0.49,0.9099053701086116,1.6,2849.0,81.52326,0.3,68900.0,0.33,276.0,2700.0,25.988472043601032,6.120772161280795,16526.084835458147,19.55141384130352,7.317185130136524,6.437058202297514,1.1964129688557297,3077,86,880,1645,179.18202436966217,102.71034548034558,0.001694765722677,False
0.5,0.8581585386857475,1.6,2850.0,81.52326,0.3,68900.0,0.33,276.0,2700.0,23.094064721431177,5.511716792558644,14881.63533990834,17.88147927829352,6.348958533518872,5.212585443137659,0.837241740960228,2592,78,764,1368,173.22836958504084,99.20480155530844,0.001530730510683,False
0.0699999999999999,0.5765886066202065,1.6,2857.0,84.54263999999999,0.2,68900.0,0.33,276.0,2700.0,18.29196354138358,0.6395003464283031,1726.6509353564184,9.97424636848512,2.47404500126249,8.317717172898462,1.8345446548341868,3925,104,1280,1999,714.0066687175716,409.0149495606157,0.005558794018436,True
0.08,0.6463824935193471,1.6,2858.0,84.54263999999999,0.1,68900.0,0.33,276.0,2700.0,21.47355794708528,0.8578699875909866,2316.248966495664,11.748505005012,3.2313905770552376,9.725052942073274,2.373520589464251,16981,226,5596,8581,724.0934741233758,415.177343060801,0.0059734783851036,True
0.09,0.399061650082494,1.6,2859.0,84.54263999999999,0.2,68900.0,0.33,276.0,2700.0,10.320357361141728,0.4628892672217335,1249.8010214986805,6.0130023150619305,1.0666791473635515,4.307355046079797,0.6037898801418182,2380,76,782,1201,405.80884026393153,234.2897431226197,0.0026254190335801,True
0.0999999999999999,0.7946355314267611,1.6,2860.0,84.54263999999999,0.3,68900.0,0.33,276.0,2700.0,28.970272048391625,1.446419207317186,3905.331859756402,15.923527454823072,5.275797537994056,13.046744593568553,3.82937833067687,2921,94,964,1469,665.3090707155036,383.7087861390491,0.006862342033548,True
0.11,0.5221609082345541,1.6,2861.0,84.54263999999999,0.2,68900.0,0.33,276.0,2700.0,14.953806126565116,0.8196716970797953,2213.113582115447,8.675580252350125,1.9668491223810332,6.278225874214991,1.147177425301238,3310,94,1086,1675,416.5089713393575,240.39630384160813,0.0031101955084877,True
0.12,0.6213648065287293,1.6,2862.0,84.54263999999999,0.3,68900.0,0.33,276.0,2700.0,19.297478955175997,1.1542296225736255,3116.419980948789,11.098443452121003,2.9456344688888474,8.19903550305499,1.7914048463152217,2074,76,682,1045,458.90920310134106,264.94873324633704,0.0036566854805529,True
0.13,0.7202742266961986,1.6,2863.0,84.54263999999999,0.3,68900.0,0.33,276.0,2700.0,24.07286069591225,1.5601345591943392,4212.363309824716,13.76035606217407,4.172992575364361,10.312504633738184,2.612858016170022,2542,86,834,1285,476.8107165944968,275.0198909500589,0.0043353257775396,True
0.14,0.4662182847831008,1.6,2864.0,84.54263999999999,0.3,68900.0,0.33,276.0,2700.0,12.035153862521236,0.8367137502155194,2259.1271255819024,7.418357299172554,1.5170472581297838,4.616796563348682,0.6803335079142644,1457,60,480,731,300.4769447633928,172.88386616449333,0.0021425454978847,True
0.15,0.8274383549795137,1.6,2865.0,84.54263999999999,0.2,68900.0,0.33,276.0,2700.0,29.49928262925961,2.2053776137238925,5954.51955705451,16.921936436461053,5.814435591097,12.577346192798558,3.609057977373108,5868,138,1930,2967,464.5739241617519,267.6956123843132,0.0048458361869435,True
0.16,0.7228299718537818,1.6,2866.0,84.54263999999999,0.3,68900.0,0.33,276.0,2700.0,23.471325038452196,1.869127360736773,5046.643873989287,13.832396585478314,4.208252562382969,9.63892845297388,2.3391252016461963,2373,82,780,1197,391.3582779717491,225.72049718603543,0.0035020152178567,True
0.17,0.8681930403240112,1.6,2867.0,84.54263999999999,0.3,68900.0,0.33,276.0,2700.0,31.34482024729993,2.6540199578824377,7165.853886282582,18.200045306667096,6.5299864761502935,13.144774940632832,3.875966518267856,3206,98,1050,1625,434.5407759415404,250.21469077657932,0.0046914550148647,True
0.18,0.515689945813172,1.6,2868.0,84.54263999999999,0.3,68900.0,0.33,276.0,2700.0,13.316931948786976,1.186309363153672,3203.0352805149146,8.526132631288412,1.911193871053509,4.790799317498564,0.7248845078998369,1384,60,452,700,261.28024782424234,150.56868815002642,0.0019499056129294,False
0.19,0.7937573036624537,1.6,2869.0,84.54263999999999,0.3,68900.0,0.33,276.0,2700.0,26.54752888803929,2.507649788356418,6770.6544285623295,15.897168827700357,5.261824629935267,10.650360060338937,2.754174841578849,2745,90,904,1383,364.939845997528,209.689362803508,0.003491140864164,True
0.2,0.5137580913144754,1.6,2870.0,84.54263999999999,0.3,68900.0,0.33,276.0,2700.0,12.873046133013531,1.2705494524822072,3430.4835217019595,8.481720219685013,1.8947655376320187,4.3913259133285205,0.6242160851498115,1364,58,446,689,239.67179493526768,138.08360595264918,0.0017627258646177,False
0.21,0.752341096100466,1.6,2871.0,84.54263999999999,0.3,68900.0,0.33,276.0,2700.0,23.824541121128338,2.482180624675212,6701.887686623072,14.676138598946173,4.628858195396085,9.148402522182163,2.146677570720873,2409,82,790,1218,385.3832081776527,221.2813290088556,0.0028405085319371,True
0.22,0.6345124149978858,1.6,2872.0,84.54263999999999,0.3,68900.0,0.33,276.0,2700.0,17.764404717914218,1.931783399920124,5215.815179784334,11.438110800733671,3.093780604757441,6.326293917180545,1.1619972048373175,1911,72,630,960,265.2078556213991,153.01174748431288,0.0021465102468397,False
0.23,0.7636438125212146,1.6,2873.0,84.54263999999999,0.3,68900.0,0.33,276.0,2700.0,23.948457447252277,2.7285901012231943,7367.193273302625,15.005087485463257,4.796594411945872,8.943369961789019,2.068004310722677,2421,82,792,1227,298.26793161526865,171.47173814934058,0.0026670698969455,True
0.24,0.6330418219110903,1.6,2874.0,84.54263999999999,0.3,68900.0,0.33,276.0,2700.0,17.292466201604526,2.0461430262970604,5524.586171002063,11.39990236173294,3.076987899281828,5.892563839871585,1.0308448729847672,1920,72,632,966,239.11519078364503,137.76267122148226,0.0019835613992943,False
0.25,0.7785847556215446,1.6,2875.0,84.54263999999999,0.3,68900.0,0.33,276.0,2700.0,24.26982960172437,3.0010037767406503,8102.710197199756,15.444848929057024,5.024062810212855,8.824980672667348,2.0230590334722045,2494,86,824,1252,274.69648975219405,157.89731421542143,0.0025378880559125,False
0.26,0.6311571087499601,1.6,2876.0,84.54263999999999,0.3,68900.0,0.33,276.0,2700.0,16.813405142291288,2.148931580178204,5802.115266481151,11.351013865827898,3.0555484376824,5.462391276463389,0.9066168575041956,1770,68,586,885,220.5798654404454,127.0749056013961,0.0018339474463646,False
0.27,0.5906390178824165,1.6,2877.0,84.54263999999999,0.3,68900.0,0.33,276.0,2700.0,14.836941095368925,1.9617630690743373,5296.760286500711,10.32158534060494,2.6166215831475967,4.515355754763984,0.6548585140732592,1634,64,540,818,202.58212422479545,116.59256540708884,0.0016285502288616,False
0.28,0.6836464687853778,1.6,2878.0,84.54263999999999,0.3,68900.0,0.33,276.0,2700.0,18.85128148657065,2.5932032468321564,7001.648766446822,12.745939894878068,3.687662397243232,6.10534159169258,1.0944591504110757,2010,74,664,1008,223.52303817247383,128.38435272982295,0.0019203790832304,False
0.29,0.7835758848616265,1.6,2879.0,84.54263999999999,0.3,68900.0,0.33,276.0,2700.0,23.616353984646327,3.3732911256214497,9107.886039177914,15.593004541612258,5.101519518807829,8.02334944303407,1.7282283931863796,2450,84,810,1229,242.45564691196944,139.10760265041577,0.0022322554683155,False
0.3,0.8794773263378639,1.6,2880.0,84.54263999999999,0.3,68900.0,0.33,276.0,2700.0,28.606564360470458,4.234435986305954,11432.977163026077,18.56131138521836,6.737396298327936,10.045252975252096,2.5029603120219823,2920,94,964,1468,258.08131912702135,147.6240761311581,0.0025603021105973,False
0.31,0.7945526880547071,1.6,2881.0,84.54263999999999,0.3,68900.0,0.33,276.0,2700.0,23.742769728397427,3.617735183406208,9767.884995196762,15.921040213085831,5.274478482311641,7.821729515311594,1.6567432989054325,2494,84,820,1258,230.36351047199213,132.0701220706928,0.0021414942428476,False
0.32,0.9305316942178108,1.6,2882.0,84.54263999999999,0.3,68900.0,0.33,276.0,2700.0,31.05764541550947,4.900594127766295,13231.604144968996,20.235809935081058,7.727498837549822,10.821835480428412,2.826904709783527,3006,96,994,1509,253.6593457635003,144.9064778251968,0.00266193001876,False
0.33,0.7172052736180734,1.6,2883.0,84.54263999999999,0.3,68900.0,0.33,276.0,2700.0,19.45072815386481,3.1341038685929887,8462.080445201069,13.67406631877896,4.1308951583962354,5.776661835085848,0.9967912898032468,2109,76,698,1056,201.19576500097884,115.53417700331036,0.0017639553495098,False
0.34,0.8594450124070652,1.6,2884.0,84.54263999999999,0.3,68900.0,0.33,276.0,2700.0,26.534907796084514,4.428616220229907,11957.263794620749,17.922179626598844,6.371988762213711,8.61272816948567,1.943372541983804,2555,86,850,1274,228.0176165519092,130.42279095869844,0.0022059422424559,False
0.3500000000000001,0.7697612760770298,1.6,2885.0,84.54263999999999,0.3,68900.0,0.33,276.0,2700.0,21.61855559549262,3.693450039196101,9972.315105829472,15.184466401545196,4.888935680298392,6.434089193947424,1.1954856411022914,2251,80,750,1120,197.3422202420131,112.97469186226424,0.0018389442372222,False
0.36,0.7006146446577617,1.6,2886.0,84.54263999999999,0.2,68900.0,0.33,276.0,2700.0,18.09384766749348,3.159176482251571,8529.776502079241,13.211686368146102,3.9078789489898265,4.882161299347375,0.7487024667382554,4435,102,1232,2393,198.45199278743607,114.23834284064183,0.0016177170765282,False
0.37,0.9098450298720532,1.6,2887.0,84.54263999999999,0.3,68900.0,0.33,276.0,2700.0,28.63879233885728,5.192089187567076,14018.640806431104,19.54942739519273,7.316005453132061,9.089364943664552,2.123916265564985,2882,92,958,1439,216.591503879404,123.33330096402597,0.0022252567884154,False
0.38,0.8127307119423945,1.6,2888.0,84.54263999999999,0.3,68900.0,0.33,276.0,2700.0,23.174350509937817,4.2882029488296665,11578.1479618401,16.470940257652014,5.568876999174048,6.703410252285803,1.2806740503443814,2528,84,838,1265,198.0560291157113,113.18824392513255,0.0018548410932908,False
0.39,1.0860286278107143,1.6,2889.0,84.54263999999999,0.3,68900.0,0.33,276.0,2700.0,38.82455393006215,7.446550593283255,20105.68660186479,25.7394592072497,11.294131003726552,13.085094722812451,3.847580410443297,3657,108,1216,1827,237.2535628153615,134.50079117636773,0.0028633784165387,False
0.4,0.8109290174115034,1.6,2890.0,84.54263999999999,0.3,68900.0,0.33,276.0,2700.0,22.669166554853152,4.399792024417464,11879.438465927153,16.41606675646774,5.539250841085726,6.2530997983854135,1.1394588166682622,2344,80,770,1179,183.63531119124505,104.5551925567908,0.001774587511863,False
0.4100000000000001,0.7481244060918962,1.6,2891.0,84.54263999999999,0.2,68900.0,0.33,276.0,2700.0,19.390127139707527,3.830628258788004,10342.696298727613,14.554240407037009,4.567230628872213,4.83588673267052,0.7366023700842095,5244,104,1330,2927,188.63038299147465,108.47356964960272,0.0015834691881991,False
0.42,1.0881610020503325,1.6,2892.0,84.54263999999999,0.3,68900.0,0.33,276.0,2700.0,38.1463627249313,7.855566627889468,21210.029895301563,25.81915620223142,11.349102115084184,12.327206522699882,3.493535487194716,3551,106,1182,1772,219.65739328917067,124.34616032522808,0.0026186513718822,False
0.43,1.0747551811223388,1.6,2893.0,84.54263999999999,0.3,68900.0,0.33,276.0,2700.0,37.02575836463849,7.794018976991302,21043.851237876515,25.320015892736517,11.0063258692312,11.705742471901978,3.2123068922398987,3528,106,1174,1759,211.72614858698304,119.56523866836808,0.002485101458934,False
0.44,0.7584708094185646,1.6,2894.0,84.54263999999999,0.3,68900.0,0.33,276.0,2700.0,19.33028142736724,4.074252961618524,11000.482996370014,14.854136394524597,4.719363772984717,4.47614503284264,0.6451108113661927,1971,70,652,985,159.9314563639058,91.42739697253964,0.0014929669057506,False
0.45,0.8329438981914518,1.6,2895.0,84.54263999999999,0.2,68900.0,0.33,276.0,2700.0,22.78473754667932,4.935714194297266,13326.42832460262,17.092157235759718,5.908068272851037,5.692580310919599,0.9723540785537708,6112,116,1538,3419,183.85738070945487,105.67876980208912,0.0016874619834511,False
0.46,1.1588699538191023,1.6,2896.0,84.54263999999999,0.3,68900.0,0.33,276.0,2700.0,41.690074387583465,9.38485706745766,25339.11408213569,28.526610469261243,13.269727786033746,13.163463918322222,3.884870718576085,4205,114,1374,2116,216.57762567432704,123.08403270289531,0.002659302153893,False
0.4700000000000001,0.9428707921650368,1.6,2897.0,84.54263999999999,0.3,68900.0,0.33,276.0,2700.0,28.214082964025824,6.412863113830301,17314.730407341813,20.6503415165826,7.979744016598577,7.563741447443228,1.5668809027682755,2717,88,876,1375,187.7740662840461,107.17554181541703,0.0018960154879643,False
0.4800000000000001,0.8002619938106196,1.6,2898.0,84.54263999999999,0.3,68900.0,0.33,276.0,2700.0,20.60138581517643,4.7127092524784775,12724.314981691889,16.09285679611992,5.365866655773466,4.50852901905651,0.6531574032949887,2270,74,704,1170,182.21995256316356,104.41678456378476,0.001505003807224,False
0.49,1.0786324172874804,1.6,2899.0,84.54263999999999,0.3,68900.0,0.33,276.0,2700.0,35.73558981857242,8.50881601614879,22973.80324360173,25.46391316647212,11.104776390334754,10.2716766521003,2.595960374185964,3799,104,1144,1987,201.52364176969783,114.5857694426797,0.0022612549580073,False
0.5,1.1593880911809096,1.6,2900.0,84.54263999999999,0.3,68900.0,0.33,276.0,2700.0,40.63957152478108,9.898093493396123,26724.852432169533,28.546913778294357,13.284513748383748,12.092657746486722,3.386420254987625,4465,112,1340,2343,245.20713100034425,137.4986098020174,0.002632361107618,False
0.05,0.3975940112699102,1.6,2905.0,87.56201999999999,0.1,68900.0,0.33,276.0,2700.0,10.99624046228974,0.2746442121694437,741.539372857498,5.983555365147473,1.0578758471500005,5.012685097142266,0.7832316349805566,8819,152,2894,4472,709.8905444810466,406.9338442121253,0.0046599110804212,True
0.06,0.4223676757721204,1.6,2906.0,87.56201999999999,0.1,68900.0,0.33,276.0,2700.0,11.780885331041466,0.3529741705891265,953.0302605906415,6.487873818116182,1.2123255042460173,5.293011512925284,0.8593513336568908,9410,158,3090,4769,642.3229958081972,368.82192018268177,0.0042606501498684,True
0.0699999999999999,0.7220519971875257,1.6,2907.0,87.56201999999999,0.2,68900.0,0.33,276.0,2700.0,25.70845805269815,0.8990776543243166,2427.509666675655,13.81044990551072,4.197499846232549,11.89800814718743,3.298422191908232,5336,128,1758,2693,901.0068399076628,514.9018762552178,0.0085841640481878,True
0.08,0.6546869380340552,1.6,2908.0,87.56201999999999,0.2,68900.0,0.33,276.0,2700.0,21.895382331013256,0.8747429629481066,2361.805999959888,11.967765735177448,3.3298646048113625,9.927616595835808,2.455121641863256,4637,118,1528,2339,735.2412807772055,421.0437168433705,0.0062669477307331,True
0.09,0.7129657797006029,1.6,2909.0,87.56201999999999,0.2,68900.0,0.33,276.0,2700.0,24.69482599844057,1.1097403559001804,2996.298960930487,13.55525384042566,4.073176049388491,11.13957215801491,2.9634356934883104,5047,124,1662,2548,709.9041751914057,406.5439319430605,0.0064629611929981,True
0.0999999999999999,0.442930907484661,1.6,2910.0,87.56201999999999,0.2,68900.0,0.33,276.0,2700.0,11.843538501279385,0.5900825299615765,1593.2228308962565,6.918195616142932,1.3501433493565425,4.925342885136453,0.760060819394966,2533,80,826,1288,407.5333580135478,234.33815360886692,0.0028257142608026,True
0.11,0.7562883909611966,1.6,2911.0,87.56201999999999,0.3,68900.0,0.33,276.0,2700.0,26.53668430408101,1.4567299968431688,3933.170991476556,14.790653940192568,4.687015125959768,11.746030363888442,3.2302851291165986,2718,88,884,1386,605.9224995655256,349.6618327797311,0.0058571024069158,True
0.12,0.6690345474719258,1.6,2912.0,87.56201999999999,0.3,68900.0,0.33,276.0,2700.0,21.658157798952008,1.2958703532001838,3498.849953640497,12.350667149822932,3.504314107579268,9.307490649129075,2.2084437543790845,2250,80,738,1137,492.3832923633606,284.2753360046015,0.0042715691431955,True
0.13,0.5506727580635273,1.6,2913.0,87.56201999999999,0.3,68900.0,0.33,276.0,2700.0,15.799477469273222,1.0223646494627,2760.38455354929,9.346598710349417,2.2237234085542394,6.452878758923806,1.201358759091539,1693,66,556,853,388.8958053803876,224.477913913507,0.0029722924740732,True
0.14,0.5385861090395707,1.6,2914.0,87.56201999999999,0.3,68900.0,0.33,276.0,2700.0,15.063103091191929,1.0486701962224678,2831.409529800663,9.059648039530524,2.11249218447704,6.003455051661405,1.063821988254572,1725,66,562,876,364.4618113968627,210.41805983263848,0.0026931341734761,True
0.15,0.7989164719840768,1.6,2915.0,87.56201999999999,0.3,68900.0,0.33,276.0,2700.0,27.86751613129377,2.082995126376457,5624.086841216435,16.05229070462713,5.344240662085507,11.815225426666643,3.26124553570905,2893,92,942,1474,475.7914225999165,274.1063512056279,0.0046957917255559,True
0.16,0.7487639959509078,1.6,2916.0,87.56201999999999,0.3,68900.0,0.33,276.0,2700.0,24.84764745183204,1.9792331538071637,5343.929515279341,14.572701241500436,4.576545276575451,10.274946210331606,2.597312122768288,2610,86,852,1326,417.6709852336497,240.3990276534898,0.0038752703092042,True
0.17,0.6716591020744764,1.6,2917.0,87.56201999999999,0.2,68900.0,0.33,276.0,2700.0,20.62697313102067,1.743002952998698,4706.107973096484,12.421269636449114,3.5368217200686107,8.205703494571555,1.7938187670699128,4343,112,1434,2186,354.00070251709764,204.26997342635025,0.0030452112969689,True
0.18,0.7603702907754186,1.6,2918.0,87.56201999999999,0.3,68900.0,0.33,276.0,2700.0,24.976731229788907,2.235691298443842,6036.3665057983735,14.909486173221444,4.747631481720941,10.067245056567463,2.5119401832770984,2653,86,864,1351,381.2599499711827,219.53840972761807,0.0035197367700896,True
0.19,0.6479574420062523,1.6,2919.0,87.56201999999999,0.3,68900.0,0.33,276.0,2700.0,19.02932756132944,1.793420662318978,4842.2357882612405,11.789954895897552,3.249926499775815,7.239372665431887,1.456505837456837,2066,74,674,1049,315.46056568700425,181.9557758233751,0.0026122141053964,True
0.2,0.7162671064188493,1.6,2920.0,87.56201999999999,0.3,68900.0,0.33,276.0,2700.0,22.187154591339752,2.20196029831483,5945.292805450041,13.647735116158206,4.118078951160664,8.539419475181546,1.9161186528458336,2162,78,716,1082,325.3931930819081,187.70279203827596,0.0028631513646863,True
0.21,0.6548697226134699,1.6,2921.0,87.56201999999999,0.3,68900.0,0.33,276.0,2700.0,18.93192822802497,1.9684562708993565,5314.831931428263,11.97261125765356,3.332052570668405,6.959316970371411,1.3635962997690485,2107,74,686,1072,290.21601414068044,167.29445352321738,0.0024133048436883,True
0.22,0.5698175228823348,1.6,2922.0,87.56201999999999,0.3,68900.0,0.33,276.0,2700.0,14.86315564359319,1.6126460017449675,4354.144204711412,9.80863066551372,2.4070698929552203,5.054524978079471,0.7944238912102528,1555,62,510,784,264.4637360015091,151.26698311874608,0.0022382224735065,False
0.23,0.630281980453669,1.6,2923.0,87.56201999999999,0.3,68900.0,0.33,276.0,2700.0,17.365872283193365,1.9715928073564184,5323.300579862329,11.328343835692536,3.045624765252944,6.037528447500829,1.0740319578965256,1948,72,640,982,256.8358067994559,148.14883747537758,0.002117807507195,False
0.24,0.7166334240874443,1.6,2924.0,87.56201999999999,0.3,68900.0,0.33,276.0,2700.0,21.30447639364411,2.52758424934181,6824.477473222887,13.658013790519805,4.1230802401970825,7.646462603124306,1.5954959908552726,2141,76,706,1076,275.6843885357022,158.71603283981568,0.0024259950782831,False
0.25,0.6980842081789274,1.6,2925.0,87.56201999999999,0.3,68900.0,0.33,276.0,2700.0,20.169474114136527,2.4884593407921574,6718.840220138825,13.14177125680741,3.8745361076658167,7.027702857329118,1.386076766873659,2178,76,716,1098,260.6151287493343,149.94565771907645,0.0022568350635756,False
0.26,0.7158833838278524,1.6,2926.0,87.56201999999999,0.2,68900.0,0.33,276.0,2700.0,20.83167586015288,2.6713067735002074,7212.52828845056,13.63697168584346,4.112844072084696,7.19470417430942,1.441537298584489,4490,112,1486,2255,253.9995197801944,146.07734576123636,0.002256835719099,False
0.27,0.801263662036383,1.6,2927.0,87.56201999999999,0.3,68900.0,0.33,276.0,2700.0,25.010676455198677,3.335217342651416,9005.086825158822,16.123085602038046,5.382001496600201,8.887590853160628,2.046784153948785,2553,86,842,1284,271.9455714327718,156.02815389951536,0.0025504657070931,False
0.28,0.8564258229621753,1.6,2928.0,87.56201999999999,0.3,68900.0,0.33,276.0,2700.0,27.796978131886664,3.8456007771763967,10383.12209837627,17.82672684928275,6.318022459305302,9.970251282603916,2.4724216821289056,2905,92,954,1468,277.242128625017,158.77070671783363,0.0027321385373732,True
0.29,0.9290759211819536,1.6,2929.0,87.56201999999999,0.3,68900.0,0.33,276.0,2700.0,31.744179918900937,4.551825886088372,12289.929892438604,20.187155649172716,7.698075512347945,11.557024269728224,3.146249626259573,3053,98,1006,1538,288.6842825936254,164.59979372759182,0.0030845349846127,True
0.3,0.8032866745520961,1.6,2930.0,87.56201999999999,0.3,68900.0,0.33,276.0,2700.0,24.42683337150068,3.607476337960394,9740.186112493064,16.18421390042666,5.414680514881796,8.242619471074022,1.8072041769214016,2489,84,816,1259,247.48320051408547,141.8088621191589,0.0023218479309829,False
0.31,0.8429802545134286,1.6,2931.0,87.56201999999999,0.3,68900.0,0.33,276.0,2700.0,26.33222729641907,4.019101106449554,10851.572987413796,17.404422208998906,6.081176137127942,8.927805087420165,2.062075030678388,2656,88,882,1327,250.98059744314705,143.6457874536842,0.0024259120471632,False
0.32,0.8644167977470121,1.6,2932.0,87.56201999999999,0.3,68900.0,0.33,276.0,2700.0,27.277480474335164,4.295767737178393,11598.57289038166,18.079863690995648,6.46148572040866,9.197616783339516,2.165717983230267,2780,90,924,1388,249.8351000319712,142.79167162324634,0.0024356431479746,False
0.33,0.99859534772401,1.6,2933.0,87.56201999999999,0.3,68900.0,0.33,276.0,2700.0,34.90893728947717,5.684708375969029,15348.712615116376,22.57006803286281,9.183600664642803,12.33886925661436,3.4988922886737743,3329,102,1098,1676,267.76606675272865,152.64307903320588,0.0030606255063579,False
0.34,0.857260442816101,1.6,2934.0,87.56201999999999,0.3,68900.0,0.33,276.0,2700.0,26.415397476050767,4.40829946582417,11902.40855772526,17.853090748803577,6.3329120001635495,8.56230672724719,1.92461253433938,2539,86,844,1267,237.2745101853424,135.75651094447497,0.0022767722557773,False
0.3500000000000001,0.6714860119602283,1.6,2935.0,87.56201999999999,0.3,68900.0,0.33,276.0,2700.0,16.947313266946654,2.875982631700557,7765.153105591505,12.4166080503817,3.534672124536224,4.530705216564956,0.6586894928356664,1820,68,606,905,182.38914823556425,104.5861831200144,0.0015994296385983,False
0.36,0.7943112604196887,1.6,2936.0,87.56201999999999,0.2,68900.0,0.33,276.0,2700.0,22.65031334889329,3.9793403049035367,10744.21882323955,15.913792712477218,5.270635578128901,6.736520636416074,1.291295273225364,5448,116,1526,2943,223.86829677444885,128.23639585293054,0.0019767280443942,False
0.37,0.6833978257547524,1.6,2937.0,87.56201999999999,0.3,68900.0,0.33,276.0,2700.0,17.1240337267429,3.0618588443259225,8267.01887967999,12.739168877271876,3.684494049934965,4.384864849471025,0.6226352056090425,1774,68,592,880,172.72660869474726,99.17097367403244,0.0015600589703589,False
0.38,1.020524089398111,1.6,2938.0,87.56201999999999,0.2,68900.0,0.33,276.0,2700.0,34.94178710582185,6.5240159020476325,17614.842935528606,23.346917820674857,9.687029440141368,11.594869285146997,3.163013538093735,9224,154,2398,5113,246.29637651815483,140.42568714566966,0.0027071170655937,False
0.39,1.0006074764823103,1.6,2939.0,87.56201999999999,0.3,68900.0,0.33,276.0,2700.0,33.46460653958417,6.401360852140042,17283.67430077811,22.640846312110497,9.229085738052264,10.82376022747367,2.8277248859122226,3234,100,1072,1620,232.9710278851663,132.62459334310287,0.0025186044448163,False
0.4,0.9935372584361376,1.6,2940.0,87.56201999999999,0.3,68900.0,0.33,276.0,2700.0,32.786444754581616,6.423247664363157,17342.768693780527,22.39259498991268,9.0698883535784,10.393849764668936,2.646640689215244,3217,100,1068,1609,222.51299763772903,125.78368065081668,0.0024344273199936,False
0.4100000000000001,0.7886459880705728,1.6,2941.0,87.56201999999999,0.3,68900.0,0.33,276.0,2700.0,21.35238562730125,4.232891248744713,11428.806371610726,15.744145429813782,5.18096053815622,5.608240197487467,0.9480692894115066,2131,76,712,1057,188.7604255368209,108.08074011683344,0.0017147043551019,False
0.42,0.823205904225284,1.6,2942.0,87.56201999999999,0.3,68900.0,0.33,276.0,2700.0,22.88804071466756,4.651319005734085,12558.56131548203,16.79159513581755,5.743090318825681,6.0964455788500125,1.0917713130915958,2588,82,822,1321,188.54489772017308,107.616018987573,0.0017996838150906,False
0.43,0.748698335257928,1.6,2943.0,87.56201999999999,0.3,68900.0,0.33,276.0,2700.0,19.051059716712665,3.929458767687248,10609.538672755569,14.570805567186694,4.575588485149583,4.480254149525971,0.6461297174623355,1952,70,648,974,168.36533956164115,96.12692475036444,0.0015462605184287,False
0.44,1.005201533650783,1.6,2944.0,87.56201999999999,0.3,68900.0,0.33,276.0,2700.0,32.49921492219155,6.971418330479881,18822.82949229568,22.80282741990333,9.333470952516446,9.696387502288218,2.3620526220365656,3239,98,1086,1602,208.75502388268137,118.28305528525516,0.0022731064210734,False
0.45,0.9190172593439055,1.6,2945.0,87.56201999999999,0.3,68900.0,0.33,276.0,2700.0,27.3318250156876,5.958808874824131,16088.783962025153,19.852434360583253,7.4967052957969,7.479390655104346,1.5378964209727697,2682,88,884,1342,189.02399641771916,107.23147248185654,0.0019655175522995,False
0.46,1.1425461269708483,1.6,2946.0,87.56201999999999,0.3,68900.0,0.33,276.0,2700.0,40.606400380371205,9.135612045798831,24666.152523656845,27.89041308696601,12.809266034250417,12.715987293405195,3.673653988451585,3733,110,1238,1868,217.0451407957872,122.75795553456528,0.002671627366232,False
0.4700000000000001,0.8551715230714292,1.6,2947.0,87.56201999999999,0.3,68900.0,0.33,276.0,2700.0,23.523615875265698,5.310603347971671,14338.62903952351,17.78713905872435,6.2956872293795465,5.736476816541348,0.985083881407876,2798,82,814,1485,189.78747821506957,108.56202598680706,0.0017342452809558,False
0.4800000000000001,1.0348762836011145,1.6,2948.0,87.56201999999999,0.3,68900.0,0.33,276.0,2700.0,33.309159171944074,7.762574858102713,20958.952116877324,23.86190353063112,10.025798334454256,9.447255641312957,2.2632234763515413,3216,98,1042,1623,207.26698258013903,119.04074293330824,0.002191482257415,False
0.49,0.8200333079261451,1.6,2949.0,87.56201999999999,0.2,68900.0,0.33,276.0,2700.0,21.380798737094874,4.99189220118679,13478.108943204332,16.694188023832258,5.6899719498436925,4.686610713262617,0.6980797486569026,5727,110,1428,3217,181.10724167614103,103.60654706069026,0.0015962175321286,False
0.5,0.842662713794909,1.6,2950.0,87.56201999999999,0.3,68900.0,0.33,276.0,2700.0,22.314839768338604,5.316910554285503,14355.658496570855,17.394503662470488,6.075651099232514,4.920336105868117,0.7587405449470115,2754,78,762,1493,188.7472528519176,108.081307822988,0.0016205949705721,False
0.04,0.3699609311945652,1.6,2954.0,90.5814,0.08,68900.0,0.33,276.0,2700.0,10.124508620146862,0.2023561311163843,546.3615540142376,5.439225790380664,0.9000967262624009,4.685282829766199,0.6977405951460166,12946,182,4254,6559,912.2112972448748,522.354899592262,0.0053974700734973,True
0.06,0.4154521016796066,1.6,2956.0,90.5814,0.1,68900.0,0.33,276.0,2700.0,11.506648681808375,0.3447470711121339,930.8170920027616,6.345541273476182,1.1679509804801076,5.161107408332193,0.8232039093679737,9449,158,3106,4784,639.3802178393385,366.7878292327192,0.0043136816863291,True
0.0699999999999999,0.652787141192867,1.6,2957.0,90.5814,0.2,68900.0,0.33,276.0,2700.0,22.0443210305094,0.7708328585477084,2081.248718078813,11.917452844847809,3.307176087767499,10.126868185661593,2.5363432292197907,4539,118,1498,2286,832.6182090694791,476.2012845559794,0.0074068736844163,True
0.08,0.7322155011317754,1.6,2958.0,90.5814,0.2,68900.0,0.33,276.0,2700.0,26.00069293016427,1.0389553869141464,2805.179544668195,14.09836124731973,4.339323303531571,11.90233168284454,3.300367916617424,5231,128,1718,2648,843.6780435819045,482.79026490120975,0.0079396409031832,True
0.09,0.576438670898386,1.6,2959.0,90.5814,0.2,68900.0,0.33,276.0,2700.0,17.834268514933402,0.8010152691423581,2162.7412266843667,9.970566576341673,2.47254978130682,7.8637019385917295,1.6715345121644614,3911,104,1274,1994,575.1307979237674,332.0097635337584,0.0046108144929163,True
0.0999999999999999,0.549044050512267,1.6,2960.0,90.5814,0.2,68900.0,0.33,276.0,2700.0,16.35589048304321,0.8157001290497669,2202.3903484343705,9.307717315258786,2.208532204915204,7.048173167784425,1.392832075865437,3761,100,1236,1901,501.0824365287219,289.1710012960907,0.003905130322728,True
0.11,0.7559801613711817,1.6,2961.0,90.5814,0.3,68900.0,0.33,276.0,2700.0,26.519624090435087,1.4557916850926438,3930.637549750138,14.781697767370735,4.6824575890998,11.73792632306435,3.226665904007157,2718,88,884,1386,626.5629809496767,361.573621705164,0.0060545141512841,True
0.12,0.6571489122986852,1.6,2962.0,90.5814,0.3,68900.0,0.33,276.0,2700.0,21.058873498252527,1.2599132951582164,3401.7658969271843,12.033101883884312,3.35940933276057,9.025771614368216,2.099496037602353,2227,78,732,1123,509.22438869845394,293.99668668923465,0.0042710490453049,True
0.13,0.5689998922558291,1.6,2963.0,90.5814,0.2,68900.0,0.33,276.0,2700.0,16.623820595170272,1.0759469526461092,2905.056772144495,9.788709996170711,2.3990582011384927,6.83511059899956,1.3231112484923837,3562,98,1166,1807,404.5406408324582,233.3005229830188,0.0032096859829812,True
0.14,0.6883281269148903,1.6,2964.0,90.5814,0.3,68900.0,0.33,276.0,2700.0,22.164367802432334,1.5457587260092958,4173.548560225098,12.873720312193583,3.7476334275745895,9.290647490238753,2.201874701565294,2235,80,736,1125,453.7612783905042,261.7567176173588,0.0039543948307729,True
0.15,0.8412668051289264,1.6,2965.0,90.5814,0.3,68900.0,0.33,276.0,2700.0,30.30514132506478,2.265817015909284,6117.705942955066,17.350931798803597,6.05140037769743,12.954209526261184,3.785583361788146,3082,96,1010,1561,512.3722067779886,295.18873645490567,0.0053748457133506,True
0.16,0.5110009644267646,1.6,2966.0,90.5814,0.3,68900.0,0.33,276.0,2700.0,13.495342147637178,1.0710487294715714,2891.831569573242,8.418497649798848,1.871467558980354,5.07684449783833,0.8004188295087826,1433,60,470,722,319.32667701302915,184.3625218860213,0.0022956356876404,True
0.17,0.8498861917512626,1.6,2967.0,90.5814,0.3,68900.0,0.33,276.0,2700.0,30.264465968549107,2.56218984418862,6917.9125793092735,17.620759557820847,6.202116300835367,12.64370641072826,3.639926456646746,3018,96,988,1530,464.659233766929,267.29851662959715,0.0048248664292196,True
0.18,0.5798187575077849,1.6,2968.0,90.5814,0.3,68900.0,0.33,276.0,2700.0,16.08187364543835,1.4351541158522945,3874.916112801195,10.05365943428043,2.5063915095276825,6.02821421115792,1.071237393675388,1905,70,624,963,316.8768001995348,182.92710697356668,0.0024331213387075,True
0.19,0.7709772411562394,1.6,2969.0,90.5814,0.3,68900.0,0.33,276.0,2700.0,25.302438087767044,2.389366162330554,6451.288638292496,15.220233513030674,4.907421203202883,10.08220457473637,2.518055040872329,2718,90,892,1374,407.2477600590239,234.7519614467009,0.0040039864082436,True
0.2,0.6234629372277942,1.6,2970.0,90.5814,0.2,68900.0,0.33,276.0,2700.0,17.66288329549654,1.749533168730507,4723.739555572369,11.1523571513141,2.9689769934568244,6.510526144182437,1.2194438247263175,3814,102,1250,1933,294.03294197346275,169.60420639927088,0.0024493908357522,True
0.21,0.8974476122504036,1.6,2971.0,90.5814,0.3,68900.0,0.33,276.0,2700.0,31.99288148346582,3.339856362720651,9017.612179345757,19.143235854819626,7.076164891259583,12.849645628646195,3.736308528538932,3085,98,1012,1561,392.7172524348721,225.0156965848861,0.00429026746653,True
0.22,0.844787983829197,1.6,2972.0,90.5814,0.3,68900.0,0.33,276.0,2700.0,28.647398468421883,3.1289127124761253,8448.064323685538,17.460935836385147,6.112689689677084,11.186462632036736,2.9837769772009586,2970,94,974,1503,357.3980704774288,204.90414639857377,0.0036049540659209,True
0.23,0.5483835047707111,1.6,2973.0,90.5814,0.3,68900.0,0.33,276.0,2700.0,13.766536065616105,1.5576691423350326,4205.706684304588,9.291967409321783,2.202389234249277,4.474568656294318,0.6447200919142448,1438,60,474,721,232.19812490225013,133.47753025815942,0.0018144837063598,False
0.24,0.924272335434557,1.6,2974.0,90.5814,0.3,68900.0,0.33,276.0,2700.0,32.78998019281602,3.905844705242439,10545.780704154584,20.02698989345373,7.601489696304621,12.762990299362286,3.6956449910621822,3210,100,1056,1620,351.7471975530193,201.15526017825215,0.0039120398566732,True
0.25,0.5829370677846755,1.6,2975.0,90.5814,0.3,68900.0,0.33,276.0,2700.0,14.870565771553393,1.826095797969282,4930.458654517061,10.130571675171405,2.537861793671284,4.73999409638199,0.7117659957020022,1623,64,538,810,232.8826374378395,134.11693421507482,0.0018309959011677,False
0.26,0.6459131565791553,1.6,2976.0,90.5814,0.3,68900.0,0.33,276.0,2700.0,17.487283696694035,2.2365357922505638,6038.646639076521,11.736164934143744,3.225879465706437,5.751118762550291,0.9893436734558736,1962,72,642,993,243.54934313784528,140.27041247936285,0.0020347869573783,False
0.27,0.7635648984955938,1.6,2977.0,90.5814,0.3,68900.0,0.33,276.0,2700.0,23.02588239155748,3.067270144059853,8281.629388961604,15.002779678941154,4.795410391147784,8.023102712616323,1.7281402470879303,2317,80,762,1168,270.39224807915514,155.31012134141676,0.0024663359764827,False
0.28,0.7150163814145716,1.6,2978.0,90.5814,0.3,68900.0,0.33,276.0,2700.0,20.363978102996818,2.804980773131819,7573.448087455911,13.612665868597936,4.101031322689266,6.751312234398881,1.2960505495574473,2169,76,712,1095,248.521287568797,142.89134950956858,0.0021843886340933,False
0.29,0.7140318789735647,1.6,2979.0,90.5814,0.3,68900.0,0.33,276.0,2700.0,20.107393887354025,2.8644919115140555,7734.12816108795,13.585088924887094,4.087643196695743,6.522304962466931,1.2231512851816877,2057,74,678,1034,240.19271996282197,137.92479725367488,0.0021166609216674,False
0.3,0.9648460940620144,1.6,2980.0,90.5814,0.3,68900.0,0.33,276.0,2700.0,33.636430166921656,4.988915857273634,13470.072814638812,21.398076960677805,8.441735135667816,12.23835320624385,3.4528192783941822,3375,102,1116,1695,293.20918512229287,167.21952526429118,0.0033050759684763,True
0.31,0.8312534436651384,1.6,2981.0,90.5814,0.3,68900.0,0.33,276.0,2700.0,25.69436940229425,3.9202331328602114,10584.629458722571,17.03981059205082,5.879219013215191,8.654558810243426,1.9589858803549796,2567,86,856,1277,256.8692488059392,147.0993219529602,0.0024518808298784,False
0.32,0.8550797695111156,1.6,2982.0,90.5814,0.3,68900.0,0.33,276.0,2700.0,26.761335360541864,4.213184518971448,11375.59820122291,17.784244715779327,6.294055328828045,8.977090644762537,2.080870809856597,2671,88,886,1336,256.27893916592734,146.818934296803,0.0024879432889888,False
0.33,0.8267080611477097,1.6,2983.0,90.5814,0.3,68900.0,0.33,276.0,2700.0,24.99322956075313,4.048616600729493,10931.264821969631,16.899414383986088,5.802085829969424,8.093815176767041,1.753469229239931,2587,86,862,1288,238.5467447099116,136.14551408220282,0.0022975294176667,False
0.34,0.8966171301969152,1.6,2984.0,90.5814,0.3,68900.0,0.33,276.0,2700.0,28.605235525633933,4.780571934253309,12907.544222483932,19.116163818320636,7.060278020056327,9.4890717073133,2.279706085803018,2692,90,892,1348,251.58354091864575,143.47229421832753,0.0025174817543291,False
0.3500000000000001,0.6784805293531107,1.6,2985.0,90.5814,0.3,68900.0,0.33,276.0,2700.0,17.263731897376577,2.9313558920257954,7914.660908469647,12.6055808598363,3.6221804756156,4.658151037540277,0.690824583589805,1768,68,590,877,195.4438246397011,112.1958679433304,0.0016769899164011,False
0.36,0.9968767678963432,1.6,2986.0,90.5814,0.3,68900.0,0.33,276.0,2700.0,34.00935068575345,6.023967025538366,16264.710968953588,22.50969614753676,9.144864088595444,11.499654538216696,3.120897063057078,3274,102,1082,1645,278.8316312952137,153.60422050726802,0.0028428627128248,True
0.37,0.7340788905266833,1.6,2987.0,90.5814,0.2,68900.0,0.33,276.0,2700.0,19.47726474309736,3.4972065823514904,9442.457772349024,14.151428891379233,4.365643469657042,5.325835851718129,0.8684368873055512,5099,106,1336,2817,214.4603644305276,123.4314647784839,0.0018048067861981,False
0.38,1.0739580296825082,1.6,2988.0,90.5814,0.3,68900.0,0.33,276.0,2700.0,38.3185892280044,7.165608305262312,19347.142424208243,25.29047774662585,10.986153756354538,13.028111481378549,3.820545451092226,3651,108,1214,1824,256.1622534399219,145.2920385598699,0.0030929754146452,False
0.39,1.0858169020329351,1.6,2989.0,90.5814,0.3,68900.0,0.33,276.0,2700.0,38.81081528664229,7.443871557816385,20098.45320610424,25.731552241948823,11.288682133780352,13.079263044693466,3.844810575963967,3651,108,1214,1824,332.3510154734449,172.3882685631367,0.0030661102435659,True
0.4,0.9101383988566524,1.6,2990.0,90.5814,0.3,68900.0,0.33,276.0,2700.0,27.95784392254064,5.457527497954962,14735.3242444784,19.55908618257591,7.32174206553793,8.398757739964726,1.864214567582968,2749,90,918,1366,216.7905783076599,123.20700985868154,0.0022112381457326,False
0.4100000000000001,1.056563919078554,1.6,2991.0,90.5814,0.3,68900.0,0.33,276.0,2700.0,36.40319842791055,7.318307872869623,19759.431256747983,24.64992179638266,10.55183036185024,11.753276631527893,3.2335224889806167,3561,106,1186,1776,237.88691391767455,134.3646392125893,0.0027280696711594,False
0.42,0.7533089415392413,1.6,2992.0,90.5814,0.3,68900.0,0.33,276.0,2700.0,19.45102663235584,3.929546048448621,10609.774330811277,14.70418061673073,4.643075997468626,4.746846015625108,0.7135299490200055,1932,70,644,960,175.0742121899309,100.07241987962948,0.0016330034254827,False
0.43,0.8505219154504644,1.6,2993.0,90.5814,0.3,68900.0,0.33,276.0,2700.0,24.090502469024724,5.012938959434343,13534.935190472725,17.64073466711427,6.213324584071295,6.449767801910454,1.2003856246369526,2553,82,814,1300,202.090905810295,115.60158079739443,0.0019072186421539,False
0.44,0.8652701052863274,1.6,2994.0,90.5814,0.3,68900.0,0.33,276.0,2700.0,24.654957589067685,5.245681717192629,14163.340636420098,18.10698946999466,6.476924976420476,6.547968119073026,1.2312432592278464,2646,84,846,1345,203.1492892710725,116.6764032095745,0.0019115402671785,False
0.45,0.9030689855853108,1.6,2995.0,90.5814,0.2,68900.0,0.33,276.0,2700.0,26.46120107178891,5.762918487446923,15559.87991610669,19.32693702521452,7.184292121231326,7.134264046574391,1.4213736337844036,7604,128,1914,4261,207.96554674343005,119.17105262817276,0.0020225895984188,False
0.46,0.8505240501448836,1.6,2996.0,90.5814,0.3,68900.0,0.33,276.0,2700.0,23.48326275696297,5.197290392414942,14032.684059520345,17.640801758575726,6.213362241720751,5.842460998387246,1.016071849305809,2753,82,814,1454,200.5379771204976,114.6110500119312,0.0018105865789795,False
0.4700000000000001,0.8911925024127763,1.6,2997.0,90.5814,0.3,68900.0,0.33,276.0,2700.0,25.40336058728259,5.752343355295634,15531.32705929821,18.9397583135917,6.957058748107126,6.463602273690892,1.2047153928114929,2711,84,824,1415,198.2506591525312,114.03192033168531,0.0018864962664805,False
0.4800000000000001,0.8397734418652658,1.6,2998.0,90.5814,0.3,68900.0,0.33,276.0,2700.0,22.54776176297865,5.179839479951006,13985.566595867716,17.304372209908077,6.025523905723804,5.243389553070571,0.8456844257727978,2479,78,766,1280,194.40042511359252,110.96585601484902,0.0016992835817381,False
0.49,1.1516545352690324,1.6,2999.0,90.5814,0.3,68900.0,0.33,276.0,2700.0,40.39764127491898,9.651018622953686,26057.75028197495,28.244574163470205,13.06491464344122,12.153067111448776,3.4138960204875346,4365,112,1330,2272,224.3201277433565,127.61513032440727,0.0026118695625809,False
0.5,0.81940291799946,1.6,3000.0,90.5814,0.2,68900.0,0.33,276.0,2700.0,21.167850675919528,5.0301632811804105,13581.440859187109,16.67486350907078,5.679454193393967,4.492987166848749,0.6492909122135568,5894,110,1436,3340,183.59231217678408,104.99427863472698,0.0016318715241715,False
0.01,0.6970799812339048,2.0,3001.0,3.01938,0.08,68900.0,0.33,276.0,2700.0,29.432442597336184,0.1471601185915792,397.3323201972639,14.866022487129523,4.471978407965975,14.56642011020666,4.324818289374395,36348,324,12106,18183,209.89952549685188,118.71437644750304,0.0020952741676694,False
0.02,0.5356704908962762,2.0,3002.0,3.01938,0.1,68900.0,0.33,276.0,2700.0,20.15897063108569,0.2015729511500356,544.2469681050961,10.337264425879132,2.4467609215285644,9.821706205206562,2.2451879703785287,16187,210,5360,8141,76.2904602588481,44.03068597077522,0.0006685320538185,False
0.03,0.5876951404350736,2.0,3003.0,3.01938,0.1,68900.0,0.33,276.0,2700.0,22.64208316276666,0.3395746987737348,916.851686689084,11.725438122111203,3.0203681978033385,10.916645040655457,2.680793499029604,17991,224,5920,9105,62.61862776763211,35.71235006213591,0.000517965727898,False
0.04,0.5372324512981408,2.0,3004.0,3.01938,0.1,68900.0,0.33,276.0,2700.0,19.73326984938696,0.3945313557009493,1065.2346603925632,10.377951724051796,2.4629390872184875,9.35531812533516,2.068407731517538,15738,206,5170,7977,46.52923849331613,26.57180117181712,0.0003354346273823,False
0.05,0.5023061934902231,2.0,3005.0,3.01938,0.1,68900.0,0.33,276.0,2700.0,17.7374923360527,0.4431755090135192,1196.573874336502,9.48280575958169,2.116197349950137,8.25468657647101,1.6730218409366178,14321,194,4712,7247,32.82704915006666,18.741645501665584,0.0002500452940313,False
0.06,0.3718737079573737,2.0,3006.0,3.01938,0.1,68900.0,0.33,276.0,2700.0,11.552298187420966,0.3461165562805116,934.5147019573814,6.41090691519111,1.084316588517693,5.141391272229856,0.7382000322371814,9525,150,3120,4839,18.655528729652744,10.70452584661034,0.0001446715785536,False
0.0699999999999999,0.5856263239653025,2.0,3007.0,3.01938,0.2,68900.0,0.33,276.0,2700.0,21.48951596470737,0.7514146812446374,2028.819639360521,11.66893716584417,2.9961688819003736,9.8205787988632,2.244754200655736,4615,112,1512,2341,24.92259267455276,14.383610895787596,0.0002245022342647,False
0.08,0.6454651592848424,2.0,3008.0,3.01938,0.1,68900.0,0.33,276.0,2700.0,24.470574384371563,0.9777506450824366,2639.9267417225788,13.346621983612572,3.744171090419501,11.12395240075899,2.7664204453370647,19500,234,6416,9870,26.36302030617689,15.10448509097168,0.0002261041588236,False
0.09,0.7797184177301443,2.0,3009.0,3.01938,0.3,68900.0,0.33,276.0,2700.0,32.08331569934222,1.442222392440754,3894.000459590036,17.4380914814126,5.805577177602496,14.645224217929623,4.363354785161742,3145,96,1034,1588,25.998264366120186,14.980887383716002,0.0002764260487436,False
0.0999999999999999,0.799986105461856,2.0,3010.0,3.01938,0.3,68900.0,0.33,276.0,2700.0,33.04868170103772,1.6503396899495129,4455.917162863685,18.0951197169222,6.165647754960675,14.95356198411552,4.515308065011162,3084,96,1016,1554,23.71489937723397,13.659546979940906,0.0002615254669745,False
0.11,0.4390762726393561,2.0,3011.0,3.01938,0.1,68900.0,0.33,276.0,2700.0,13.436361961694455,0.7362122680119096,1987.773123632156,7.940240291115442,1.5658978904875818,5.496121670579015,0.8296856224756721,10785,164,3556,5445,12.082467174846943,6.973693498870954,0.0001016960565167,False
0.12,0.443846006589754,2.0,3012.0,3.01938,0.2,68900.0,0.33,276.0,2700.0,13.44058193796404,0.8028158015409053,2167.6026641604444,8.053099347161401,1.6040396507445889,5.387482590802639,0.8012238492036834,2883,84,944,1461,11.720285818759784,6.747537463500242,9.528705223731796e-05,False
0.13,0.4518579283041445,2.0,3013.0,3.01938,0.2,68900.0,0.33,276.0,2700.0,13.590328380406287,0.8787699586863554,2372.67888845316,8.243960293418844,1.6693239566206963,5.346368086987445,0.7905539979343411,3032,86,996,1532,11.026581104880258,6.365809313509531,9.0647748403281e-05,False
0.14,0.5296929931378245,2.0,3014.0,3.01938,0.3,68900.0,0.33,276.0,2700.0,16.98748723594639,1.1833770863552795,3195.1181331592547,10.182123713861492,2.385434070542035,6.805363522084896,1.2020569841867554,1869,68,612,945,12.318200621973684,7.111840816879936,0.0001038072933054,False
0.15,0.835865660201585,2.0,3015.0,3.01938,0.3,68900.0,0.33,276.0,2700.0,33.81377133347965,2.528964266540394,6828.203519659064,19.28356144389159,6.836116234775836,14.53020988958806,4.307151968235441,3358,98,1098,1705,16.777381649208788,9.686416831140995,0.0001840423409809,False
0.16,0.6559040913432204,2.0,3016.0,3.01938,0.3,68900.0,0.33,276.0,2700.0,22.970561793769956,1.829066301162192,4938.479013137918,13.648514426056854,3.885068905396462,9.3220473677131,2.0560026042342705,2327,78,762,1178,12.932231761861257,7.456759354801804,0.0001213193919482,False
0.17,0.8514293659459213,2.0,3017.0,3.01938,0.3,68900.0,0.33,276.0,2700.0,34.20737835693393,2.897337397201329,7822.81097244359,19.8091407092623,7.140321995479752,14.398237647671628,4.242984598278422,3327,98,1090,1686,15.30551058663851,8.834711784815749,0.0001666869157721,False
0.18,0.5189738759052162,2.0,3018.0,3.01938,0.3,68900.0,0.33,276.0,2700.0,15.609756129427758,1.3926635394113422,3760.191556410624,9.906167467536758,2.277772275954798,5.7035886618910006,0.8851087365434556,1599,62,522,810,9.430227615938705,5.444544210777635,8.058615400528547e-05,False
0.19,0.5748589609231609,2.0,3019.0,3.01938,0.3,68900.0,0.33,276.0,2700.0,18.074175249113907,1.7026811926585048,4597.239220177963,11.376609086581604,2.872101614886388,6.697566162532304,1.169420422227883,1942,70,636,982,9.866948634286905,5.696622367795462,8.757529984357735e-05,False
0.2,0.7942149972120982,2.0,3020.0,3.01938,0.3,68900.0,0.33,276.0,2700.0,29.811187425863725,2.9643635817672265,8003.781670771512,17.906983362570486,6.061762140480507,11.90420406329324,3.0973985587132806,2964,92,974,1497,12.30551968027349,7.101467437029364,0.0001284616478662,False
0.21,0.813882183986533,2.0,3021.0,3.01938,0.3,68900.0,0.33,276.0,2700.0,30.72279405244076,3.206497182463018,8657.54239265015,18.55156195236524,6.420264718045246,12.171232100075525,3.2137675355822277,3170,94,1040,1604,12.038857864933044,6.935457727831345,0.0001271503287926,False
0.22,0.5237986236609604,2.0,3022.0,3.01938,0.3,68900.0,0.33,276.0,2700.0,15.007461609530694,1.6285196579980947,4397.003076594856,10.030019882564638,2.3258655783181026,4.977441726966056,0.6973459203200079,1496,60,490,755,7.876679189347493,4.547472843455227,6.836377358243388e-05,False
0.23,0.7023180460999676,2.0,3023.0,3.01938,0.3,68900.0,0.33,276.0,2700.0,23.762643245801858,2.7072214680563955,7309.497963752268,15.023959177784732,4.550260938365809,8.738684068017125,1.8430394703094133,2301,78,758,1158,9.868577280966797,5.697153005853462,9.534009569321003e-05,False
0.24,0.858944957595928,2.0,3024.0,3.01938,0.3,68900.0,0.33,276.0,2700.0,32.6570971082467,3.889898735094121,10502.726584754128,20.06511851602942,7.290160431226713,12.591978592217284,3.400261696132592,3119,94,1024,1577,11.253964423018385,6.488208100071824,0.0001206370081649,False
0.25,0.8309943699290754,2.0,3025.0,3.01938,0.3,68900.0,0.33,276.0,2700.0,30.66313610118284,3.800167089172892,10260.451140766809,19.120311103431284,6.742578271490816,11.542824997751556,2.9424111823179238,3155,94,1034,1598,10.418196849549767,6.006224059577403,0.0001113247263608,False
0.26,0.6552907192797084,2.0,3026.0,3.01938,0.1,68900.0,0.33,276.0,2700.0,20.56162487064501,2.6362001448641883,7117.740391133309,13.63070005846475,3.8767027518400994,6.930924812180262,1.240502606975911,23262,210,5550,13335,8.426868012500917,4.86450244128989,7.925919309320064e-05,False
0.27,0.9566145819071216,2.0,3027.0,3.01938,0.3,68900.0,0.33,276.0,2700.0,38.07334095139841,5.098677049638383,13766.428034023633,23.520803110007485,9.416719367510236,14.552537841390922,4.318042317871853,3659,104,1206,1844,11.03707360489592,6.352735641142878,0.0001268250780408,False
0.28,0.6208271116155875,2.0,3028.0,3.01938,0.3,68900.0,0.33,276.0,2700.0,18.38766195173067,2.528296511954559,6826.400582277309,12.64495333395375,3.4240115786024905,5.7427086177769215,0.8957150666479317,1874,68,618,941,7.360267845937606,4.228645040716718,6.855985075357348e-05,False
0.29,0.6913998074945995,2.0,3029.0,3.01938,0.2,68900.0,0.33,276.0,2700.0,21.76438985309362,3.1047563265463083,8382.842081675033,14.695534786160469,4.3880214011416365,7.068855066933152,1.2832650745953282,4498,110,1496,2248,7.860544141677026,4.531721628918134,7.649725163372751e-05,False
0.3,0.9039689220113268,2.0,3030.0,3.01938,0.3,68900.0,0.33,276.0,2700.0,33.80198016454162,5.013748356916626,13537.12056367489,21.62834154613564,8.228571705497439,12.173638618405976,3.214823348580813,3174,96,1050,1593,9.587646077631655,5.516254954164321,0.0001060142800167,False
0.31,0.8302650714876236,2.0,3031.0,3.01938,0.3,68900.0,0.33,276.0,2700.0,29.03517706243681,4.438058320182312,11982.75746449224,19.095921633330093,6.728642752816159,9.939255429106716,2.290584432633847,2828,88,936,1418,8.64316761109031,4.969908808102019,9.145815674560475e-05,False
0.32,0.8270315346002568,2.0,3032.0,3.01938,0.3,68900.0,0.33,276.0,2700.0,28.590066526419022,4.505781505511828,12165.610064881936,18.987945513587484,6.667070029009184,9.602121012831542,2.1612885234973565,2832,88,942,1413,8.411239768436175,4.841505181953089,8.841051056847006e-05,False
0.33,0.9222899125890358,2.0,3033.0,3.01938,0.3,68900.0,0.33,276.0,2700.0,34.13033608422808,5.556239177102928,15001.845778177903,22.279026475839427,8.630772063717036,11.85130960838865,3.074532886614108,3311,98,1096,1661,8.856076801702775,5.09120480621986,0.0001001433699164,False
0.34,1.0333481064040293,2.0,3034.0,3.01938,0.3,68900.0,0.33,276.0,2700.0,41.15783091424069,6.914513150316422,18669.18550585434,26.40391023481598,11.331222706952476,14.753920679424702,4.416709556636056,3832,108,1268,1924,9.46585709139353,5.4305673598508,0.0001143568987731,False
0.3500000000000001,0.7897216984571289,2.0,3035.0,3.01938,0.2,68900.0,0.33,276.0,2700.0,25.71656136172505,4.410601048286776,11908.622830374296,17.761082779000603,5.981628691887859,7.955478582724449,1.5710276436010826,6013,120,1748,3201,7.935562274749815,4.574953353123391,7.780542738539002e-05,False
0.36,0.7761384359361942,2.0,3036.0,3.01938,0.3,68900.0,0.33,276.0,2700.0,24.728593447921643,4.353430722728638,11754.262951367324,17.323110182983378,5.743355039150376,7.405483264938265,1.3899243164217374,2510,82,832,1256,7.551164636372724,4.082284411323304,9.78917064721011e-05,False
0.37,0.676159785584298,2.0,3037.0,3.01938,0.2,68900.0,0.33,276.0,2700.0,19.26733045587825,3.458368739215957,9337.595595883082,14.242119273308523,4.1675235735571965,5.025211182569729,0.7091548343412399,4950,102,1344,2696,6.991678976104931,4.034361025702782,6.167472871021647e-05,False
0.38,0.6980042780503836,2.0,3038.0,3.01938,0.2,68900.0,0.33,276.0,2700.0,20.160796994026228,3.715627780806465,10032.195008177456,14.89384152577257,4.485731880095109,5.2669554682536575,0.7701040992886443,4979,102,1314,2744,6.79691810317265,3.9232795792807047,6.270105334204921e-05,False
0.39,0.7351629058963111,2.0,3039.0,3.01938,0.2,68900.0,0.33,276.0,2700.0,21.86457684321736,4.139355061348525,11176.258665641017,16.0300067257814,5.060168306747473,5.834570117435955,0.9208132453989482,5810,108,1484,3242,6.825763706040445,3.931089015042372,6.547633109193384e-05,False
0.4,0.7469658567837405,2.0,3040.0,3.01938,0.2,68900.0,0.33,276.0,2700.0,22.271064613035858,4.320171636054009,11664.463417345823,16.398156697287757,5.251538873133019,5.872907915748101,0.9313672370790104,5899,108,1480,3311,6.931943860755318,3.996423107011945,6.52472981798488e-05,False
0.4100000000000001,0.9660939786042736,2.0,3041.0,3.01938,0.3,68900.0,0.33,276.0,2700.0,34.7430747928143,6.977982527674894,18840.552824722214,23.868960865425144,9.64133076953994,10.874113927389152,2.663348241865047,3346,98,1118,1663,7.64179389540618,4.377804746655574,8.806767290707046e-05,False
0.42,1.069592470671223,2.0,3042.0,3.01938,0.3,68900.0,0.33,276.0,2700.0,41.2828317963698,8.514225132891548,22988.40785880718,27.81717590398257,12.31372738594556,13.465655892387232,3.799502253054012,3860,108,1288,1922,8.115117135778917,4.626997405940606,9.923935603754026e-05,False
0.43,0.8399727768632519,2.0,3043.0,3.01938,0.2,68900.0,0.33,276.0,2700.0,26.68566186022495,5.570898228542387,15041.425217064449,19.42166561351769,6.915599531145603,7.263996246707265,1.344701302603216,7126,122,1784,3998,7.017426456015859,4.044333148241428,7.13249426704914e-05,False
0.44,0.7572590344424581,2.0,3044.0,3.01938,0.2,68900.0,0.33,276.0,2700.0,21.97371410645235,4.655808151017256,12570.68200774659,16.722072891180535,5.421992792701398,5.251641215271814,0.7661846416841422,5703,106,1420,3207,6.378396079175143,3.6733236333718335,6.150174941049238e-05,False
0.45,1.0922031046395666,2.0,3045.0,3.01938,0.2,68900.0,0.33,276.0,2700.0,41.96839373997689,9.252036837789223,24980.499462030904,28.715548283089923,12.952823542745302,13.252845456886966,3.7007867049560783,11214,162,2776,6320,8.040619702418448,4.61287829191307,9.735962816350422e-05,False
0.46,0.8051240482983051,2.0,3046.0,3.01938,0.2,68900.0,0.33,276.0,2700.0,24.09706417162888,5.3384647177881,14413.85473802787,18.26331941958472,6.259051261842867,5.833744752044158,0.9205865440547668,6475,114,1620,3635,6.660287422674931,3.8351412387183017,6.410851676729114e-05,False
0.4700000000000001,0.9039613184031976,2.0,3047.0,3.01938,0.2,68900.0,0.33,276.0,2700.0,29.44792140691252,6.702815147908675,18097.600899353423,21.62807324908137,8.228407253083853,7.819848157831146,1.5255921051751784,8143,130,2024,4581,6.910387688385986,3.974533724398834,7.279454062534155e-05,False
0.4800000000000001,0.8104099890328555,2.0,3048.0,3.01938,0.2,68900.0,0.33,276.0,2700.0,23.960991122238465,5.519014526173363,14901.33922066808,18.43705650423875,6.356048958544943,5.523934617999714,0.8370344323715804,6617,114,1632,3735,6.2793313126533645,3.6140716851101806,6.240163742974057e-05,False
0.49,1.0288078119744877,2.0,3049.0,3.01938,0.3,68900.0,0.33,276.0,2700.0,36.64824905236577,8.73241752842816,23577.52732675603,26.229198859994547,11.211737996960771,10.419050192371223,2.479320468532612,3742,100,1152,1938,7.337981362068536,4.222865102985548,8.236851109822794e-05,False
0.5,1.146508677995391,2.0,3050.0,3.01938,0.3,68900.0,0.33,276.0,2700.0,44.30240000019748,10.813800612250096,29197.26165307526,30.9257228070281,14.571914831639113,13.376677193169378,3.7581142193890154,4454,112,1370,2313,7.641604833087682,4.375552919442231,9.39605952055903e-05,False
0.01,0.697118450536373,2.0,3051.0,6.03876,0.08,68900.0,0.33,276.0,2700.0,29.434747733421357,0.1471716442720058,397.3634395344157,14.867179889367232,4.4725503157436295,14.56756784405412,4.325378671471624,36353,324,12108,18185,419.8207538363675,237.4399071215874,0.0041908116215,True
0.02,0.3789336643588658,2.0,3052.0,6.03876,0.08,68900.0,0.33,276.0,2700.0,12.695696489036028,0.1269402097295406,342.7385662697598,6.566235093830546,1.1301248799223056,6.129461395205482,1.003184670192765,16617,200,5472,8403,117.7395152256252,67.15201163606045,0.0008246362460784,False
0.03,0.3480292115823684,2.0,3053.0,6.03876,0.1,68900.0,0.33,276.0,2700.0,11.163025381953354,0.1673888320615355,451.9498465661458,5.895557305136621,0.9376242615433492,5.267468076816733,0.7702354294818137,9059,146,2972,4595,71.06616753863032,40.61221861734483,0.0005069485431167,False
0.04,0.6911334337976865,2.0,3054.0,6.03876,0.1,68900.0,0.33,276.0,2700.0,28.197767482746656,0.56382130836838,1522.3175325946258,14.68755961209208,4.384107959440419,13.510207870654575,3.820286651072039,22347,254,7340,11331,121.45483698952296,69.21471764210531,0.0010192197450353,False
0.05,0.3735061729485752,2.0,3055.0,6.03876,0.1,68900.0,0.33,276.0,2700.0,11.827159531202804,0.2954171888922706,797.6264100091306,6.446711917493569,1.0948113857134707,5.380447613709236,0.7993941968212002,9954,154,3254,5067,45.477867842243626,26.059919491626196,0.0003442265066937,False
0.06,0.3614405396036446,2.0,3056.0,6.03876,0.08,68900.0,0.33,276.0,2700.0,11.113531563793892,0.3329535575716993,898.9746054435882,6.183657179764676,1.018618363267917,4.929874384029215,0.685664805696218,14599,184,4786,7414,36.72137166736956,21.124720763517796,0.0002793203302579,False
0.0699999999999999,0.4277927853378794,2.0,3057.0,6.03876,0.2,68900.0,0.33,276.0,2700.0,13.780381479820718,0.4815949742736041,1300.306430538731,7.675532291477086,1.4778007134359892,6.104849188343633,0.9962057391623852,3026,86,992,1532,37.713035500129706,21.768750292121737,0.0002989856387981,False
0.08,0.6892906059041874,2.0,3058.0,6.03876,0.1,68900.0,0.33,276.0,2700.0,26.954083259616404,1.0770910000922322,2908.145700249027,14.632434565599675,4.357092120993771,12.321648694016726,3.280001120901539,21666,248,7130,10965,57.28901610166829,32.85120135532289,0.0005029338912879,False
0.09,0.491987190881488,2.0,3059.0,6.03876,0.2,68900.0,0.33,276.0,2700.0,16.306367294391645,0.7322597142179804,1977.101228388547,9.224200927885915,2.019680825837614,7.08216636650573,1.2874211116196337,3657,94,1194,1860,33.15826249260558,19.13739406246409,0.0002829775522237,False
0.0999999999999999,0.621063523043087,2.0,3060.0,6.03876,0.1,68900.0,0.33,276.0,2700.0,22.611350999610487,1.128473154878131,3046.877518170954,12.651613618013307,3.427001777326794,9.95973738159718,2.2985286224486625,18451,224,6084,9319,38.38925181732606,22.032471100171232,0.0003492092213813,False
0.11,0.4508104562773459,2.0,3061.0,6.03876,0.2,68900.0,0.33,276.0,2700.0,13.96127227427885,0.7650823352040522,2065.722305050941,8.21891561845735,1.660701758028565,5.742356655821499,0.8956194228245128,3083,86,1008,1565,25.560677619196834,14.736659818956124,0.0002104647792551,False
0.12,0.7741519478700076,2.0,3062.0,6.03876,0.3,68900.0,0.33,276.0,2700.0,30.85709884128771,1.847806815740324,4989.078402498874,17.259447423733523,5.7090061365762566,13.597651417554186,3.861199320835933,3076,94,1008,1558,39.647420883723,22.762813689050088,0.0004059714667682,False
0.13,0.5487762465070528,2.0,3063.0,6.03876,0.3,68900.0,0.33,276.0,2700.0,18.14686214991393,1.174944653704447,3172.350565002007,10.680555673934368,2.58448341377874,7.4663064759795645,1.4095387600742924,1893,68,620,957,26.71264258119415,15.414907659546843,0.0002328386598611,False
0.14,0.7498816142558509,2.0,3064.0,6.03876,0.3,68900.0,0.33,276.0,2700.0,28.827772518424595,2.0121970561287523,5432.932051547631,16.48964240962533,5.299485244209257,12.338130108799266,3.2872881880805047,2813,88,920,1427,32.643137711647945,18.814578472300337,0.0003316343884161,False
0.15,0.6792008957079061,2.0,3065.0,6.03876,0.3,68900.0,0.33,276.0,2700.0,24.50152283411639,1.8305456290881508,4942.473198538007,14.332131070284133,4.210972235649009,10.16939176383226,2.380426606560858,2520,82,828,1272,28.51191267367826,16.439652954309775,0.0002705020726321,False
0.16,0.7999536213484326,2.0,3066.0,6.03876,0.3,68900.0,0.33,276.0,2700.0,31.28239221630655,2.494012734965124,6733.8343844058345,18.09405840226432,6.165059968277321,13.188333814042233,3.671047233312197,3073,94,1008,1555,30.432211963083795,17.56748039476723,0.0003197507354514,False
0.17,0.6892568094950784,2.0,3067.0,6.03876,0.3,68900.0,0.33,276.0,2700.0,24.54483869225133,2.076021525703301,5605.258119398912,14.631424400788308,4.356597614318998,9.913414291463026,2.2805760886156974,2421,80,794,1224,25.66822493122688,14.819385055137976,0.0002459299691632,False
0.18,0.7572204506361333,2.0,3068.0,6.03876,0.3,68900.0,0.33,276.0,2700.0,28.16132653162382,2.522304875608986,6810.223164144262,16.72085372465545,5.421347614999777,11.440472806968373,2.8990427393907914,2847,88,926,1452,26.13275679778529,15.086033838020803,0.0002652507124045,False
0.19,0.8322741015549959,2.0,3069.0,6.03876,0.3,68900.0,0.33,276.0,2700.0,32.418024280501456,3.0653468506403208,8276.436496728866,19.16314067347151,6.7670745390949385,13.254883607029946,3.7017276884546177,3298,96,1080,1672,26.92294729068719,15.540682722734337,0.0002882610224187,False
0.2,0.5429233275136138,2.0,3070.0,6.03876,0.3,68900.0,0.33,276.0,2700.0,16.313772955064444,1.614622134687299,4359.479763655708,10.526711276424392,2.5224216259416736,5.787061678640052,0.9077994912543744,1667,64,544,845,17.731203721371294,10.227869141384128,0.0001552294916831,False
0.21,0.6867761104285154,2.0,3071.0,6.03876,0.3,68900.0,0.33,276.0,2700.0,23.405231028385696,2.438153064937237,6583.013275330541,14.557355414527828,4.32039335687081,8.84787561385787,1.8822402919335728,2375,78,780,1199,20.665030001351628,11.92136706793146,0.0002011145619819,False
0.22,0.5486208411785316,2.0,3072.0,6.03876,0.3,68900.0,0.33,276.0,2700.0,16.16309417731037,1.7556392404538574,4740.225949225415,10.676459707109602,2.5828239167908382,5.486634470200768,0.8271846763369808,1615,62,532,811,16.296929016529432,9.406487695898758,0.0001444552835674,False
0.23,0.6451867346092847,2.0,3073.0,6.03876,0.3,68900.0,0.33,276.0,2700.0,20.72218913587553,2.357569245414869,6365.436962620147,13.33860747903002,3.740456177287045,7.383581656845516,1.382886931872176,2186,74,718,1103,18.158739542772665,10.479465803562212,0.000171074484912,False
0.24,0.7903736264924651,2.0,3074.0,6.03876,0.3,68900.0,0.33,276.0,2700.0,28.504912346561724,3.391636563691926,9157.4187219682,17.782219872747078,5.99321452904111,10.722692473814648,2.6015779653491835,2762,88,908,1394,20.71446950842829,11.949600411693202,0.0002153113512556,False
0.25,0.8820642809036152,2.0,3075.0,6.03876,0.3,68900.0,0.33,276.0,2700.0,33.82453803012939,4.195342330291281,11327.424291786458,20.86145292504163,7.763231868563586,12.96308510508776,3.567889538272305,3291,98,1080,1665,22.02803270095852,12.6939386353644,0.0002423065728255,False
0.26,0.9540252627772392,2.0,3076.0,6.03876,0.3,68900.0,0.33,276.0,2700.0,38.200331499467886,4.929232006611162,13308.926417850138,23.426095709990545,9.355939152267892,14.77423578947734,4.42670714565673,3461,102,1142,1742,22.746987464680902,13.08609808145076,0.0002612699124557,False
0.27,0.7699916111950966,2.0,3077.0,6.03876,0.3,68900.0,0.33,276.0,2700.0,26.551005880433465,3.543161815058112,9566.536900656902,17.126438752442617,5.637477855712056,9.424567127990848,2.0943160406539447,2713,86,892,1369,18.201236113431584,10.48939099715419,0.0001867065490953,False
0.28,0.9014444888883666,2.0,3078.0,6.03876,0.3,68900.0,0.33,276.0,2700.0,34.2016948291977,4.742261114799939,12804.105009959836,21.539345522506228,8.174084769652426,12.662349306691471,3.4318236548524865,3235,98,1064,1633,20.19803649910117,11.62926976753232,0.0002250545260396,False
0.29,0.7948934670039645,2.0,3079.0,6.03876,0.3,68900.0,0.33,276.0,2700.0,27.47712296506287,3.933102627781848,10619.37709501099,17.929057849818072,6.07391897553774,9.548065115244796,2.140816347755892,2689,86,884,1357,19.281579243987565,11.071125725226665,0.0002719345803028,False
0.3,0.8395165514721872,2.0,3080.0,6.03876,0.3,68900.0,0.33,276.0,2700.0,29.84386417808452,4.420030958947791,11934.083589159036,19.40630384035623,6.906742378570479,10.437560337728286,2.4867114196226874,2895,90,958,1452,17.83728248280735,10.257797813541927,0.0001851225162336,False
0.31,0.9116995068273784,2.0,3081.0,6.03876,0.3,68900.0,0.33,276.0,2700.0,34.01260744201395,5.209560029016765,14065.812078345263,21.901870764646297,8.396827737062498,12.110736677367656,3.187267708045733,3333,98,1100,1677,18.592216558754,10.689381673895422,0.0002082866271587,False
0.32,0.7324715320887996,2.0,3082.0,6.03876,0.3,68900.0,0.33,276.0,2700.0,23.26777086920504,3.654214200357585,9866.37834096548,15.946549353187304,5.017137914834915,7.321221516017735,1.36292371447733,2461,78,810,1240,15.167864218382752,8.738630522839332,0.0001506439676059,False
0.33,0.649832466931331,2.0,3083.0,6.03876,0.3,68900.0,0.33,276.0,2700.0,18.77717332324809,3.022967321541229,8162.011768161318,13.47259068655324,3.802734792241462,5.304582636694844,0.7797674707002327,1908,68,630,957,12.979725334829524,7.481082148608577,0.0001269386228336,False
0.34,0.8634589140006059,2.0,3084.0,6.03876,0.3,68900.0,0.33,276.0,2700.0,30.240824596010388,5.058622076217305,13658.279605786724,20.219544286961558,7.381081844428636,10.021280309048834,2.3224597682113317,2897,90,960,1451,16.485915160001746,9.48371112650393,0.0001773497412694,False
0.3500000000000001,0.7605360584882839,2.0,3085.0,6.03876,0.3,68900.0,0.33,276.0,2700.0,24.1026389918546,4.128164633559445,11146.044510610502,16.825756445102353,5.4769612407064345,7.276882546752244,1.3487966071469897,2357,78,780,1181,14.416405927470446,8.294330747194406,0.0001462183781685,False
0.36,0.9732234271432696,2.0,3086.0,6.03876,0.3,68900.0,0.33,276.0,2700.0,36.56378631412467,6.483765438645188,17506.166684342006,24.1322981112178,9.81244126340726,12.431488202906872,3.3286758247620725,3539,102,1176,1769,17.25023343258013,9.882295565244052,0.0001998840348629,False
0.37,0.8351820559592356,2.0,3087.0,6.03876,0.3,68900.0,0.33,276.0,2700.0,27.825557669581244,5.041640773751008,13612.430089127722,19.260616010783284,6.822941753831963,8.56494165879796,1.781300980080955,2731,86,908,1363,14.7715221873975,8.483041902406274,0.0001583745223843,False
0.38,0.754367502998231,2.0,3088.0,6.03876,0.3,68900.0,0.33,276.0,2700.0,23.096440828936743,4.273400109439465,11538.180295486556,16.630810289239584,5.373772388099503,6.4656305396971625,1.1003722786600385,2180,74,722,1091,13.183970071765373,7.56515136963223,0.000134809448834,False
0.39,1.0107371973290256,2.0,3089.0,6.03876,0.3,68900.0,0.33,276.0,2700.0,38.181393374833874,7.321134285013744,19767.06256953711,25.538972775983492,10.744009015524664,12.64242059885038,3.4228747305109186,3659,104,1218,1826,16.51712803355592,9.446263045203253,0.0001959090157928,False
0.4,1.0292584685301474,2.0,3090.0,6.03876,0.3,68900.0,0.33,276.0,2700.0,39.12987044983328,7.691932803413497,20768.21856921644,26.246517048046776,11.223562259462549,12.883353401786508,3.5316294560490515,3746,106,1242,1877,16.393630675631055,9.373561717989192,0.0001965645872448,False
0.4100000000000001,0.9615611995790062,2.0,3091.0,6.03876,0.3,68900.0,0.33,276.0,2700.0,34.45626058867273,6.91918561582587,18681.801162729847,23.702199925085115,9.533516184673347,10.754060663587612,2.6143305688474774,3354,98,1120,1668,15.334442307943691,8.771703637673713,0.0001750009169574,False
0.42,0.8237475993819965,2.0,3092.0,6.03876,0.3,68900.0,0.33,276.0,2700.0,26.000668154725805,5.304970768146311,14323.42107399504,18.87855542133144,6.60489453517535,7.122112733394367,1.2999237670290391,2798,84,894,1425,12.72860317057554,7.306625342801535,0.0001401810849347,False
0.43,1.0661671670026436,2.0,3093.0,6.03876,0.2,68900.0,0.33,276.0,2700.0,40.762232870127946,8.597360995671535,23212.874688313143,27.68220140954282,12.218676359757325,13.080031460585126,3.62131536408579,10571,156,2604,5971,16.456859064504048,9.43470896904032,0.0001959727312472,False
0.44,1.1191282592734677,2.0,3094.0,6.03876,0.2,68900.0,0.33,276.0,2700.0,44.13208542027812,9.53064984005761,25732.754568155546,29.80210697708187,13.740581118989454,14.329978443196246,4.209931278931844,11670,166,2888,6576,16.655170237603777,9.54167617329426,0.0002054591451105,False
0.45,0.8707257621030796,2.0,3095.0,6.03876,0.3,68900.0,0.33,276.0,2700.0,27.980595520777783,6.104782238469423,16482.912043867444,20.469224307441777,7.528920591149397,7.511371213336009,1.4241383526799742,2822,86,894,1443,12.775523549512156,7.33000592341866,0.0001416997731085,False
0.46,0.9555091194599856,2.0,3096.0,6.03876,0.3,68900.0,0.33,276.0,2700.0,32.792512165361266,7.338417756346547,19813.72794213568,23.480348904429764,9.390740366077576,9.312163260931502,2.052322609731028,3109,94,1030,1554,13.6773207904301,7.818271581785781,0.0001573534137894,False
0.4700000000000001,0.9161180304537196,2.0,3097.0,6.03876,0.3,68900.0,0.33,276.0,2700.0,30.1659446711585,6.871550615006482,18553.186660517506,22.05888478327145,8.49394837490093,8.10705988788705,1.6223977598944472,3073,90,970,1576,13.576529039534323,7.82950940659985,0.0001467076946889,False
0.4800000000000001,0.8978954575343747,2.0,3098.0,6.03876,0.3,68900.0,0.33,276.0,2700.0,28.860476923188124,6.694891118401271,18076.20601968343,21.414499318582816,8.097862592218872,7.445977604605307,1.4029714738176011,2927,86,896,1521,14.159145905213313,8.151079001571253,0.0001401621308058,False
0.49,0.8997172602664316,2.0,3099.0,6.03876,0.3,68900.0,0.33,276.0,2700.0,28.736699695139773,6.794087935907787,18344.037426951025,21.478546320749544,8.136933913421094,7.258153374390229,1.3428459775133073,3083,86,900,1637,13.59463376499312,7.805149826418755,0.000139150751948,False
0.5,0.8278689573153866,2.0,3100.0,6.03876,0.2,68900.0,0.33,276.0,2700.0,24.48686720541508,5.85991741355462,15821.777016597474,19.015883998376555,6.682982662826834,5.470983207038522,0.8230652492722141,6600,114,1620,3730,13.10025982859776,7.537246765779415,0.0001241818350614,False
0.01,0.3466100114919368,2.0,3101.0,9.05814,0.05,68900.0,0.33,276.0,2700.0,11.519149893542895,0.0575936550726121,155.5028686960527,5.865334779943077,0.9292787379747264,5.65381511359982,0.8716850829021143,36920,298,12220,18584,307.48557792270634,175.07800242140866,0.0021595655515594,True
0.02,0.332696689200845,2.0,3102.0,9.05814,0.08,68900.0,0.33,276.0,2700.0,10.72991725241043,0.1072824173632865,289.66252688087354,5.5717248561993005,0.8497206305203894,5.15819239621113,0.7424382131571029,13997,182,4616,7067,147.8195637742471,84.19188573303497,0.0010536615136561,False
0.03,0.6206822811297283,2.0,3103.0,9.05814,0.1,68900.0,0.33,276.0,2700.0,24.44808280299716,0.3666646933771961,989.9946721184294,12.640873801290768,3.4221804992941807,11.807209001706388,3.0555158059169845,19685,234,6470,9974,197.98800195853764,112.6408146214024,0.0017021527885474,False
0.04,0.6219519980108199,2.0,3104.0,9.05814,0.1,68900.0,0.33,276.0,2700.0,24.24551037319716,0.4847761661773923,1308.895648678959,12.67665667484808,3.438253542923478,11.568853698349075,2.953477376746086,19756,234,6488,10018,155.99856310611707,88.90108059653811,0.0012766395358761,False
0.05,0.6294320142640091,2.0,3105.0,9.05814,0.1,68900.0,0.33,276.0,2700.0,24.388688287763845,0.6094554078062889,1645.52960107698,12.888279244362153,3.5338657344882964,11.500409043401692,2.924410326682008,19593,234,6434,9936,126.90138483286508,72.42728711807818,0.0010403380797687,False
0.06,0.4073695798029144,2.0,3106.0,9.05814,0.1,68900.0,0.33,276.0,2700.0,13.086049844217673,0.3921291059844134,1058.7485861579162,7.204546000442917,1.325869106227688,5.881503843774755,0.9337400002432744,10676,162,3514,5399,61.65131040755501,35.369387754555355,0.0004859657573336,False
0.0699999999999999,0.6118715527769074,2.0,3107.0,9.05814,0.2,68900.0,0.33,276.0,2700.0,22.89284450698364,0.8005311802243085,2161.434186605633,12.393687946029676,3.3118955702984776,10.49915656095396,2.511364390074169,5108,116,1674,2591,79.97621376591624,45.74597517652064,0.0007155266651266,False
0.08,0.7238186646612601,2.0,3108.0,9.05814,0.1,68900.0,0.33,276.0,2700.0,28.978719941728013,1.1580764673763535,3126.806461916155,15.679464297290004,4.88031142001717,13.29925564443801,3.722234952640816,23531,260,7744,11909,89.65107595660277,51.3969226962495,0.0008205066034073,False
0.09,0.6296111343822313,2.0,3109.0,9.05814,0.2,68900.0,0.33,276.0,2700.0,23.333395615362143,1.04847598866165,2830.885169386456,12.89336410152076,3.5361747399782986,10.440031513841388,2.4876987513166484,4689,114,1530,2388,62.40820184916837,35.991730462005506,0.000589690115031,False
0.0999999999999999,0.5673135691034783,2.0,3110.0,9.05814,0.2,68900.0,0.33,276.0,2700.0,19.79019646100217,0.9874154279477152,2666.0216554588305,11.17349216453817,2.7870278398427986,8.616704296464006,1.7996124118950836,4239,104,1388,2151,51.13657222671537,29.45914768319124,0.0004641491358635,False
0.11,0.7453637558726651,2.0,3111.0,9.05814,0.3,68900.0,0.33,276.0,2700.0,29.405077808226928,1.6144916395711943,4359.127426842225,16.347979637555078,5.225307574317374,13.05709817067185,3.61081593474618,2912,90,950,1481,61.05940279942613,35.22988980725915,0.0006244898297733,False
0.12,0.5579183494875131,2.0,3112.0,9.05814,0.2,68900.0,0.33,276.0,2700.0,18.83550752956906,1.1265113370372082,3041.580610000462,10.922579183488091,2.6832308552788544,7.912928346080969,1.5567195182416462,4123,102,1344,2101,42.158900343768295,24.288174875118624,0.0003830547900334,False
0.13,0.580039401475491,2.0,3113.0,9.05814,0.3,68900.0,0.33,276.0,2700.0,19.717389138077056,1.2770289079349797,3447.9780514244444,11.516891538963948,2.931400533221663,8.200497599113108,1.6543716252866834,2179,74,712,1105,43.43725272089717,25.07662014028152,0.0003745207335047,False
0.14,0.7457451881594249,2.0,3114.0,9.05814,0.3,68900.0,0.33,276.0,2700.0,28.582882199854332,1.9950547338288365,5386.647781337859,16.359920069471677,5.231545498691324,12.222962130382658,3.236490764862488,2824,88,918,1441,48.36481562330243,27.923439280939046,0.0004930288781189,False
0.15,0.6781388053067068,2.0,3115.0,9.05814,0.3,68900.0,0.33,276.0,2700.0,24.44260177861941,1.8261265499258803,4930.541684799878,14.300668549294532,4.1957669273405465,10.14193322932488,2.369640377414666,2505,82,822,1266,42.72561834003776,24.636036227860732,0.0004049800020073,False
0.16,0.857578965480243,2.0,3116.0,9.05814,0.3,68900.0,0.33,276.0,2700.0,34.89952585979794,2.783383426444433,7515.135251399968,20.018487852992457,7.262783491430862,14.881038006805484,4.479400064986429,3314,98,1086,1679,49.05242152208332,28.315828306467683,0.0005402883314055,False
0.17,0.7102012753581071,2.0,3117.0,9.05814,0.3,68900.0,0.33,276.0,2700.0,25.71840723732118,2.175774852034245,5874.592100492463,15.26295197978352,4.669639244397768,10.45545525753766,2.4938643923635224,2496,82,818,1263,38.61229668471031,22.29276392818172,0.0003839482199528,False
0.18,0.6173070427312704,2.0,3118.0,9.05814,0.3,68900.0,0.33,276.0,2700.0,20.444473649193043,1.8277881161902167,4935.027913713585,12.545950610662963,3.379674811381604,7.898523038530078,1.5518866951913874,2151,74,704,1089,33.38263163791108,19.266877925977443,0.0003014087170375,False
0.19,0.6430687932209012,2.0,3119.0,9.05814,0.3,68900.0,0.33,276.0,2700.0,21.550651928630543,2.0329464772121604,5488.955488472833,13.27770593245685,3.712270301294804,8.272945996173693,1.6793238240826436,2262,76,734,1155,32.44063859678207,18.705336904170068,0.0003028153480016,False
0.2,0.8276999767591284,2.0,3120.0,9.05814,0.3,68900.0,0.33,276.0,2700.0,31.849396778148744,3.168184516995729,8554.098195888468,19.01024497131344,6.679769824624118,12.839151806835304,3.5115853076283887,3258,96,1064,1656,38.39099355472886,22.16182758060883,0.0004090254575852,False
0.21,0.6335155216173495,2.0,3121.0,9.05814,0.3,68900.0,0.33,276.0,2700.0,20.58042715607009,2.1415486583440995,5782.181377529068,13.004402095760604,3.5867320692004987,7.576025060309488,1.4451834108563992,2165,74,710,1094,28.99799525507648,16.717034563878162,0.0002711074255796,False
0.22,0.7142557172109327,2.0,3122.0,9.05814,0.3,68900.0,0.33,276.0,2700.0,24.667300177446048,2.6911019004687806,7265.975131265708,15.38647713973249,4.731772268902248,9.280823037713558,2.040670368433468,2381,80,782,1202,30.954268260597523,17.86847814286886,0.0003050444200198,False
0.23,0.5471698614886371,2.0,3123.0,9.05814,0.2,68900.0,0.33,276.0,2700.0,15.88805571191679,1.8016439016596144,4864.438534480959,10.63824600560887,2.567360320646199,5.24980970630792,0.7657164189865844,3487,92,1154,1750,23.43628523313644,13.50994275162696,0.0002091756927281,False
0.24,0.6841167967403223,2.0,3124.0,9.05814,0.2,68900.0,0.33,276.0,2700.0,22.537648901978702,2.6755649503419585,7224.025365923288,14.478125101742211,4.2817861708690295,8.05952380023649,1.606221220527071,4635,112,1532,2331,27.39941001143777,15.803575101416047,0.0002663390644971,False
0.25,0.7635125823829298,2.0,3125.0,9.05814,0.3,68900.0,0.33,276.0,2700.0,26.686846908201865,3.303130940050338,8918.453538135913,16.920166218934686,5.527183958053138,9.76668068926718,2.2240530180028,2508,82,824,1266,29.30403881009604,16.910692962760063,0.0002967954132654,False
0.26,0.9071327891020272,2.0,3126.0,9.05814,0.3,68900.0,0.33,276.0,2700.0,35.13477203638829,4.530709276410813,12232.915046309196,21.74010624561178,8.29717764153847,13.39466579077651,3.7664683651276567,3271,98,1078,1648,50.71106566670138,28.322112164590607,0.0004068625494205,False
0.27,0.6759404289204958,2.0,3127.0,9.05814,0.3,68900.0,0.33,276.0,2700.0,21.407616000198512,2.8488041812263964,7691.77128931127,14.235635668766196,4.164400180920968,7.171980331432316,1.3155959996945712,2265,76,746,1140,24.437592809448983,14.10432322169265,0.0002362095406837,False
0.28,0.6760556558603197,2.0,3128.0,9.05814,0.3,68900.0,0.33,276.0,2700.0,21.187185409715013,2.920229796072367,7884.620449395391,14.239041322477751,4.166040705863851,6.94814408723726,1.2458109097914836,2262,76,744,1140,23.640391909610088,13.62587514491806,0.0002290738062691,False
0.29,0.6162577730566371,2.0,3129.0,9.05814,0.3,68900.0,0.33,276.0,2700.0,17.953992451505982,2.552248703316098,6891.0714989534645,12.516499915861976,3.366526179146333,5.437492535644006,0.8142774758302354,1812,66,600,906,21.074081228305467,12.15119117623642,0.0001981227947694,False
0.3,0.6312393629830916,2.0,3130.0,9.05814,0.3,68900.0,0.33,276.0,2700.0,18.480875885655344,2.715582715083681,7332.073330725939,12.939623191820637,3.5572057353158857,5.541252693834709,0.8416230202322046,1906,68,628,958,20.45038267890929,11.751622446403063,0.0001988728354564,False
0.31,0.6323994775501416,2.0,3131.0,9.05814,0.3,68900.0,0.33,276.0,2700.0,18.330181257246384,2.778783970377763,7502.716720019959,12.972623491307758,3.5722363194668363,5.357557765938626,0.7934523490890735,1921,68,634,964,20.51392025080087,11.7872051061606,0.0001939636498901,False
0.32,0.9084248178899657,2.0,3132.0,9.05814,0.3,68900.0,0.33,276.0,2700.0,33.53121178657337,5.296364747136522,14300.18481726861,21.785819955932816,8.325296011858244,11.745391830640555,3.028931264721722,3362,98,1112,1688,27.08602308648323,15.581505423749215,0.0003022189395029,False
0.33,0.9384242197311834,2.0,3133.0,9.05814,0.3,68900.0,0.33,276.0,2700.0,35.15653906119291,5.725562668302066,15459.01920441558,22.85903535976276,8.994898943952746,12.297503701430148,3.26933627565068,3266,98,1082,1637,27.16951038583036,15.602601553051564,0.0003075619021905,False
0.34,0.7184488532649134,2.0,3134.0,9.05814,0.3,68900.0,0.33,276.0,2700.0,22.07019099382857,3.669614363846396,9907.95878238527,15.514662429425387,4.796558455710493,6.555528564403183,1.1269440918640972,2228,74,738,1115,20.661014665562732,11.906307374267731,0.0002099092739225,False
0.3500000000000001,0.7441380301878391,2.0,3135.0,9.05814,0.2,68900.0,0.33,276.0,2700.0,23.21463875767145,3.972764592577183,10726.464399958391,16.309634032671863,5.205292940234486,6.905004724999593,1.2325283476573032,5513,114,1598,2932,23.18179997352893,13.370704444757504,0.0002166720928448,False
0.36,0.8912691630344065,2.0,3136.0,9.05814,0.2,68900.0,0.33,276.0,2700.0,31.40519448639616,5.55521890965405,14999.091056065934,21.182249841114675,7.956733899237759,10.222944645281489,2.401514989583709,6947,134,1996,3719,25.37868315578357,14.621981600193571,0.0002674257521796,False
0.37,1.067274580863948,2.0,3137.0,9.05814,0.3,68900.0,0.33,276.0,2700.0,42.5976845952933,7.7744842550077395,20991.1074885209,27.725806927006065,12.249356155142523,14.871877668287237,4.474871900134786,3989,110,1324,1997,26.96095121468684,15.440914389853551,0.0003325458907365,False
0.38,0.8151816901640989,2.0,3138.0,9.05814,0.2,68900.0,0.33,276.0,2700.0,26.443007435164382,4.909247764622714,13254.968964481328,18.594494765877577,6.444400478537825,7.848512669286809,1.535152713915111,6957,122,1786,3874,22.62849806672006,13.036362313735692,0.0002280248603573,False
0.39,0.83396337766796,2.0,3139.0,9.05814,0.3,68900.0,0.33,276.0,2700.0,27.275623479496502,5.194509155422985,14025.174719642058,19.219739748531868,6.799494170520515,8.055883730964634,1.6049850150975304,2735,86,906,1370,21.138826136609623,12.141766416535429,0.0002264692113942,False
0.4,0.7434799270305278,2.0,3140.0,9.05814,0.3,68900.0,0.33,276.0,2700.0,22.087918629286712,4.2835424393041786,11565.564586121282,16.289061511327386,5.194566288599999,5.798857117959326,0.9110238492958204,2165,74,716,1085,18.333898359297255,10.468148518049494,0.0001901617317607,False
0.4100000000000001,0.91282401808784,2.0,3141.0,9.05814,0.3,68900.0,0.33,276.0,2700.0,31.43763767230557,6.300367917970603,17010.993378520627,21.94178417792145,8.421479075925676,9.495853494384118,2.121111157955073,3038,92,1008,1520,21.99037528504856,12.605390379482245,0.0002433498375549,False
0.42,1.060249556472208,2.0,3142.0,9.05814,0.2,68900.0,0.33,276.0,2700.0,40.6465255388163,8.380600818805313,22627.622210774345,27.44971203577977,12.05555219798179,13.19681350303653,3.674951379176477,11102,160,2748,6260,24.95401232956097,14.327333082844383,0.0002975285179908,False
0.43,0.9083543029180324,2.0,3143.0,9.05814,0.2,68900.0,0.33,276.0,2700.0,30.669974016160506,6.42752534206853,17354.31842358503,21.783323959304795,8.323759873378815,8.886650056855707,1.8962345313102853,8437,134,2120,4727,22.114941895846663,12.713634752641749,0.0002367537348959,False
0.44,0.9596601056144246,2.0,3144.0,9.05814,0.3,68900.0,0.33,276.0,2700.0,33.556159840566245,7.203946212522312,19450.65477381024,23.63241238239718,9.488522426176846,9.923747458169064,2.2845762136545344,3238,96,1078,1611,21.18580261006427,12.130012265877657,0.0002449297409581,False
0.45,1.0305478117875355,2.0,3145.0,9.05814,0.3,68900.0,0.33,276.0,2700.0,37.82678840189579,8.320175636720974,22464.47421914663,26.29609314690741,11.257434985063613,11.530695254988384,2.937259348342637,3798,104,1218,1933,22.086016807657348,12.628041764575093,0.0002653350784001,False
0.46,0.890872842997501,2.0,3146.0,9.05814,0.2,68900.0,0.33,276.0,2700.0,28.915866142964653,6.446789171195326,17406.330762227382,21.168393926857966,7.94834169501759,7.7474722161066865,1.501552523822264,7535,126,1864,4245,20.75641098981975,11.954568528623996,0.0002180558604306,False
0.4700000000000001,0.9199039555649322,2.0,3147.0,9.05814,0.2,68900.0,0.33,276.0,2700.0,30.391073262869963,6.924455834058674,18696.03075195842,22.193809488018065,8.577716954489803,8.197263774851898,1.6532611204311296,8329,132,2074,4682,20.91380658553684,12.041927607550948,0.0002234842097621,False
0.4800000000000001,0.8452323371321928,2.0,3148.0,9.05814,0.3,68900.0,0.33,276.0,2700.0,25.86507208760634,5.975993957861652,16135.18368622646,19.599140442224368,7.018215367017836,6.265931645381972,1.042221409156184,2603,80,826,1328,19.641679012069705,11.279811759025767,0.0001930464794919,False
0.49,1.0079564272405268,2.0,3149.0,9.05814,0.3,68900.0,0.33,276.0,2700.0,35.31361099596805,8.405431204610718,22694.66425244894,25.43348697988481,10.673137714846886,9.880124016083236,2.2677065102361684,3533,98,1118,1804,21.677229642737444,12.341599077647764,0.0002404218004778,False
0.5,1.1759512681594184,2.0,3150.0,9.05814,0.3,68900.0,0.33,276.0,2700.0,46.39094415307416,11.335936650469392,30607.02895626736,32.15498813339043,15.50049113658276,14.235956019683726,4.164554486113369,5026,116,1488,2652,23.72367845625922,13.574327200057247,0.0002927180585528,False
0.01,0.4406783589620774,2.0,3151.0,12.07752,0.05,68900.0,0.33,276.0,2700.0,15.721006945258228,0.0786029403311892,212.2279388942109,7.978084282974643,1.578649146915731,7.742922662283585,1.500046206584542,50582,358,16758,25439,555.6133278123153,316.02165089932816,0.0039165090522557,True
0.02,0.6525168149344438,2.0,3152.0,12.07752,0.1,68900.0,0.33,276.0,2700.0,26.526217832858315,0.2652454231677623,716.1626425529581,13.550254711021225,3.839004112270969,12.97596312183709,3.5737586891032067,20712,244,6878,10389,376.9200298947049,214.7219442110696,0.0037195768243331,True
0.03,0.6753747418032283,2.0,3153.0,12.07752,0.1,68900.0,0.33,276.0,2700.0,27.562940116329035,0.4133875530771759,1116.1463933083749,14.218921029875744,4.15635199322416,13.344019086453292,3.742964440146984,22217,252,7302,11258,305.8918766007541,174.36700950650982,0.0026189242541165,True
0.04,0.5440809271243282,2.0,3154.0,12.07752,0.1,68900.0,0.33,276.0,2700.0,20.08462268968681,0.4015584125071827,1084.2077137693934,10.55707056361704,2.5346249115180037,9.527552126069772,2.133066499010821,16090,208,5282,8161,183.2199730334144,104.56893358819782,0.0013663630564808,False
0.05,0.661710785868418,2.0,3155.0,12.07752,0.1,68900.0,0.33,276.0,2700.0,26.20682438012686,0.6549088101153733,1768.253787311508,13.817628640891533,3.964812246625788,12.389195739235328,3.3099034365104143,21206,244,6968,10748,187.1634656191888,106.81044179824436,0.0015099247122489,False
0.06,0.7213904372569183,2.0,3156.0,12.07752,0.1,68900.0,0.33,276.0,2700.0,29.413127892898643,0.8819414474448417,2381.241908101073,15.604851173307754,4.842328733927656,13.80827671959089,3.9603872864828142,23612,262,7776,11942,164.30278231003422,93.77742554578454,0.0014570613273493,False
0.0699999999999999,0.6515658458322275,2.0,3157.0,12.07752,0.1,68900.0,0.33,276.0,2700.0,25.08107555296801,0.8771192668337594,2368.2220204511505,13.522720392868427,3.826131332657718,11.558355160099577,2.9490120658239585,20065,238,6596,10165,125.21997335898764,71.73442737796853,0.0010462215051144,False
0.08,0.6785816527922681,2.0,3158.0,12.07752,0.1,68900.0,0.33,276.0,2700.0,26.338313085760237,1.0524601931379818,2841.642521472551,14.313783664775896,4.202102846265508,12.024529420984338,3.1496426531275263,20911,244,6874,10594,110.51251041150392,63.252282066806906,0.0009788053817385,False
0.09,0.4193602390208823,2.0,3159.0,12.07752,0.2,68900.0,0.33,276.0,2700.0,12.981835626240322,0.58265578915117,1573.170630708159,7.479795946379808,1.4139029656199469,5.5020396798605145,0.8312471764687767,2912,84,952,1478,58.58704324838629,33.82479701178744,0.0004619590957772,False
0.0999999999999999,0.5122036194958426,2.0,3160.0,12.07752,0.2,68900.0,0.33,276.0,2700.0,17.04843826256108,0.8503275180256611,2295.884298669285,9.733359860186802,2.2112906080120487,7.315078402374279,1.3609630899863876,3733,98,1228,1885,62.08653659383904,35.833084869258364,0.0005410431218268,False
0.11,0.6397693807624926,2.0,3161.0,12.07752,0.3,68900.0,0.33,276.0,2700.0,23.36715634155348,1.282405958904158,3462.4960890412267,13.183055718451484,3.668617893195537,10.184100623101994,2.386211934291379,2453,80,804,1241,70.95630468497211,40.861783840730695,0.0006664880197134,False
0.12,0.6481697357637849,2.0,3162.0,12.07752,0.3,68900.0,0.33,276.0,2700.0,23.567307571233844,1.410419339537066,3808.132216750078,13.42457508852933,3.780373423942776,10.142732482704512,2.36995408440571,2377,80,780,1201,66.47044920952418,38.34432107066191,0.0006252565693652,False
0.13,0.709709413903814,2.0,3163.0,12.07752,0.3,68900.0,0.33,276.0,2700.0,26.755930330491264,1.7345340854419764,4683.242030693336,15.247994721557587,4.662135665338801,11.507935608933677,2.927601579896825,2714,86,888,1376,66.54724524807347,38.42048151762045,0.0006581639770887,False
0.14,0.5088076180624509,2.0,3164.0,12.07752,0.2,68900.0,0.33,276.0,2700.0,15.990951493469334,1.1136195843818877,3006.7728778310966,9.64711237171658,2.17838263430039,6.343839121752753,1.0647630499185023,3361,90,1102,1702,45.31143032675056,26.113748908667095,0.0003934972699946,False
0.15,0.5656925153037021,2.0,3165.0,12.07752,0.3,68900.0,0.33,276.0,2700.0,18.52525961328589,1.3823258875258655,3732.2798963198375,11.13004120346965,2.768950235007244,7.395218409816239,1.386624347481378,1899,68,620,963,48.133305087206416,27.65141366329149,0.0004245886810088,False
0.16,0.5928675700171286,2.0,3166.0,12.07752,0.3,68900.0,0.33,276.0,2700.0,19.661361417865752,1.564330271089859,4223.691731942619,11.867171791828978,3.081383464692356,7.794189626036774,1.517053193602497,2164,74,706,1099,47.46112657145953,27.40112324128441,0.0004245592331115,False
0.17,0.6873780134826175,2.0,3167.0,12.07752,0.3,68900.0,0.33,276.0,2700.0,24.44064295378841,2.067164887933958,5581.345197421686,14.575312891566618,4.329160877427895,9.865330062221794,2.2619959894939368,2458,80,808,1240,51.06212740820639,29.417114862830346,0.0004901648316518,False
0.18,0.5191406037188695,2.0,3168.0,12.07752,0.3,68900.0,0.33,276.0,2700.0,15.617542236693716,1.3933642890652778,3762.08358047625,9.910437650599391,2.2794242655677803,5.707104586094324,0.8860599765025026,1599,62,522,810,37.73419064438836,21.785844161768885,0.0003224722153639,False
0.19,0.6242793429303455,2.0,3169.0,12.07752,0.3,68900.0,0.33,276.0,2700.0,20.569665004009632,1.9397527193735864,5237.332342308683,12.742350582908497,3.4678329152216008,7.827314421101137,1.5280801958480144,2229,76,726,1134,41.95906992676643,24.225080061815884,0.0003879093870033,False
0.2,0.5506669805466734,2.0,3170.0,12.07752,0.2,68900.0,0.33,276.0,2700.0,16.68230203867366,1.6514750430482197,4458.982616230192,10.730437741013484,2.6047246466583007,5.951864297660176,0.9532496036100812,3750,96,1244,1878,35.2323925909745,20.337944446478296,0.0003169206716515,False
0.21,0.8109642211109398,2.0,3171.0,12.07752,0.3,68900.0,0.33,276.0,2700.0,30.545697896369177,3.1879020860754976,8607.335632403843,18.45531355171337,6.366272425649164,12.090384344655806,3.1783703395736667,2948,92,968,1490,48.08362332272024,27.734862734964366,0.0005053760207313,False
0.22,0.7642263789302441,2.0,3172.0,12.07752,0.3,68900.0,0.33,276.0,2700.0,27.503727187075302,3.0031088715274725,8108.393953124176,16.94283961264875,5.539269605613809,10.560887574426555,2.5361607340863364,2568,84,844,1296,43.66329963422491,25.204824556553007,0.0004460453215477,False
0.23,0.8611065686339644,2.0,3173.0,12.07752,0.2,68900.0,0.33,276.0,2700.0,33.07485284030058,3.778125571423749,10200.939042844122,20.1390049224319,7.33361324857235,12.935847917868678,3.555487677148601,6452,140,2140,3236,46.09913228647077,26.581578003439887,0.0005058718274197,False
0.24,0.7058896240953535,2.0,3174.0,12.07752,0.3,68900.0,0.33,276.0,2700.0,23.7141557123524,2.8167457675868044,7605.213572484372,15.132043807216853,4.604113101290904,8.582111905135548,1.7873673337040992,2299,78,758,1156,38.21827410193732,22.057944993883677,0.0003694307390429,False
0.25,0.557163776181034,2.0,3175.0,12.07752,0.2,68900.0,0.33,276.0,2700.0,15.94808915881918,1.9607862213775027,5294.1227977192575,10.902523450602445,2.674996536249264,5.045565708216735,0.7142103148717611,3405,92,1130,1704,28.89809114132693,16.676555151160898,0.0002657504862382,False
0.26,0.5743242301040712,2.0,3176.0,12.07752,0.2,68900.0,0.33,276.0,2700.0,16.553636067246774,2.115161600422435,5710.936321140574,11.362167380081289,2.866022052924102,5.191468687165488,0.7508604525016671,3529,94,1174,1762,28.810895717844726,16.622288067635015,0.0002660064998119,False
0.27,0.6141584009805335,2.0,3177.0,12.07752,0.3,68900.0,0.33,276.0,2700.0,18.27090406588305,2.42534807009376,6548.439789253152,12.457658219300365,3.340311173418646,5.813245846582692,0.9149631033248862,1870,68,616,940,30.148990587454332,17.33638983134703,0.0002792438842994,False
0.28,0.6758058038538126,2.0,3178.0,12.07752,0.3,68900.0,0.33,276.0,2700.0,21.174175226484564,2.918408370420104,7879.70260013428,14.231657105647027,4.162483975332054,6.942518120837537,1.2440756049119504,2262,76,744,1140,31.50654201908588,18.159790707294047,0.000305289750879,False
0.29,0.8371236458423325,2.0,3179.0,12.07752,0.3,68900.0,0.33,276.0,2700.0,29.962846615151705,4.293532557044731,11592.537904020774,19.32581689759664,6.860401252382206,10.637029717555066,2.566868695337475,2894,90,958,1451,36.66117965723396,21.124081730874813,0.0003932133888977,False
0.3,0.6864427970407692,2.0,3180.0,12.07752,0.2,68900.0,0.33,276.0,2700.0,21.280235601574866,3.1354866724716124,8465.814015673353,14.547415093246634,4.315542852119608,6.732820508328228,1.1800561796479951,4608,110,1494,2335,29.897399807987224,17.171145896431234,0.0002941581661766,False
0.31,0.949396928016358,2.0,3181.0,12.07752,0.3,68900.0,0.33,276.0,2700.0,36.42961705364707,5.5841965188199,15077.330600813732,23.257228697881413,9.247906333363131,13.172388355765658,3.663709814543231,3426,100,1128,1728,38.92857681554028,22.376849848592336,0.0004419643773052,False
0.32,0.7417188045582818,2.0,3182.0,12.07752,0.3,68900.0,0.33,276.0,2700.0,23.76842475043823,3.734318821354896,10082.66081765822,16.23406178277141,5.165927698389599,7.534362967666819,1.4316088770347033,2340,78,772,1176,31.22969498211361,18.00693062617345,0.0003053054929931,False
0.33,0.7341040858346759,2.0,3183.0,12.07752,0.3,68900.0,0.33,276.0,2700.0,23.127363271829378,3.740748663057135,10100.021390254264,15.997151831329663,5.04321281023489,7.130211440499712,1.3024641471777554,2390,78,788,1202,29.132580255111534,16.78630070226708,0.0002939678936467,False
0.34,0.9572714723015804,2.0,3184.0,12.07752,0.3,68900.0,0.33,276.0,2700.0,36.089808220970106,6.052949292460459,16342.96308964324,23.544856447244427,9.4321778567526,12.544951773725678,3.37922856429214,3571,102,1184,1789,35.85688724043,20.572683764592743,0.0004109997838551,False
0.3500000000000001,0.6642673415467992,2.0,3185.0,12.07752,0.2,68900.0,0.33,276.0,2700.0,19.082658905860548,3.2496681185104905,8774.103919978324,13.892354470625891,4.000233268965104,5.190304435234655,0.7505651504546136,4307,100,1276,2273,27.723357732961816,16.002600002116523,0.000251373589182,False
0.36,0.9563923876681724,2.0,3186.0,12.07752,0.2,68900.0,0.33,276.0,2700.0,35.47681271783608,6.28811019131324,16977.89751654575,23.512669484320664,9.411494084209096,11.96414323351542,3.1233838928958555,8166,146,2332,4380,35.58714959409795,20.461921282425497,0.0003922428081976,False
0.37,0.9429776787101336,2.0,3187.0,12.07752,0.3,68900.0,0.33,276.0,2700.0,34.349742799852365,6.248615022851171,16871.26056169816,23.023910481973417,9.099361802079365,11.325832317878948,2.850746779228194,3035,94,1010,1514,32.95635629939674,18.918933838040616,0.0003730791652585,False
0.38,0.8507530863594823,2.0,3188.0,12.07752,0.3,68900.0,0.33,276.0,2700.0,28.486648431362035,5.29753955390027,14303.35679553073,19.786176536163737,7.126933243741717,8.700471895198298,1.829393689841447,2717,86,902,1358,29.15235055326249,16.660681637786567,0.0003170717370179,False
0.39,0.9907414341301322,2.0,3189.0,12.07752,0.3,68900.0,0.33,276.0,2700.0,36.868999118037806,7.065217404938509,19076.08699333397,24.7847787208665,10.24089485093401,12.084220397171308,3.1756774459955013,3566,102,1182,1787,32.91499871584439,18.82006525696533,0.0003812823633501,False
0.4,1.0062823428498815,2.0,3190.0,12.07752,0.3,68900.0,0.33,276.0,2700.0,37.60796944590975,7.387552602628782,19946.39202709771,25.37007594185288,10.630612998834982,12.237893504056874,3.2430603962062,3644,104,1216,1814,32.22449936367452,18.45869212353149,0.0003809349061344,False
0.4100000000000001,0.9274303651985883,2.0,3191.0,12.07752,0.3,68900.0,0.33,276.0,2700.0,32.329778083406815,6.483256702246357,17504.793096065165,22.46310937962948,8.74576919373746,9.866668703777336,2.262512491491104,2990,92,996,1490,29.908044623039377,17.125512874037252,0.0003315460201724,False
0.42,1.0282197855011763,2.0,3192.0,12.07752,0.3,68900.0,0.33,276.0,2700.0,38.49841853802332,7.929498348638789,21409.64554132473,26.20660938684297,11.196321175687316,12.291809151180347,3.266822827048527,3638,104,1214,1811,31.317509337724086,17.875354189469505,0.000375981973691,False
0.43,0.7837175597811468,2.0,3193.0,12.07752,0.2,68900.0,0.33,276.0,2700.0,23.58411757384756,4.904066206971247,13240.978758822366,17.566916190385662,5.875572042735419,6.017201383461899,0.9715058357641722,6530,114,1636,3660,26.39720244903664,15.20697263160186,0.0002617306648657,False
0.44,0.9626218433899764,2.0,3194.0,12.07752,0.3,68900.0,0.33,276.0,2700.0,33.74093244203528,7.244596184845502,19560.40969908285,23.741174732733757,9.558676443025515,9.999757709301528,2.314080258180013,3247,96,1080,1617,28.593156263425374,16.33452580912918,0.0003280652289263,False
0.45,0.8972871782064468,2.0,3195.0,12.07752,0.3,68900.0,0.33,276.0,2700.0,29.52801101524975,6.452950724725616,17422.966956759163,21.39313332413646,8.084843093683189,8.134877691113289,1.6318923689575726,2830,88,918,1431,26.81582657940724,15.369061761954008,0.0002937320873475,False
0.46,1.1238266309277547,2.0,3196.0,12.07752,0.3,68900.0,0.33,276.0,2700.0,43.873037008356896,9.886938470235544,26694.733869635973,29.99357583172327,13.881052072346977,13.879461176633626,3.994113602111432,4049,110,1342,2024,30.78784508672049,17.492498537557424,0.0003923822406877,False
0.4700000000000001,1.034895734147645,2.0,3197.0,12.07752,0.3,68900.0,0.33,276.0,2700.0,37.57229001155346,8.612041769999303,23252.51277899812,26.46358163677893,11.372132297766877,11.108708374774537,2.760090527767572,3457,100,1146,1722,28.96398394575604,16.66795553684885,0.0003429537684956,False
0.4800000000000001,0.8846525484312261,2.0,3198.0,12.07752,0.3,68900.0,0.33,276.0,2700.0,28.094118471323146,6.510965089953688,17579.605742874955,20.95144074682517,7.817343309711751,7.142677724497968,1.306378219758063,2965,86,898,1548,26.152031558267527,15.054141517676182,0.0002754798808843,False
0.49,0.9194840391931648,2.0,3199.0,12.07752,0.3,68900.0,0.33,276.0,2700.0,29.893831387510616,7.07758520053864,19109.480041454328,22.17882653515922,8.568400556482574,7.715004852351395,1.4908153559439343,3135,88,942,1640,53.96892585677707,27.712496892910767,0.0002853826686507,False
0.5,1.1000904831330165,2.0,3200.0,12.07752,0.3,68900.0,0.33,276.0,2700.0,41.098172155473904,10.012743651069323,27034.407857887178,29.031954764721306,13.18056072186311,12.066217390752602,3.1678170707937845,4591,108,1324,2451,29.91736400103793,17.16679241626654,0.0003563548038125,False
0.01,0.5564798848136849,2.0,3201.0,15.0969,0.05,68900.0,0.33,276.0,2700.0,21.504451738549157,0.107520164297643,290.3044436036363,10.884358728535704,2.667546606597297,10.62009301001345,2.5600264422996544,69285,430,22978,34812,900.950298626367,513.5272168435181,0.0071018355112111,True
0.02,0.6842909203732794,2.0,3202.0,15.0969,0.1,68900.0,0.33,276.0,2700.0,28.376351842724983,0.2837467632664325,766.1162608193679,14.483307419652244,4.284307605781105,13.89304442307274,4.000560842514673,22283,254,7390,11192,499.8239692644801,284.60190991143537,0.005045203952978,True
0.03,0.5259383163442197,2.0,3203.0,15.0969,0.1,68900.0,0.33,276.0,2700.0,19.40803758779917,0.2910640151492233,785.8728409029029,10.08513356044272,2.347385681123473,9.322904027356453,2.0563216659742496,15985,206,5254,8098,284.5165087445724,162.3025250878498,0.0021586382167829,True
0.04,0.4171481003413201,2.0,3204.0,15.0969,0.1,68900.0,0.33,276.0,2700.0,13.955575696458723,0.2789774726421833,753.239176133895,7.428743669222936,1.3974131097226854,6.526832027235788,1.118435637080502,11423,168,3744,5801,164.83717098205975,94.26104354222028,0.0012131030880984,False
0.05,0.6012685294325173,2.0,3205.0,15.0969,0.1,68900.0,0.33,276.0,2700.0,22.845132668534035,0.5708665173255506,1541.3395967789866,12.098805795338034,3.182050825440556,10.746326873196,2.611184308115005,18184,224,5976,9214,207.838654295969,118.71618985479346,0.0016116211795744,False
0.06,0.5504683121343837,2.0,3206.0,15.0969,0.2,68900.0,0.33,276.0,2700.0,19.911554380386495,0.5968942420694778,1611.61445358759,10.725192170822664,2.6025933687100937,9.186362209563836,2.005699126640616,4445,106,1462,2246,136.151519932386,78.16854834396464,0.0011934848541636,False
0.0699999999999999,0.7593989740353513,2.0,3207.0,15.0969,0.1,68900.0,0.33,276.0,2700.0,31.42542288232564,1.099171423361275,2967.7628430754426,16.789749031292672,5.4578494094582855,14.63567385103297,4.35867798609701,24704,270,8120,12518,183.71391901826863,105.09799259424416,0.0017040053655069,False
0.08,0.5769068695943204,2.0,3208.0,15.0969,0.2,68900.0,0.33,276.0,2700.0,20.77914364832555,0.830093415640598,2241.2522222296147,11.431984305434556,2.895456554990308,9.347159342890995,2.06536313934971,4547,108,1484,2315,107.44907640909013,62.03067995907546,0.0009741192980872,False
0.09,0.7146698587151403,2.0,3209.0,15.0969,0.1,68900.0,0.33,276.0,2700.0,28.15250488927449,1.2653359059877058,3416.406946166806,15.399117889332604,4.738147065070114,12.75338699994188,3.4728111590824087,22570,254,7434,11413,129.41410547468584,74.1504801668459,0.0011858049289056,False
0.0999999999999999,0.5533640621224225,2.0,3210.0,15.0969,0.1,68900.0,0.33,276.0,2700.0,19.081768405281057,0.951994025161662,2570.383867936487,10.801748669216456,2.6337616371941683,8.2800197360646,1.6817676120325065,15203,202,5002,7694,85.11925980575958,48.94512484099408,0.000747783831011,False
0.11,0.5724857766298133,2.0,3211.0,15.0969,0.2,68900.0,0.33,276.0,2700.0,19.81219785775307,1.0868832422951364,2934.5847541968683,11.3125702989132,2.8451788408065424,8.49962755883987,1.758295598511406,4265,104,1398,2162,78.25014139719829,45.107084601504326,0.0007163505606014,False
0.12,0.7401740623436426,2.0,3212.0,15.0969,0.3,68900.0,0.33,276.0,2700.0,28.81244641623889,1.7251276702373963,4657.84470964097,16.185883766943128,5.140887476866293,12.626562649295764,3.415759806628897,2831,88,924,1439,93.21806868827596,53.72249880848963,0.0009395078830456,False
0.13,0.5375629554016231,2.0,3213.0,15.0969,0.3,68900.0,0.33,276.0,2700.0,17.59552518115137,1.139107750734881,3075.5909269841786,10.38656884121421,2.466370466769705,7.20895633993716,1.327262716034824,1887,68,616,957,66.73072172908755,38.52514311923656,0.0005661297066902,False
0.14,0.7404806672570062,2.0,3214.0,15.0969,0.3,68900.0,0.33,276.0,2700.0,28.27244873627029,1.973324391377951,5327.975856720468,16.195441508772298,5.145851613521305,12.077007227497994,3.172527222143354,2846,88,926,1451,80.60688244274792,46.52104153285208,0.0008137868090574,False
0.15,0.5342437604172372,2.0,3215.0,15.0969,0.3,68900.0,0.33,276.0,2700.0,16.984042814409186,1.2667346276101117,3420.183494547301,10.300153297641778,2.432038911173694,6.683889516767408,1.1653042835635825,1864,68,608,946,58.19056806676853,33.59485468945549,0.0004930828181272,False
0.16,0.5639266028501193,2.0,3216.0,15.0969,0.3,68900.0,0.33,276.0,2700.0,18.2089615495724,1.448138281626388,3909.973360391248,11.082782590584916,2.749337295457296,7.126178958987484,1.3011990138309075,1880,68,612,956,57.17884071160696,33.011530722515666,0.0004971290989597,False
0.17,0.7715347669899657,2.0,3217.0,15.0969,0.3,68900.0,0.33,276.0,2700.0,29.2818992773153,2.4786716754337426,6692.4135236711045,17.175723695556748,5.663944638394733,12.106175581758553,3.185272962960991,3012,92,984,1530,69.53002099709227,40.11070050132422,0.0007181563805383,False
0.18,0.7879982749937902,2.0,3218.0,15.0969,0.3,68900.0,0.33,276.0,2700.0,29.99089676276261,2.6869661964114733,7254.808730310978,17.705256638789592,5.951066941853168,12.285640123973018,3.2641007454416946,2953,92,970,1492,67.34548741187415,38.87435799070059,0.0007016260753781,False
0.19,0.6914548793777276,2.0,3219.0,15.0969,0.3,68900.0,0.33,276.0,2700.0,24.15855351614716,2.2806971280266626,6157.882245671989,14.697183849548347,4.388830757324048,9.461369666598811,2.108133629297385,2445,80,800,1239,57.80496415839798,33.37354558502549,0.0005567353851742,False
0.2,0.5322240341249297,2.0,3220.0,15.0969,0.3,68900.0,0.33,276.0,2700.0,15.809541006513436,1.5641989398321987,4223.337137546937,10.247705044942094,2.4112884035569726,5.56183596157134,0.8470894637247739,1625,62,536,815,43.89062261222418,25.230518297352585,0.0003779061009103,False
0.21,0.709111993392739,2.0,3221.0,15.0969,0.3,68900.0,0.33,276.0,2700.0,24.63230547323408,2.566995881646316,6930.888880445053,15.229835643450766,4.653031625288819,9.40246982978331,2.0860357436425034,2405,80,788,1217,53.31882108448589,30.78345866842424,0.0005251502013498,False
0.22,0.6838214954268627,2.0,3222.0,15.0969,0.3,68900.0,0.33,276.0,2700.0,23.00129889179586,2.507841759047221,6771.172749427498,14.469338000641851,4.277512058985729,8.531960891154007,1.7696702999385074,2364,78,778,1191,49.030991581447765,28.29935720249305,0.000479233887213,False
0.23,0.6198584949203609,2.0,3223.0,15.0969,0.3,68900.0,0.33,276.0,2700.0,19.42674427315289,2.2085930862017644,5963.201332744764,12.61767971687242,3.411776676436617,6.809064556280475,1.203183590234853,2056,72,674,1039,43.48890918024152,25.10831891448607,0.000405286105655,False
0.24,0.8308145522407713,2.0,3224.0,15.0969,0.3,68900.0,0.33,276.0,2700.0,30.92513134719417,3.68206284376782,9941.569678173117,19.114296331689136,6.739140642141367,11.810835015505036,3.0570777983735464,3164,94,1038,1601,54.09063699050081,31.202602316874483,0.00057771773519,False
0.25,0.6703918875422746,2.0,3225.0,15.0969,0.3,68900.0,0.33,276.0,2700.0,21.57568421971094,2.6642356039889736,7193.436130770228,14.072037583880649,4.085867390501964,7.503646635830293,1.42163178651299,2210,76,730,1109,42.937255951579466,24.787183685990744,0.0004165947204912,False
0.26,0.6736444099273964,2.0,3226.0,15.0969,0.3,68900.0,0.33,276.0,2700.0,21.51598028289701,2.7602663484569514,7452.719140833768,14.167843977083994,4.131792741902895,7.348136305813018,1.3715263934459432,2274,76,744,1152,42.18948688584836,24.35350343474333,0.0004053341661581,False
0.27,0.6498970832504267,2.0,3227.0,15.0969,0.3,68900.0,0.33,276.0,2700.0,20.06198674280269,2.6671442314779297,7201.28942499041,13.4744580499618,3.803605401791178,6.587528692840891,1.136461170313248,1973,70,652,989,39.47676184975738,22.780014416710763,0.0003738753558421,False
0.28,0.8268977638036106,2.0,3228.0,15.0969,0.3,68900.0,0.33,276.0,2700.0,29.614570024172004,4.100063642096347,11070.171833660135,18.983484222852887,6.664530294811375,10.631085801319117,2.5644666527150277,2926,90,968,1468,46.77393463139808,26.930917027036138,0.0004989058700089,False
0.29,0.7940593042302903,2.0,3229.0,15.0969,0.3,68900.0,0.33,276.0,2700.0,27.428925886596627,3.926114051403926,10600.5079387906,17.901919415000382,6.058974543064469,9.527006471596245,2.132860491660543,2689,86,884,1357,44.44321638935072,25.617214314763604,0.0004568868477174,False
0.3,0.9342478948656074,2.0,3230.0,15.0969,0.3,68900.0,0.33,276.0,2700.0,35.733546890737976,5.303483365846085,14319.40508778443,22.70827394764653,8.899747153053504,13.025272943091444,3.596263787207419,3386,100,1116,1706,49.09130749421362,28.198833822349545,0.0005564226501681,False
0.31,0.6211802021421408,2.0,3231.0,15.0969,0.2,68900.0,0.33,276.0,2700.0,17.782147868392958,2.6938387951054983,7273.364746784845,12.654901269312605,3.42847814800214,5.127246599080353,0.7346393528966413,3634,96,1198,1821,33.43018606387133,19.27441721831088,0.0003166296236824,False
0.32,0.825789783964558,2.0,3232.0,15.0969,0.3,68900.0,0.33,276.0,2700.0,28.51726244508737,4.494132852498756,12134.15870174664,18.94655009733803,6.643517440999452,9.57071234774934,2.1493845885006966,2863,88,948,1435,41.88229517144455,24.108545707097544,0.0004411503099809,False
0.33,0.7078174779572517,2.0,3233.0,15.0969,0.3,68900.0,0.33,276.0,2700.0,21.732112758417365,3.5105323283441474,9478.4372865292,15.190518579885614,4.633341820784792,6.541594178531751,1.1228094924406444,2044,72,676,1024,34.57635520441336,19.90764343631241,0.0003507154775722,False
0.34,0.8829312802191107,2.0,3234.0,15.0969,0.3,68900.0,0.33,276.0,2700.0,31.41849737741837,5.258826449056662,14198.831412452988,20.891577647683228,7.78133179166185,10.52691972973514,2.5225053426051884,2933,92,972,1469,42.18093085540119,24.247299287862354,0.0004579277073978,False
0.3500000000000001,0.9448531066953818,2.0,3235.0,15.0969,0.3,68900.0,0.33,276.0,2700.0,35.01372651126552,6.03760494945636,16301.533363532171,23.0919689232181,9.142605293664491,11.921757588047416,3.105000344208133,3343,98,1104,1681,43.281599229465854,24.84786534210803,0.0004911414393354,False
0.36,0.7518011121110415,2.0,3236.0,15.0969,0.2,68900.0,0.33,276.0,2700.0,23.40254360519155,4.114741751037224,11109.802727800505,16.54998580247686,5.331194977141703,6.8525578027146885,1.2164532261044787,5911,114,1610,3224,37.909023196481336,21.79853093375653,0.0003577727312508,False
0.37,0.7757612951538309,2.0,3237.0,15.0969,0.3,68900.0,0.33,276.0,2700.0,24.47891806774299,4.422512447410687,11940.783608008853,17.311015987950803,5.736824068542581,7.167902079792185,1.3143116211318944,2521,82,834,1264,34.427871674893595,19.808554975736207,0.0003594209872912,False
0.38,0.8549993876262936,2.0,3238.0,15.0969,0.3,68900.0,0.33,276.0,2700.0,28.73485550516616,5.344698897923052,14430.68702439224,19.9305570993402,7.211257691558595,8.804298405825957,1.8665587936355437,2717,86,900,1361,36.61255144559357,21.008388550783906,0.0003988524732537,False
0.39,0.8130830072010384,2.0,3239.0,15.0969,0.3,68900.0,0.33,276.0,2700.0,26.09116853863127,4.963540441954209,13401.559193276364,18.52517999329676,6.4054492833919,7.565988545334513,1.4419088414376908,2672,84,890,1329,35.07144088098258,20.183816703427123,0.0003636678555681,False
0.4,0.8026882238093251,2.0,3240.0,15.0969,0.3,68900.0,0.33,276.0,2700.0,25.28156020506286,4.922270754459341,13290.131037040224,18.183495659522347,6.214662269754316,7.098064545540513,1.292391515294974,2518,82,816,1276,32.67797495429612,18.78791095072917,0.0003518324255033,False
0.4100000000000001,0.8207061949365883,2.0,3241.0,15.0969,0.3,68900.0,0.33,276.0,2700.0,26.05826230156653,5.197595966969176,14033.509110816774,18.777485943130294,6.547630968296686,7.280776358436231,1.3500350013275106,2736,84,898,1373,33.282765315402315,19.08887758402929,0.0003560765995645,False
0.42,0.9969707535015548,2.0,3242.0,15.0969,0.3,68900.0,0.33,276.0,2700.0,36.45237005377605,7.499828166946864,20249.53605075653,25.0186566393915,10.396015096992617,11.433713414384547,2.896186930045751,3597,102,1184,1807,38.0600666576268,21.74471986720957,0.000450245144597,False
0.43,0.86964161902999,2.0,3243.0,15.0969,0.1,68900.0,0.33,276.0,2700.0,28.385477609554957,5.936358614648067,16028.16825954978,20.431890244719963,7.506749263806801,7.953587364834991,1.5703906491587345,45996,248,7338,29217,36.05187966855104,20.75421359253187,0.0003744884987476,False
0.44,1.0049937185831177,2.0,3244.0,15.0969,0.3,68900.0,0.33,276.0,2700.0,36.43264428076407,7.836772789365834,21159.28653128775,25.3213133545112,10.597951926134984,11.111330926252876,2.76117913676915,3443,100,1150,1710,36.98979067696618,21.127895420496827,0.0004366067640065,False
0.45,0.8043790306025687,2.0,3245.0,15.0969,0.2,68900.0,0.33,276.0,2700.0,24.270288385500145,5.269963133031951,14228.900459186269,18.23888881211389,6.245453867175911,6.031399573386253,0.9754907341439596,6610,116,1662,3699,32.6301471866198,18.7705031598465,0.0003254190825087,False
0.46,0.7642917452917944,2.0,3246.0,15.0969,0.2,68900.0,0.33,276.0,2700.0,21.93232324238596,4.840574304062221,13069.550620967995,16.944916582759145,5.540377165274797,4.987406659626817,0.699802861212576,6020,108,1496,3388,30.936256329094725,17.76814481507746,0.0003005991820646,False
0.4700000000000001,1.0868840414674206,2.0,3247.0,15.0969,0.3,68900.0,0.33,276.0,2700.0,41.03712846999684,9.42627880773349,25450.952780880423,28.503053904575555,12.800649178100178,12.534074565421282,3.3743703703666874,3923,106,1268,1987,36.97180737940431,21.03120686283576,0.0004583437136068,False
0.4800000000000001,1.0098987007357718,2.0,3248.0,15.0969,0.3,68900.0,0.33,276.0,2700.0,35.694592515681,8.33507886059958,22504.712923618867,25.507144761587178,10.722608018932323,10.187447754093824,2.387529158332745,3640,100,1154,1859,36.8919631203208,21.14625044353061,0.0004080097866103,False
0.49,1.1378691689038452,2.0,3249.0,15.0969,0.3,68900.0,0.33,276.0,2700.0,43.98504973037207,10.5299336945397,28430.82097525719,30.569146860128512,14.306273439449662,13.415902870243556,3.7763397449099614,4166,110,1332,2118,37.98987988295587,21.841132445178022,0.0004721719327449,False
0.5,1.1039099457454873,2.0,3250.0,15.0969,0.3,68900.0,0.33,276.0,2700.0,41.35773879768117,10.077635311621014,27209.61534137674,29.18573647719296,13.291740752706536,12.172002320488213,3.214105441085522,4506,108,1318,2391,37.849195790890775,21.65195389416345,0.0004475625124623,False
0.02,0.5920516609931986,2.0,3252.0,18.11628,0.1,68900.0,0.33,276.0,2700.0,23.14564107572609,0.2314396555963211,624.887070110067,11.844769781781372,3.071710072277559,11.300871293944716,2.840270416681238,18275,226,6066,9170,556.424347552511,317.0764852711392,0.0047327549555757,True
0.03,0.5372852978906744,2.0,3253.0,18.11628,0.1,68900.0,0.33,276.0,2700.0,19.987873824923888,0.2997615587059762,809.3562085061359,10.379329390268936,2.463487563006752,9.60854443465495,2.163726004300776,15702,206,5160,7956,348.79408464907544,198.97047452166817,0.0026829289942094,True
0.04,0.6095565478902498,2.0,3254.0,18.11628,0.1,68900.0,0.33,276.0,2700.0,23.56278612117477,0.4711216811369454,1272.0285390697527,12.329063916031016,3.2832789505968307,11.233722205143758,2.812157269459885,18742,228,6164,9490,313.35779586478503,178.82462284861285,0.0024693564220713,True
0.05,0.5082140137364067,2.0,3255.0,18.11628,0.1,68900.0,0.33,276.0,2700.0,18.02858982252205,0.4504529461752514,1216.222954673179,9.63206649575319,2.172660532749312,8.396523326768861,1.72220758657406,14396,194,4730,7295,203.34315586621057,116.30062067074996,0.0015231438996314,False
0.06,0.5351208887048181,2.0,3256.0,18.11628,0.2,68900.0,0.33,276.0,2700.0,19.130238398471057,0.573454762612016,1548.3278590524433,10.322962495217457,2.441083468880336,8.8072759032536,1.86762870626832,3957,102,1300,2001,158.82031102482907,91.6708199649542,0.0013797586679108,False
0.0699999999999999,0.7536036222328839,2.0,3257.0,18.11628,0.2,68900.0,0.33,276.0,2700.0,31.069592036618488,1.086717343761529,2934.136828156128,16.606735750737773,5.361077627979412,14.462856285880717,4.274360284217883,6189,136,2032,3135,196.18299215650984,112.01937797042098,0.0020239765070464,False
0.08,0.627374789559163,2.0,3258.0,18.11628,0.1,68900.0,0.33,276.0,2700.0,23.473576499086327,0.937870729671028,2532.250970111776,12.829936617728062,3.507411678205186,10.643639881358265,2.5695409485341583,18821,228,6188,9533,152.2631762831158,87.1745604337261,0.0013051807114543,False
0.09,0.714035637701468,2.0,3259.0,18.11628,0.1,68900.0,0.33,276.0,2700.0,28.11522659576244,1.2636583827796626,3411.877633505089,15.37976145550875,4.728386759575519,12.735465140253693,3.464728376795856,22552,254,7426,11407,155.07047177200474,88.85165023631572,0.0014204014254797,False
0.0999999999999999,0.4722873934250939,2.0,3260.0,18.11628,0.2,68900.0,0.33,276.0,2700.0,15.157908999976671,0.7558010548964411,2040.662848220391,8.73793501986144,1.842771617748077,6.419973980115232,1.086970562851636,3192,88,1042,1623,87.2314598439518,50.19284976466346,0.0007308858760919,False
0.11,0.5728031678866632,2.0,3261.0,18.11628,0.2,68900.0,0.33,276.0,2700.0,19.82843317922189,1.0877761849759189,2936.9956994349805,11.321126689825537,2.848770709506561,8.507306489396354,1.7609945245306424,4264,104,1398,2161,93.94769701968234,54.15676053766008,0.0008602588848638,False
0.12,0.6071251109407652,2.0,3262.0,18.11628,0.3,68900.0,0.33,276.0,2700.0,21.364614417835146,1.278257750333173,3451.295925899567,12.261334675759606,3.2533839788331376,9.103279742075536,1.9751262284999649,2221,76,728,1123,94.78890011175716,54.51929319811629,0.0008566994878428,False
0.13,0.5975849873196024,2.0,3263.0,18.11628,0.3,68900.0,0.33,276.0,2700.0,20.620327338852704,1.3357198909853718,3606.443705660504,11.997023602818835,3.137671928951759,8.623303736033867,1.8019520379663876,2166,74,710,1095,87.62808630348431,50.511330710786176,0.0007803925550835,False
0.14,0.6866250640600414,2.0,3264.0,18.11628,0.3,68900.0,0.33,276.0,2700.0,25.1767620716294,1.7566263248530922,4742.891077103349,14.552850450731246,4.3181948614372905,10.623911620898156,2.5615685365841983,2545,82,838,1282,90.10177783058388,52.01935789434146,0.0008791628196425,False
0.15,0.5242743939772443,2.0,3265.0,18.11628,0.2,68900.0,0.33,276.0,2700.0,16.505849263674122,1.2308701113049825,3323.3493005234527,10.04226470925295,2.330640476686942,6.463584554421173,1.0997703653819602,3503,94,1158,1760,65.06187691611417,37.54605665755111,0.0005754554728235,False
0.16,0.4847550528336066,2.0,3266.0,18.11628,0.2,68900.0,0.33,276.0,2700.0,14.450866418794652,1.1474906711641313,3098.2248121431544,9.044551178856688,1.953620549482036,5.406315239937964,0.806129878317905,3188,88,1052,1604,57.834414540086414,33.25048490217721,0.0004923196349833,False
0.17,0.5400355738219741,2.0,3267.0,18.11628,0.3,68900.0,0.33,276.0,2700.0,16.821794768359936,1.4195627921725384,3832.8195388658537,10.451123649172468,2.492132266252989,6.3706711191874685,1.0725694740804503,1725,64,564,873,60.98666120017435,35.17433252362485,0.0005347222514664,False
0.18,0.8289955968302656,2.0,3268.0,18.11628,0.3,68900.0,0.33,276.0,2700.0,32.501914520319794,2.9129577945916263,7864.986045397391,19.053499274838984,6.7044278955830565,13.44841524548081,3.7914701009914302,3225,96,1058,1632,84.60378360720023,48.84191447717373,0.0009057972749583,False
0.19,0.5672845038152061,2.0,3269.0,18.11628,0.3,68900.0,0.33,276.0,2700.0,17.702551807077366,1.667376965665034,4501.917807295592,11.17271251287132,2.786703090402481,6.529839294206047,1.119326124737447,1698,64,560,852,57.65231524116111,33.28318532954959,0.0005150638692252,False
0.2,0.8518461218137772,2.0,3270.0,18.11628,0.3,68900.0,0.33,276.0,2700.0,33.354131186083784,3.318657957789233,8960.37648603093,19.82329805681392,7.148580521034749,13.530833129269862,3.8299225632455154,3184,96,1046,1609,78.35413742064266,45.19570340712425,0.0008526379935347,False
0.21,0.8437588311480676,2.0,3271.0,18.11628,0.3,68900.0,0.33,276.0,2700.0,32.560683735704856,3.3994755992057373,9178.584117855493,19.54934940839599,6.98937260668627,13.011334327308866,3.5898970074805323,3227,96,1056,1637,74.5021574097696,42.99698551979864,0.000803387961295,False
0.22,0.629862779440215,2.0,3272.0,18.11628,0.3,68900.0,0.33,276.0,2700.0,20.161989902489477,2.195517770223561,5927.8979796036165,12.9005091569367,3.5394201903107967,7.261480745552772,1.3439024200872351,2173,74,712,1099,54.97506948636317,31.71924575554209,0.0005138911363828,False
0.23,0.867625940182662,2.0,3273.0,18.11628,0.3,68900.0,0.33,276.0,2700.0,33.4842693575464,3.825208470907016,10328.06287144894,20.36255589403715,7.465635029873662,13.121713463509252,3.640426558966646,3277,98,1078,1654,70.04605110385027,40.40202423707817,0.0007678473321907,False
0.24,0.8295170453420353,2.0,3274.0,18.11628,0.3,68900.0,0.33,276.0,2700.0,30.84620456341772,3.6725916297146455,9915.997400229542,19.070919751185507,6.714367856067707,11.775284812232211,3.041776226353061,3162,94,1036,1602,64.81796801747697,37.391088429188216,0.0006926548365629,False
0.25,0.7661908258640395,2.0,3275.0,18.11628,0.3,68900.0,0.33,276.0,2700.0,26.84029739295309,3.32231225064424,8970.243076739447,17.005305411355078,5.5726142544363935,9.834991981598012,2.2503020037921537,2688,86,886,1353,58.7129615521565,33.873905008122456,0.0005956725915248,False
0.26,0.8609458611786396,2.0,3276.0,18.11628,0.3,68900.0,0.33,276.0,2700.0,32.22338403683831,4.152228836469319,11211.01785846716,20.133507711842554,7.330377202068549,12.089876324995757,3.17814836559923,3236,96,1064,1634,62.38291306196604,35.95922326558862,0.0006765154241448,False
0.27,0.8367355218194996,2.0,3277.0,18.11628,0.3,68900.0,0.33,276.0,2700.0,30.470766181676808,4.072329455725859,10995.28953045982,19.312775656696843,6.852902969515378,11.157990524979963,2.780573513789519,2892,90,958,1449,59.10371161186968,34.03029844151943,0.0006287712261123,False
0.28,0.9752473978014512,2.0,3278.0,18.11628,0.3,68900.0,0.33,276.0,2700.0,39.01821918127038,5.416574524090118,14624.751215043318,24.207289416172067,9.86136019943442,14.810929765098315,4.444785675344301,3730,106,1232,1876,64.65573318656651,37.20204686130054,0.0007546102838497,False
0.29,0.8686936326312735,2.0,3279.0,18.11628,0.3,68900.0,0.33,276.0,2700.0,31.879653422009635,4.57146954403913,12342.96776890565,20.39926914576688,7.487395573717816,11.48038427624276,2.915926029678686,3201,96,1054,1614,56.73075302599012,32.63077216269967,0.0006202757305922,False
0.3,0.6604240575687624,2.0,3280.0,18.11628,0.1,68900.0,0.33,276.0,2700.0,19.941743830239275,2.9347129067712747,7923.724848282442,13.780080870641736,3.9470568741705976,6.161662959597541,1.0123439673993229,26889,204,5330,16304,45.98552011340541,26.53728589165161,0.0004270098330048,False
0.31,0.6544411563290757,2.0,3281.0,18.11628,0.3,68900.0,0.33,276.0,2700.0,19.42528733193355,2.948525411954308,7961.018612276631,13.60604153904598,3.865133089845738,5.819245792887571,0.9166076778914304,1929,70,636,969,41.75891787969456,24.070421272826216,0.0004028722459694,False
0.32,0.7898893502560049,2.0,3282.0,18.11628,0.3,68900.0,0.33,276.0,2700.0,26.44592554601016,4.162718948646406,11239.341161345295,17.7665174381361,5.984606824921066,8.679408107874064,1.82188787627466,2580,84,852,1296,55.77446636686117,31.04176328508537,0.0005000617809001,False
0.33,0.6447675569245573,2.0,3283.0,18.11628,0.2,68900.0,0.33,276.0,2700.0,18.52708942068553,2.9817034776184084,8050.599389569703,13.326545048301712,3.734867458991652,5.200544372383822,0.7531639813732434,4156,100,1296,2140,42.485770186219085,24.50947841488564,0.0003796541059859,False
0.34,1.0158391464588032,2.0,3284.0,18.11628,0.3,68900.0,0.33,276.0,2700.0,39.96565804991166,6.711843763380521,18121.978161127405,25.73301561553864,10.874802275660448,14.232642434373023,4.162958512279928,3906,108,1288,1968,56.29559689568912,32.27618960579893,0.000669812532035,False
0.3500000000000001,1.0251351077928426,2.0,3285.0,18.11628,0.3,68900.0,0.33,276.0,2700.0,40.30009443989291,6.962719336966142,18799.342209808583,26.08825157034037,11.115664841233304,14.21184286955254,4.152945504267162,3881,108,1280,1955,55.08888683999995,31.598228560782434,0.0006610196321224,False
0.36,0.954873055664987,2.0,3286.0,18.11628,0.3,68900.0,0.33,276.0,2700.0,35.37939270281489,6.270574588609429,16930.55138924546,23.45708618075629,9.37581276507264,11.922306522058602,3.105238176463213,3337,98,1104,1675,50.98104796121737,29.249177629788814,0.0005832636930255,False
0.37,0.9494788443637175,2.0,3287.0,18.11628,0.3,68900.0,0.33,276.0,2700.0,34.76189230377316,6.324862681076516,17077.129238906593,23.260212775034272,9.249811602808968,11.501679528738888,2.924948921732451,3305,98,1094,1658,49.42823447064472,28.31857198302145,0.0005652047086162,False
0.38,0.891020492142214,2.0,3288.0,18.11628,0.2,68900.0,0.33,276.0,2700.0,30.87683482972104,5.751674969588478,15529.522417888891,21.17355549034618,7.951467571319314,9.70327933937486,2.199792601730836,7984,134,2028,4466,47.98921267611528,27.58799895681989,0.00051235699097,False
0.39,0.9668703656611506,2.0,3289.0,18.11628,0.3,68900.0,0.33,276.0,2700.0,35.328572263957795,6.764834168392911,18265.05225466086,23.897575943423128,9.659873429024904,11.430996320534668,2.895039260631993,3561,102,1184,1779,47.37801144371955,27.117006792924137,0.0005528542374195,False
0.4,0.9222115358345482,2.0,3290.0,18.11628,0.3,68900.0,0.33,276.0,2700.0,32.26543928543399,6.319046570533499,17061.425740440445,22.276224894093723,8.629026015719248,9.98921439134027,2.309979445185749,2988,92,996,1488,45.399899771259214,25.999684328148,0.0005044948075204,False
0.4100000000000001,0.8622389594707487,2.0,3291.0,18.11628,0.3,68900.0,0.33,276.0,2700.0,28.43083569609964,5.683973512848383,15346.728484690637,20.177758246224585,7.356440412121627,8.253077449875054,1.6724668992732434,2800,88,930,1399,41.29488750943379,23.70182652815021,0.0004529006285788,False
0.42,1.0232717837771994,2.0,3292.0,18.11628,0.3,68900.0,0.33,276.0,2700.0,38.17117454375032,7.860777109841465,21224.098196571955,26.0168724518516,11.067120490318509,12.154302091898716,3.206343380477043,3649,104,1218,1816,47.089839847904095,26.89180263297369,0.0005602918930084,False
0.43,1.1035020442646963,2.0,3293.0,18.11628,0.2,68900.0,0.33,276.0,2700.0,43.33294067861195,9.150063174495592,24705.1705711381,29.16929579272695,13.279839200810894,14.163644885885,4.129776026315302,11539,164,2834,6530,50.44835917972665,28.90798086098024,0.0006168893681903,False
0.44,0.9534448090762776,2.0,3294.0,18.11628,0.3,68900.0,0.33,276.0,2700.0,33.16984245409648,7.118956387498964,19221.182246247205,23.40488805246064,9.3423475437552,9.764954401635844,2.223391156256235,2974,92,992,1480,42.11550413066518,24.05074056620547,0.0004850318930785,False
0.45,0.8414194834741926,2.0,3295.0,18.11628,0.1,68900.0,0.33,276.0,2700.0,26.31441896155848,5.72989251264508,15470.709784141714,19.4704129264719,6.943732238372502,6.844006035086579,1.2138397257274225,44753,238,6948,28609,101.5222741509468,56.48136023102377,0.0004091942556033,False
0.46,0.8473854329361263,2.0,3296.0,18.11628,0.2,68900.0,0.33,276.0,2700.0,26.42582593569216,5.874079923522653,15860.015793511164,19.67199352375239,7.060492602991834,6.753832411939769,1.1864126794691812,7173,122,1782,4036,39.81725565787068,22.89948838844559,0.0004094003164008,False
0.4700000000000001,1.081739336570701,2.0,3297.0,18.11628,0.3,68900.0,0.33,276.0,2700.0,40.68819501841367,9.344279446611443,25229.554505850894,28.298201552620142,12.654536614748714,12.389993465793523,3.310257168137271,3916,106,1266,1981,44.354514130829614,25.212135196433103,0.0005468164263641,False
0.4800000000000001,1.0685562411422933,2.0,3298.0,18.11628,0.2,68900.0,0.33,276.0,2700.0,39.52529919149521,9.254448462794985,24987.01084954646,27.77631204769032,12.284923581360074,11.748987143804886,3.0304751185650893,10448,154,2560,5914,45.35780505166172,26.028713266612552,0.0005355153176405,False
0.49,1.167054639919646,2.0,3299.0,18.11628,0.3,68900.0,0.33,276.0,2700.0,46.04982700057396,11.035804125739164,29796.671139495746,31.781245663445667,15.216084159818116,14.268581337128296,4.180280034078951,4913,116,1490,2564,47.85359712113915,27.47876980356328,0.0005900187035922,False
0.5,0.8466663723780401,2.0,3300.0,18.11628,0.2,68900.0,0.33,276.0,2700.0,25.5141841675292,6.116746654083146,16515.215966024494,19.64765012156824,7.046356001318841,5.866534045960957,0.9296093472356954,6805,116,1666,3852,38.32740115531606,22.077886638908367,0.0003816849197843,False
0.01,0.3650470086022608,2.0,3301.0,21.13566,0.05,68900.0,0.33,276.0,2700.0,12.307650582311942,0.0615361585164568,166.1476279944334,6.26190198571464,1.0410605266744732,6.045748596597302,0.9795243681580164,39529,310,13098,19876,836.3388997679316,482.26464863819615,0.0053758077408256,True
0.02,0.6955504066539595,2.0,3302.0,21.13566,0.1,68900.0,0.33,276.0,2700.0,29.04414388311177,0.2904246836702983,784.1466459098056,14.820033257396243,4.449274897338114,14.224110625715529,4.158850213667816,22698,258,7528,11400,732.175556531492,416.4224179145204,0.0072547042641378,True
0.03,0.4739286267374303,2.0,3303.0,21.13566,0.1,68900.0,0.33,276.0,2700.0,16.833133754188516,0.2524404576450641,681.5892356416731,8.778074452583288,1.8571455376116472,8.055059301605228,1.6047050799665832,13229,186,4366,6674,350.0366767929575,199.7423598026297,0.0026113008792407,True
0.04,0.6725936530177385,2.0,3304.0,21.13566,0.1,68900.0,0.33,276.0,2700.0,27.11501403644973,0.542166239442441,1463.8488464945908,14.136863778688024,4.116922060707548,12.978150257761705,3.574755821265107,21537,248,7088,10899,419.6627917938667,239.35756097714625,0.0034021663150998,True
0.05,0.6257533143887923,2.0,3305.0,21.13566,0.1,68900.0,0.33,276.0,2700.0,24.18480608754443,0.6043583528007823,1631.7675525621123,12.78402674895187,3.486645484326986,11.40077933859256,2.8822871315262035,19651,234,6448,9973,294.06000266183526,167.55727942593117,0.0024043844167894,True
0.06,0.5113434031427762,2.0,3306.0,21.13566,0.1,68900.0,0.33,276.0,2700.0,17.943140464814196,0.5378418246023048,1452.1729264262228,9.711485726638012,2.202927222266896,8.231654738176184,1.665085397664591,14928,198,4900,7572,191.23025084482052,109.3910084868548,0.0015143509850328,False
0.0699999999999999,0.6711940983500021,2.0,3307.0,21.13566,0.2,68900.0,0.33,276.0,2700.0,26.192388596404054,0.9160152233540207,2473.2411030558565,14.095642827281994,4.097165598247943,12.096745769122064,3.1811503748939223,5513,124,1814,2786,202.04982874933185,115.53476194663116,0.0019320514141336,False
0.08,0.6239610417520902,2.0,3308.0,21.13566,0.2,68900.0,0.33,276.0,2700.0,23.287282745627703,0.930418979532412,2512.1312447375126,12.733357867388234,3.4637784412809016,10.553924878239467,2.5333594617484896,4958,116,1628,2510,164.11371816312203,94.1397925181846,0.0015144638134717,False
0.09,0.7728443923866966,2.0,3309.0,21.13566,0.3,68900.0,0.33,276.0,2700.0,31.657875713936285,1.4230775930974826,3842.3095013632033,17.21759714920259,5.686465816918486,14.440278564733696,4.263388223821004,3177,96,1040,1611,178.26752638941042,102.67123011827408,0.0019108642211368,False
0.0999999999999999,0.4395885771401707,2.0,3310.0,21.13566,0.2,68900.0,0.33,276.0,2700.0,13.668889599344622,0.6813500848648388,1839.645229135065,7.952334775136695,1.569968809073962,5.716554824207927,0.8886187242091232,2972,84,974,1505,95.41196106021049,55.07019404896997,0.0007786612299993,False
0.11,0.4677704214049408,2.0,3311.0,21.13566,0.2,68900.0,0.33,276.0,2700.0,14.732180623590146,0.8074822944161718,2180.202194923664,8.627813565926994,1.8035515105319015,6.104367057663152,0.99606921611573,3123,88,1022,1584,92.0966678534,53.04188406323232,0.0007711340193874,False
0.12,0.521620595726219,2.0,3312.0,21.13566,0.2,68900.0,0.33,276.0,2700.0,17.04789450952065,1.0192545558343025,2751.9873007526166,9.974036950315904,2.304080902662605,7.073857559204745,1.284826346828302,3821,98,1250,1940,93.97700736613062,54.24885464004444,0.0008180067369991,False
0.13,0.5118728849113383,2.0,3313.0,21.13566,0.2,68900.0,0.33,276.0,2700.0,16.356218601506665,1.058552823057853,2858.092622256203,9.72494752829602,2.208072840483252,6.631271073210645,1.149520017425399,3487,94,1152,1753,85.26302881873283,49.20881775667405,0.0007416582256988,False
0.14,0.5894898999647451,2.0,3314.0,21.13566,0.3,68900.0,0.33,276.0,2700.0,19.961922405929272,1.3915875482540825,3757.286380286022,11.774541511842047,3.0414565918927603,8.187380894087225,1.649869043638678,2171,74,710,1100,94.04033312551404,54.28862246209712,0.0008345731908954,False
0.15,0.8381450577352745,2.0,3315.0,21.13566,0.3,68900.0,0.33,276.0,2700.0,33.95836561861345,2.5398088379254333,6857.48386239867,19.360155149586365,6.880158406119885,14.598210469027084,4.340349568194451,3352,98,1098,1699,118.39377150409182,68.28258748749352,0.0012942701468553,False
0.16,0.500654678352473,2.0,3316.0,21.13566,0.3,68900.0,0.33,276.0,2700.0,15.180302290040611,1.2058455408638464,3255.7829603323853,9.441237208383637,2.1005706876698493,5.739065081656976,0.8947251468060029,1623,62,530,822,70.37801351596248,40.592996701344255,0.000599400240868,False
0.17,0.5297939201418129,2.0,3317.0,21.13566,0.3,68900.0,0.33,276.0,2700.0,16.33277707652995,1.3779962883669887,3720.5899785908696,10.184735732563174,2.386461853592172,6.148041343966776,1.0084655652251835,1687,64,554,850,70.82517403169146,40.88075601907381,0.0006089792992319,False
0.18,0.5551851961192904,2.0,3318.0,21.13566,0.3,68900.0,0.33,276.0,2700.0,17.333610867734436,1.5478104658589404,4179.08825781914,10.850002913334244,2.6534769949937087,6.48360795440019,1.1056665291347685,1688,64,554,851,69.14020177749208,39.9172890229123,0.0006143749473501,False
0.19,0.5313747402154436,2.0,3319.0,21.13566,0.3,68900.0,0.33,276.0,2700.0,15.97996623319435,1.5037313361458613,4060.0746075938255,10.225681200296403,2.4025944437179185,5.754285032897947,0.8988631075720572,1692,64,554,855,64.34962657374741,37.15090781243695,0.00055548936092,False
0.2,0.6494040931410898,2.0,3320.0,21.13566,0.2,68900.0,0.33,276.0,2700.0,21.645547011480293,2.147799540328885,5799.05875888799,13.460213657467431,3.7969661386667632,8.18533335401286,1.649166598337878,4682,112,1546,2357,394.8717407949953,213.072315105978,0.0006835513947225,True
0.21,0.6901465629501806,2.0,3321.0,21.13566,0.3,68900.0,0.33,276.0,2700.0,23.58878825499447,2.4574265737310643,6635.051749073874,14.658028442492444,4.369627808776443,8.930759812502027,1.9122012350453783,2405,80,790,1214,72.48925073123249,41.85092690961834,0.0007095899440139,False
0.22,0.8481825939979479,2.0,3322.0,21.13566,0.3,68900.0,0.33,276.0,2700.0,32.55182932852162,3.5584001070870936,9607.680289135153,19.698996164434707,7.076185111903281,12.852833164086912,3.5177850048161874,3224,96,1054,1637,83.44992603230523,48.16119173381725,0.0009041625665448,False
0.23,0.9050778759405936,2.0,3323.0,21.13566,0.3,68900.0,0.33,276.0,2700.0,35.877639695228225,4.100446059740429,11071.204361299158,21.66748709101871,8.252578242285187,14.210152604209515,4.152132182544758,3385,100,1112,1711,85.1876219628215,49.12679359698957,0.0009501131130449,False
0.24,0.7103275015514984,2.0,3324.0,21.13566,0.3,68900.0,0.33,276.0,2700.0,23.95688232162921,2.8458729607000204,7683.856993890055,15.26679143494046,4.671566071041782,8.690090886688749,1.8256931103417613,2312,78,762,1163,66.8777328534339,38.60930132887531,0.0006514099821557,False
0.25,0.7280484572716779,2.0,3325.0,21.13566,0.3,68900.0,0.33,276.0,2700.0,24.68891961520121,3.05339002842526,8244.153076748202,15.809788737518872,4.946907766419014,8.879130877682343,1.8935177379937544,2536,82,832,1282,65.27625202272192,37.625517535761496,0.0006500239776395,False
0.26,0.6285360156778308,2.0,3326.0,21.13566,0.3,68900.0,0.33,276.0,2700.0,19.200765235790183,2.4592883923330606,6640.078659299264,12.862855765541315,3.522329245714156,6.337909470248865,1.063040853381095,2002,70,660,1006,55.35730589581777,31.941298628872964,0.0005186949768635,False
0.27,0.5890636239579636,2.0,3327.0,21.13566,0.3,68900.0,0.33,276.0,2700.0,17.051619896419314,2.260744707216151,6104.010709483608,11.762871562059878,3.0364398748274595,5.288748334359436,0.7756951676113086,1840,66,610,919,50.57224955048178,29.084709021165636,0.0004645643023565,False
0.28,0.9357304117442962,2.0,3328.0,21.13566,0.3,68900.0,0.33,276.0,2700.0,36.40521046418711,5.050753303698464,13637.033919985854,22.761741231770568,8.933452178718072,13.64346923241654,3.882698875019608,3377,100,1114,1700,73.44872639599633,42.26099501363512,0.0008319857564482,False
0.29,0.8736943234725292,2.0,3329.0,21.13566,0.3,68900.0,0.33,276.0,2700.0,32.187872161636534,4.616161261285029,12463.635405469578,20.57160227056765,7.589836642534857,11.616269891068884,2.973675381249828,3179,96,1046,1604,66.84898139291428,38.44173737748633,0.0007295221001282,False
0.3,0.7324189471035086,2.0,3330.0,21.13566,0.2,68900.0,0.33,276.0,2700.0,23.728594505632945,3.502740508080327,9457.399371816882,15.944920547608609,5.016299408597399,7.783673958024336,1.5135589005170718,4797,114,1586,2408,55.19924784086925,31.717540161680297,0.0005604734188006,False
0.31,0.7050122036526159,2.0,3331.0,21.13566,0.2,68900.0,0.33,276.0,2700.0,22.030120102858582,3.352274491447572,9051.141126908444,15.105461226645954,4.590847600179237,6.924658876212629,1.2385731087316652,4947,112,1582,2524,52.57430838114447,30.294014624041463,0.0005189563697234,False
0.32,0.9996491265334028,2.0,3332.0,21.13566,0.3,68900.0,0.33,276.0,2700.0,39.46493276844183,6.2457601042354725,16863.552281435776,25.11951515773173,10.463159420355122,14.3454176107101,4.21739931611965,3766,106,1242,1897,68.61120974030631,39.4330530654162,0.000804584461823,False
0.33,0.6600419612956805,2.0,3333.0,21.13566,0.3,68900.0,0.33,276.0,2700.0,19.285194410736924,3.106790800976428,8388.335162636355,13.76893900598652,3.941793685376799,5.516255404750405,0.8350028844003714,1865,68,616,935,45.93558765654488,26.41624748357359,0.0004528036719328,False
0.34,0.7666458236601167,2.0,3334.0,21.13566,0.3,68900.0,0.33,276.0,2700.0,24.668591335788907,4.111342421979672,11100.624539345115,17.019787337847227,5.580354925345235,7.64880399794168,1.4690125033655628,2503,82,830,1252,51.72072019384914,29.76976237258071,0.0005330524355407,False
0.3500000000000001,0.9260310243598004,2.0,3335.0,21.13566,0.3,68900.0,0.33,276.0,2700.0,33.82122095029692,5.828916476286855,15738.074485974508,22.412932300906792,8.714370760573004,11.408288649390126,2.885454284286149,3316,98,1096,1666,59.17011380790359,33.94480384537465,0.0006689384160864,False
0.36,0.6685801030517593,2.0,3336.0,21.13566,0.2,68900.0,0.33,276.0,2700.0,19.09310777011016,3.339043300722573,9015.416911950946,14.018784909549806,4.060420144698244,5.074322860560352,0.7213768439756714,4631,100,1286,2510,49.433978371872776,28.535913768169625,0.0004353781816289,False
0.37,0.7265899960192721,2.0,3337.0,21.13566,0.3,68900.0,0.33,276.0,2700.0,21.843738005814696,3.935004135954196,10624.511167076327,15.764801192636565,4.923882614929579,6.078936813178133,0.9888784789753832,2164,74,718,1081,44.69239140878175,25.729818245246094,0.0004606179159438,False
0.38,0.8906648867697411,2.0,3338.0,21.13566,0.2,68900.0,0.33,276.0,2700.0,30.8553701561862,5.74759668161686,15518.51104036552,21.16112505939564,7.943940351490786,9.694245096790556,2.1963436698739267,7975,134,2028,4461,56.09631924068999,32.252959154122024,0.0005975836381077,False
0.39,0.7139822371000817,2.0,3339.0,21.13566,0.3,68900.0,0.33,276.0,2700.0,20.768435675877345,3.925607533717221,10599.140341036498,15.37813212986956,4.727565514568419,5.390303546007784,0.8019579808511978,1962,70,654,975,42.22518773345018,24.12692841269873,0.0004331290901684,False
0.4,0.8751566858994462,2.0,3340.0,21.13566,0.3,68900.0,0.33,276.0,2700.0,29.430269991376733,5.752012711722181,15530.43432164989,20.62211677367017,7.619956709462757,8.808153217706561,1.867943997740576,2780,88,924,1388,50.13259281518803,28.67515894117863,0.0005503206943483,False
0.4100000000000001,0.9631546768366576,2.0,3341.0,21.13566,0.3,68900.0,0.33,276.0,2700.0,34.556971065662665,6.939831263608808,18737.544411743784,23.760765096152014,9.571331753870217,10.796205969510652,2.6315004902614083,3334,98,1112,1660,53.3979178157385,30.649397442787013,0.000613936065542,False
0.42,0.9992921404971185,2.0,3342.0,21.13566,0.3,68900.0,0.33,276.0,2700.0,36.60267649259847,7.531392519099572,20334.759801568845,25.10606185071947,10.45419450562224,11.496614641879,2.922801986522666,3588,102,1182,1803,53.11270899651026,30.43673322776801,0.0006321512023711,False
0.43,1.086696301632653,2.0,3343.0,21.13566,0.3,68900.0,0.33,276.0,2700.0,42.167103611578256,8.899408205083345,24028.402153725037,28.495566767353672,12.79529872230057,13.671536844224583,3.895890517217225,3887,108,1292,1941,56.37475872318826,32.11760077793454,0.000695952382061,False
0.44,0.9463970534557438,2.0,3344.0,21.13566,0.3,68900.0,0.33,276.0,2700.0,32.73413209598905,7.023100108715328,18962.370293531385,23.14806440139101,9.178301360781523,9.586067694598032,2.155201252066197,2993,92,996,1493,49.53331595877057,28.406730109295363,0.0005599429135433,False
0.45,1.104017266009665,2.0,3345.0,21.13566,0.3,68900.0,0.33,276.0,2700.0,42.78380770039579,9.435504978883472,25475.863442985374,29.190062771922896,13.294873205801922,13.593744928472894,3.85936822691845,4031,110,1338,2012,54.159093158195056,30.76534979433704,0.0006834448747202,False
0.46,0.8713807004152625,2.0,3346.0,21.13566,0.3,68900.0,0.33,276.0,2700.0,27.788012908704644,6.187382927315524,16705.933903751917,20.491792385360043,7.542334060130055,7.296220523344601,1.3549511328145307,2900,86,906,1495,44.82133386221688,25.6677246696606,0.0004880579748135,False
0.4700000000000001,0.7914799282138966,2.0,3347.0,21.13566,0.2,68900.0,0.33,276.0,2700.0,23.1566753961727,5.224372335384817,14105.805305539005,17.818113310633024,6.012906881147437,5.338562085539678,0.7885345457626203,6241,112,1560,3501,43.85784618684137,25.29113405019468,0.00043016581107,False
0.4800000000000001,0.9671612057019788,2.0,3348.0,21.13566,0.3,68900.0,0.33,276.0,2700.0,33.012474492143454,7.691370534950556,20766.7004443665,23.908299252990886,9.666825360320352,9.104175239152568,1.9754548253697968,3516,96,1084,1820,50.607222163102286,29.08474895268015,0.000541659079318,False
0.49,1.134924584168879,2.0,3349.0,21.13566,0.2,68900.0,0.33,276.0,2700.0,43.77910772576528,10.47947790341104,28294.590339209808,30.448044513713484,14.216438347777252,13.331063212051795,3.736960444366213,11576,164,2826,6565,53.804002772232025,30.745014934497394,0.0006681387533123,False
0.5,1.1875710574750211,2.0,3350.0,21.13566,0.3,68900.0,0.33,276.0,2700.0,47.22719907492888,11.545000380932535,31171.50102851785,32.64612488381797,15.876975491029484,14.581074191110917,4.331975110096948,5012,116,1494,2637,54.931229724047206,31.311330336384803,0.0006923652525675,False
0.02,0.5839953664617937,2.0,3352.0,24.15504,0.1,68900.0,0.33,276.0,2700.0,22.7090916468661,0.2270741613078418,613.1002355311729,11.62447029969432,2.9771736121425607,11.08462134717178,2.750099450834719,17897,224,5934,8990,724.944787154462,414.07479754573694,0.0061606429767841,True
0.03,0.6599841450433463,2.0,3353.0,24.15504,0.1,68900.0,0.33,276.0,2700.0,26.671209119478053,0.4000115881244088,1080.031287935904,13.767253413164426,3.9409976656522647,12.903955706313628,3.540986077527856,21353,246,7036,10793,581.9656503860597,331.457150452736,0.0050323944444965,True
0.05,0.5874281880924644,2.0,3355.0,24.15504,0.1,68900.0,0.33,276.0,2700.0,22.101196174489857,0.5522681049744481,1491.12388343101,11.71814140538053,3.0172390386061774,10.383054769109329,2.4649709336317294,17466,220,5726,8871,321.0640069972705,183.5122351122248,0.0024729375890337,True
0.0699999999999999,0.4285607586371266,2.0,3357.0,24.15504,0.2,68900.0,0.33,276.0,2700.0,13.814860379392098,0.4828017357586021,1303.5646865482258,7.693447285859795,1.4837021954633938,6.121413093532302,1.0009004597047917,3023,86,992,1529,151.25234149544005,87.30676589671025,0.0011987583179244,False
0.08,0.7484479659472348,2.0,3358.0,24.15504,0.2,68900.0,0.33,276.0,2700.0,30.45953742579612,1.2173091667394167,3286.734750196425,16.44463311355897,5.275877166181044,14.01490431223715,4.058567999441626,6064,134,1996,3064,222.3124474157259,127.22141533270744,0.0023262281947652,False
0.09,0.5221071750598221,2.0,3359.0,24.15504,0.2,68900.0,0.33,276.0,2700.0,17.762902435152235,0.7978037955522063,2154.070247990957,9.98653339783373,2.308937102930496,7.776369037318505,1.5111333073782895,3930,100,1286,1995,139.29306960453914,80.36061223818756,0.0012236308239152,False
0.0999999999999999,0.5567462898212926,2.0,3360.0,24.15504,0.2,68900.0,0.33,276.0,2700.0,19.25263713930974,0.9605374618630949,2593.451147030356,10.891433268907416,2.6704471965740693,8.361203870402326,1.7099097347109744,4212,104,1382,2133,134.26143757724694,77.39975370400145,0.0012071121119139,False
0.11,0.6002501583677187,2.0,3361.0,24.15504,0.2,68900.0,0.33,276.0,2700.0,21.251564724058834,1.1660484199413543,3148.3307338416566,12.070632458253025,3.169744099367755,9.180932265805811,2.003695679426401,4469,108,1460,2273,130.89557370833265,75.35724075542515,0.0012219433326001,False
0.12,0.6509377371046953,2.0,3362.0,24.15504,0.3,68900.0,0.33,276.0,2700.0,23.718902546286586,1.4195150380402617,3832.690602708706,13.504546623741046,3.817643302029473,10.214355922545536,2.398128263989212,2419,80,792,1225,134.21962779930735,77.45679264777992,0.0012561551449823,False
0.13,0.607662486043541,2.0,3363.0,24.15504,0.2,68900.0,0.33,276.0,2700.0,21.14593599060873,1.3698844533494636,3698.688024043552,12.27629081459482,3.259976933018228,8.869645176013913,1.8900924796687644,4430,108,1458,2237,113.47316357535676,65.45685024585876,0.0010632203826384,False
0.14,0.7944226762580632,2.0,3364.0,24.15504,0.3,68900.0,0.33,276.0,2700.0,31.519244473879517,2.2006000930106016,5941.620251128624,17.913739116327566,6.065481747196844,13.605505357551948,3.8648816541862425,3007,94,988,1519,137.26340944719098,79.09778703410518,0.0014492626374574,False
0.15,0.6784959981400608,2.0,3365.0,24.15504,0.3,68900.0,0.33,276.0,2700.0,24.462411257919463,1.8276122608731056,4934.553104357385,14.31124658157298,4.200876912761906,10.151164676346484,2.3732646518888005,2523,82,828,1275,113.8879729661578,65.66836462726106,0.001080227066446,False
0.16,0.7320662895515342,2.0,3366.0,24.15504,0.3,68900.0,0.33,276.0,2700.0,27.235264314607956,2.170242502829235,5859.654757638935,15.93399887199425,5.010678237848204,11.301265442613705,2.8404357350189686,2661,84,872,1347,112.63687383168768,64.93369360197346,0.0011305175348808,False
0.17,0.4986128138367613,2.0,3367.0,24.15504,0.2,68900.0,0.33,276.0,2700.0,14.876405648675496,1.2542047169993586,3386.3527358982683,9.389938351176792,2.081345350917256,5.486467297498706,0.8271406339178973,3258,88,1072,1644,74.47775531681047,42.9421003788461,0.0006444963381137,False
0.18,0.7907085319213322,2.0,3368.0,24.15504,0.3,68900.0,0.33,276.0,2700.0,30.15428752183766,2.701671364728234,7294.512684766231,17.793082475069212,5.999171709907371,12.361205046768449,3.2975003451791367,2950,92,970,1489,108.04973635594015,62.36964948017972,0.0011270999142541,False
0.19,0.5633869257722465,2.0,3369.0,24.15504,0.3,68900.0,0.33,276.0,2700.0,17.512449804447336,1.6493172754151832,4453.156643620995,11.068355613620923,2.7433600650176966,6.444094190826412,1.094042789602513,1701,64,560,855,76.36110102445853,44.04825917456008,0.0006799722667232,False
0.2,0.5859827565201337,2.0,3370.0,24.15504,0.3,68900.0,0.33,276.0,2700.0,18.40123798686861,1.823368637867683,4923.095322242744,11.678663940994277,3.0003298043618454,6.722574045874332,1.1769611664941624,2057,72,676,1037,75.95514075312006,43.85233251891312,0.0006826813852845,False
0.21,0.8134292945973867,2.0,3371.0,24.15504,0.3,68900.0,0.33,276.0,2700.0,30.695279362726392,3.203608140043009,8649.741978116124,18.53660946056667,6.411866298591856,12.158669902159724,3.2082581585488468,3168,94,1040,1602,95.8106953346772,55.177240006244425,0.0010164026482387,False
0.22,0.6038937672986036,2.0,3372.0,24.15504,0.2,68900.0,0.33,276.0,2700.0,18.847666459018047,2.0509421914417043,5537.543916892601,12.171553464367724,3.213908520623115,6.676112994650323,1.1629663291814103,3997,102,1316,2017,71.13016135057076,41.06491986077866,0.0006533598841977,False
0.23,0.6741821381268149,2.0,3373.0,24.15504,0.3,68900.0,0.33,276.0,2700.0,22.24478321646205,2.5326675646823174,6838.202424642257,14.183708926267538,4.139415456323961,8.061074290194512,1.606747891641644,2318,78,764,1166,75.21732060902397,43.41007970490156,0.0007224492632806,False
0.24,0.7091542197843667,2.0,3374.0,24.15504,0.3,68900.0,0.33,276.0,2700.0,23.89261422876919,2.8381607895568206,7663.034131803415,15.231118854065452,4.653674753385645,8.661495374703739,1.8155139638288245,2300,78,758,1157,76.34547727835003,44.07512964008298,0.0007431109385621,False
0.25,0.6730086553893785,2.0,3375.0,24.15504,0.3,68900.0,0.33,276.0,2700.0,21.713359949422717,2.6814450702029458,7239.9016895479535,14.14909626738114,4.122791430809467,7.564263682041572,1.4413463606065209,2237,76,736,1127,69.79500069030519,40.2777134897371,0.0006714939280195,False
0.26,0.5840281280991015,2.0,3376.0,24.15504,0.3,68900.0,0.33,276.0,2700.0,17.016616789924992,2.175349094370585,5873.442554800579,11.625362863858822,2.977554463443272,5.39125392606617,0.8022053690726869,1833,66,606,918,59.67028314441846,34.43491082131767,0.0005420811988652,False
0.27,0.6457965928976417,2.0,3377.0,24.15504,0.3,68900.0,0.33,276.0,2700.0,19.853225714953155,2.6389614927182703,7125.19603033933,13.356164900039063,3.7485961909075782,6.497060814914089,1.1096346981893084,1973,70,652,989,62.32381418707836,35.859611631694904,0.0005949785254689,False
0.28,0.6633816824996892,2.0,3378.0,24.15504,0.1,68900.0,0.33,276.0,2700.0,20.531189348086293,2.8283903474443344,7636.653938099703,13.866448854669652,3.987940852769122,6.664740493416641,1.1595505053247877,25263,210,5520,14915,64.60847890528962,37.29417597872306,0.0006051905042104,False
0.29,0.9172907468931868,2.0,3379.0,24.15504,0.3,68900.0,0.33,276.0,2700.0,34.92819557172255,5.013508155747503,13536.472020518257,22.100640131718368,8.519841671936533,12.82755544000418,3.50633351618903,3423,100,1126,1728,79.5430366100499,45.84548659937161,0.0008948037908627,False
0.3,0.9333677159966804,2.0,3380.0,24.15504,0.3,68900.0,0.33,276.0,2700.0,35.67674787563223,5.2949635135802176,14296.401486666588,22.676556243931493,8.879773770229416,13.000191631700735,3.584810256649199,3386,100,1116,1706,78.48051163166433,45.08124775970295,0.0008890970297325,False
0.31,0.6293207300737406,2.0,3381.0,24.15504,0.3,68900.0,0.33,276.0,2700.0,18.17916229303118,2.7553760309244386,7439.515283495984,12.885120517837075,3.5324316485296814,5.2940417751941045,0.7770556176052428,1920,68,634,963,54.06555381292641,31.11017983115728,0.0005142070800629,False
0.32,0.7537636737747415,2.0,3382.0,24.15504,0.3,68900.0,0.33,276.0,2700.0,24.426988070563095,3.839688952574875,10367.160171952162,16.611778735818014,5.3637359652017205,7.815209334745084,1.5240470126268453,2420,80,796,1220,61.66844129130674,35.535158341262544,0.0006260261435298,False
0.33,0.8973979744685174,2.0,3383.0,24.15504,0.3,68900.0,0.33,276.0,2700.0,32.57278077064268,5.299242550361334,14307.9548859756,21.397024383535125,8.087213588444053,11.175756387107556,2.787971038082719,2962,92,982,1483,70.21785376848418,40.38276948928913,0.0007693168250399,False
0.34,1.019999866504447,2.0,3384.0,24.15504,0.3,68900.0,0.33,276.0,2700.0,40.24756274487806,6.759767561524015,18251.37241611484,25.891744914060823,10.982200212798084,14.355817830817234,4.222432651274069,3884,108,1282,1955,75.34720036268718,43.20835520883725,0.0008977370064669,False
0.3500000000000001,1.0422207074215193,2.0,3385.0,24.15504,0.3,68900.0,0.33,276.0,2700.0,41.46694864135133,7.166918822221353,19350.68081999765,26.746825063055454,11.567013878105277,14.720123578295876,4.400095055883924,3859,108,1276,1939,74.48454379764004,42.68848996264098,0.0009015099118989,False
0.36,0.856990401846055,2.0,3386.0,24.15504,0.3,68900.0,0.33,276.0,2700.0,29.347662934063177,5.184863230234116,13999.130721632113,19.99841060272237,7.251007246265858,9.349252331340807,2.0661440160317417,2816,88,932,1412,61.84178464799008,35.52709856278823,0.0006683689333462,False
0.37,0.9653114316257572,2.0,3387.0,24.15504,0.2,68900.0,0.33,276.0,2700.0,35.77450588210057,6.51219619306708,17582.929721281114,23.840134083146,9.622663466493748,11.934371798954569,3.110467273426668,8680,146,2334,4763,69.77612105521516,40.11897065877222,0.0007768127586353,False
0.38,0.8658579586047898,2.0,3388.0,24.15504,0.3,68900.0,0.33,276.0,2700.0,29.37368871136845,5.466077207101485,14758.408459174008,20.30182577679943,7.429688102613081,9.071862934569022,1.9636108955115965,2861,90,946,1436,59.41387025667906,34.13165899076882,0.0006459765009303,False
0.39,1.0099241697686057,2.0,3389.0,24.15504,0.3,68900.0,0.33,276.0,2700.0,38.12763946302864,7.31065227221173,19738.76113497167,25.508111265879748,10.723257673547684,12.619528197148888,3.412605401335956,3659,104,1218,1826,66.02553213291476,37.76130575710731,0.0007827606380686,False
0.4,0.9469813836053684,2.0,3390.0,24.15504,0.3,68900.0,0.33,276.0,2700.0,33.802596260721444,6.626477965591126,17891.490507096038,23.169310216597303,9.19183367958404,10.63328604412414,2.565355713992916,3070,94,1020,1534,61.21721153265623,35.0165409544699,0.000701190760661,False
0.4100000000000001,0.8837382465403998,2.0,3391.0,24.15504,0.3,68900.0,0.33,276.0,2700.0,29.69304831895729,5.942727100534203,16045.363171442348,20.91963344145072,7.798201910161882,8.773414877506568,1.85547480962768,2793,88,928,1395,56.82244925541901,32.729150588941586,0.0006235458324953,False
0.42,0.8702587623283413,2.0,3392.0,24.15504,0.3,68900.0,0.33,276.0,2700.0,28.658874764606967,5.863194156221355,15830.624221797658,20.45313886101324,7.519365224171992,8.205735903593727,1.6561710679506367,2816,88,928,1414,55.27580148437729,31.712252404569305,0.0005993200151221,False
0.43,0.8628035571330246,2.0,3393.0,24.15504,0.2,68900.0,0.33,276.0,2700.0,27.989781131062752,5.851283871772512,15798.46645378578,20.19709226883912,7.367838184852456,7.792688862223631,1.5165543130799444,7521,126,1868,4235,56.25507659786053,32.399556470014915,0.0005903507544084,False
0.44,0.8085831537330375,2.0,3394.0,24.15504,0.3,68900.0,0.33,276.0,2700.0,24.71587155225327,5.259082789093456,14199.523530552333,18.37693309204383,6.322422423453128,6.338938460209437,1.0633396343596724,2309,78,768,1149,48.162546756968936,27.56415063790339,0.0005231184295784,False
0.45,1.0148964655262631,2.0,3395.0,24.15504,0.3,68900.0,0.33,276.0,2700.0,36.80584123438944,8.090462524032045,21844.24881488652,25.69711328517447,10.85056117647856,11.10872794921497,2.760098652446516,3477,100,1158,1730,58.449328903170894,33.36670597777832,0.000694001379681,False
0.46,0.82543100281683,2.0,3396.0,24.15504,0.3,68900.0,0.33,276.0,2700.0,25.204849122486472,5.593255256485344,15101.789192510429,18.93459686461673,6.636721920404043,6.270252257869746,1.0434666639186991,2573,80,840,1291,48.07858194144806,27.497060437825134,0.0005205482221316,False
0.4700000000000001,0.9258220241878096,2.0,3397.0,24.15504,0.3,68900.0,0.33,276.0,2700.0,30.74443230040136,7.00749520787855,18920.237061272088,22.40544226929282,8.70968723659536,8.338990031108537,1.7021920287168104,3111,90,986,1592,56.15989967400885,32.36765811124386,0.0005922875014258,False
0.4800000000000001,1.0393603673824898,2.0,3398.0,24.15504,0.3,68900.0,0.33,276.0,2700.0,37.59700667193543,8.791658258100611,23737.47729687165,26.63606042627408,11.49066732473638,10.960946245661344,2.699009066635769,3521,100,1142,1778,55.835473660833465,31.92937106939329,0.0006786774594372,False
0.49,1.0471580472957025,2.0,3399.0,24.15504,0.3,68900.0,0.33,276.0,2700.0,37.840875084039496,9.024610906188222,24366.4494467082,26.938503846205887,11.699544983566817,10.90237123783361,2.674934077378593,3560,100,1146,1805,55.73672099250288,31.7748686724736,0.0006736537012861,False
0.5,0.8713677801920785,2.0,3400.0,24.15504,0.2,68900.0,0.33,276.0,2700.0,26.89117102282186,6.460993367906316,17444.682093347055,20.491347071858385,7.542069304475775,6.3998239509634764,1.0810759365694589,7072,120,1748,3988,50.330010854092265,28.96387530296095,0.0005276186694199,False
0.01,0.3293885025085805,2.0,3401.0,27.17442,0.05,68900.0,0.33,276.0,2700.0,10.798066204460063,0.0539882366271978,145.7682388934343,5.502628816757426,0.831402691625068,5.295437387702638,0.7774144549978701,35501,290,11750,17870,882.355965466353,502.04120932892783,0.0060818874227563,True
0.02,0.5654151838831455,2.0,3402.0,27.17442,0.1,68900.0,0.33,276.0,2700.0,21.714718841556135,0.2171304332547446,586.2521697878105,11.122614187832024,2.7658645547865053,10.592104653724114,2.5487341215317607,17076,218,5660,8580,741.2444154577507,422.24382705845886,0.006567673981563,True
0.03,0.4511052539853603,2.0,3403.0,27.17442,0.1,68900.0,0.33,276.0,2700.0,15.7461159387867,0.236135190414036,637.5650141178971,8.225961336062216,1.6631257139922924,7.520154602724485,1.4269905235782565,12955,182,4258,6562,429.7790413655717,245.24944131411692,0.0031512076285828,True
0.04,0.6335236910721262,2.0,3404.0,27.17442,0.1,68900.0,0.33,276.0,2700.0,24.889833550619336,0.4976626297258339,1343.6891002597515,13.004634830904928,3.586838309025977,11.885198719714408,3.0891756793001437,19994,236,6572,10130,585.1894388337274,336.6608881225971,0.0049845186595698,True
0.05,0.7449454799012825,2.0,3405.0,27.17442,0.1,68900.0,0.33,276.0,2700.0,31.136751391159503,0.7781569853911281,2101.0238605560457,16.334890047067297,5.218472344938492,14.801861344092206,4.440315359547364,24363,268,8010,12342,463.5230790309628,264.18437633860304,0.0041727232027087,True
0.06,0.3903830546510988,2.0,3406.0,27.17442,0.08,68900.0,0.33,276.0,2700.0,12.344172067521972,0.3698727726835419,998.6564862455632,6.820799573864595,1.2067584288616002,5.523372493657377,0.8368856561780582,15592,194,5122,7903,180.30141836734725,103.5690584647986,0.0013827121618674,False
0.0699999999999999,0.6642695951520092,2.0,3407.0,27.17442,0.2,68900.0,0.33,276.0,2700.0,25.79812599203032,0.9022160322009396,2435.983286942537,13.892420413949685,4.000264576921824,11.90570557808064,3.0980485447208843,5210,122,1712,2636,253.64944933228836,145.08334616031814,0.0024445885480415,False
0.08,0.4169870024399644,2.0,3408.0,27.17442,0.2,68900.0,0.33,276.0,2700.0,13.08677424233015,0.5223986394007808,1410.4763263821085,7.425030616895997,1.3962166537989256,5.661743625434154,0.8738180143981448,2976,84,968,1518,146.62950167488847,84.53076769825452,0.0011510921444191,False
0.09,0.5881744706244496,2.0,3409.0,27.17442,0.2,68900.0,0.33,276.0,2700.0,21.11748362543665,0.9487599491150052,2561.651862610514,11.738544343915752,3.02599169515216,9.378939281520896,2.077231746037155,4470,108,1460,2274,176.3435599573675,101.68617126369335,0.0016127437497517,False
0.0999999999999999,0.5971718057724233,2.0,3410.0,27.17442,0.2,68900.0,0.33,276.0,2700.0,21.33942620467504,1.0648769151312922,2875.167670854489,11.985628003161848,3.1327173345514754,9.353798201513188,2.067840419420184,4484,108,1464,2282,160.94662736634302,92.73397850408472,0.0014923519523699,False
0.11,0.5844706043527359,2.0,3411.0,27.17442,0.2,68900.0,0.33,276.0,2700.0,20.42876481083117,1.1207944247144292,3026.144946728959,11.637420412012911,2.982701077858342,8.791344398818255,1.8619066531439128,4233,106,1388,2145,144.10950039275377,83.15673005782962,0.0013251513816243,False
0.12,0.7932295394848906,2.0,3412.0,27.17442,0.3,68900.0,0.33,276.0,2700.0,32.03055016198274,1.9182138949820275,5179.177516451474,17.87494141448048,6.044131355351899,14.155608747502257,4.125917460369871,3133,96,1026,1588,178.8140592756213,102.94053645887112,0.0019084228332445,False
0.13,0.7790380306692968,2.0,3413.0,27.17442,0.3,68900.0,0.33,276.0,2700.0,30.86585477152984,2.0016791741094795,5404.533770095594,17.416214124096147,5.7937199689877605,13.449640647433691,3.792040794878281,3044,94,1000,1538,163.17876157409725,94.08870789685328,0.0016998312158276,False
0.14,0.4859102007323334,2.0,3414.0,27.17442,0.2,68900.0,0.33,276.0,2700.0,14.923608007894314,1.0389055403916343,2805.044959057413,9.073157388409602,1.964084862744294,5.850450619484713,0.9251793223526594,3240,88,1068,1632,97.3201114175979,56.17659625222094,0.0008349268587819,False
0.15,0.603235858431691,2.0,3415.0,27.17442,0.3,68900.0,0.33,276.0,2700.0,20.430254059916827,1.525200471023184,4118.041271762597,12.153305961362369,3.205906750868245,8.276948098554458,1.6807062798450616,2140,74,700,1084,114.28957593182626,65.93654774275358,0.0010364556044473,False
0.16,0.8353157310259394,2.0,3416.0,27.17442,0.3,68900.0,0.33,276.0,2700.0,33.48227981312455,2.6700037427105627,7209.010105318519,19.265101940819424,6.825516717785458,14.217177872305124,4.155512975074895,3347,98,1094,1700,142.21664430599537,82.09177613259247,0.0015432450979575,False
0.17,0.8092803550621996,2.0,3417.0,27.17442,0.3,68900.0,0.33,276.0,2700.0,31.56891927801542,2.673068375492852,7217.2846138306995,18.399868954197814,6.335242840378128,13.169050323817608,3.662174464885276,3071,94,1006,1556,130.88750971319533,75.54946567318859,0.0013823762551243,False
0.18,0.8739766683609224,2.0,3418.0,27.17442,0.3,68900.0,0.33,276.0,2700.0,35.354128689122625,3.169657069783879,8558.074088416473,20.58135114602774,7.595646305507445,14.772777543094886,4.4259892357235655,3337,100,1098,1684,132.6711205584288,76.58861258743995,0.0014791744779386,False
0.19,0.5572414763022007,2.0,3419.0,27.17442,0.3,68900.0,0.33,276.0,2700.0,17.214260403358598,1.6209892823115095,4376.6710622410765,10.904587973906285,2.675843743849041,6.3096724294523145,1.0548544615375308,1707,64,560,861,84.70870354193687,48.89860681889432,0.0007567547928422,False
0.2,0.7419664430261403,2.0,3420.0,27.17442,0.3,68900.0,0.33,276.0,2700.0,26.74343218817592,2.6575880579984474,7175.487756595808,16.24179080453355,5.169948833546355,10.501641383642369,2.512360775547908,2613,84,858,1320,144.62547522272928,83.45179274856856,0.0015923357188758,False
0.21,0.7890990450519306,2.0,3421.0,27.17442,0.3,68900.0,0.33,276.0,2700.0,29.232282099373503,3.0499934273901057,8234.982253953285,17.740904812974566,5.9705759756610775,11.49137728639894,2.920582548270972,2972,92,976,1502,106.54029956358129,61.46044600399375,0.001094082625586,False
0.22,0.7591044129946767,2.0,3422.0,27.17442,0.3,68900.0,0.33,276.0,2700.0,27.207221615201053,2.9704932586217336,8020.331798278681,16.78042663182368,5.452905176573271,10.426794983377372,2.4824119179515374,2622,84,860,1326,98.31467107590127,56.746558741058365,0.0009929259654664,False
0.23,0.7444410185073075,2.0,3423.0,27.17442,0.3,68900.0,0.33,276.0,2700.0,26.10945017741586,2.977104265192005,8038.181516018415,16.319109206601016,5.210236004215876,9.790340970814842,2.2331317390238703,2526,82,830,1275,93.27982577287088,53.84356142097844,0.000928317783634,False
0.24,0.8657662791826017,2.0,3424.0,27.17442,0.3,68900.0,0.33,276.0,2700.0,33.08307230114541,3.9410157582419623,10640.7425472533,20.298678733711856,7.427826987217661,12.78439356743355,3.4868112289756983,3281,98,1080,1655,101.51873510957364,58.534168100058594,0.0011033912752955,False
0.25,0.6150947189640685,2.0,3425.0,27.17442,0.3,68900.0,0.33,276.0,2700.0,18.746827161751455,2.310628471744039,6238.696873708905,12.483887876331298,3.3519877807726,6.26293928542016,1.0413593090285609,1896,68,626,951,71.86794171638086,41.27768283305124,0.0006720696546993,False
0.26,0.6332764472960148,2.0,3426.0,27.17442,0.3,68900.0,0.33,276.0,2700.0,19.439261255048272,2.4902928748365976,6723.790762058813,12.997591980522754,3.5836238646856056,6.441669274525518,1.093330989849008,1987,70,656,997,71.91475189878359,41.39259778675878,0.0006752449191941,False
0.27,0.751888310124464,2.0,3427.0,27.17442,0.3,68900.0,0.33,276.0,2700.0,25.52643298565325,3.4048444742627817,9193.080080509511,16.552729251591348,5.332638222636118,8.973703734061907,1.927793748373336,2475,82,814,1248,80.80004263619392,46.59721958373337,0.0008152039933645,False
0.28,0.9372188607649092,2.0,3428.0,27.17442,0.3,68900.0,0.33,276.0,2700.0,36.50220959547862,5.06433318207927,13673.69959161403,22.815478029985726,8.967371855497746,13.686731565492892,3.903038673418475,3370,100,1112,1696,94.23774997694184,54.21773264092069,0.0010727670326055,False
0.29,0.6789891620754156,2.0,3429.0,27.17442,0.3,68900.0,0.33,276.0,2700.0,21.115488365430565,3.0106656108351664,8128.797149254949,14.325856579057689,4.207938305756459,6.789631786372876,1.1972726949212924,2238,76,738,1125,67.91142102223455,38.97874149843238,0.0006713530612375,False
0.3,0.6701560428446616,2.0,3430.0,27.17442,0.3,68900.0,0.33,276.0,2700.0,20.43840639704009,3.009212291791351,8124.873187836647,14.065100874179226,4.082549393073792,6.373305522860864,1.0733371012824406,2074,72,686,1039,65.65586372323529,37.85872061392081,0.0006384905535809,False
0.31,0.9618601460178626,2.0,3431.0,27.17442,0.3,68900.0,0.33,276.0,2700.0,37.24442137858532,5.710491189185328,15418.326210800386,23.713182259451425,9.540603514442934,13.5312391191339,3.8301123252576055,3629,104,1202,1820,87.83178858619185,50.47205263335477,0.001010623925081,False
0.32,0.8535357848928276,2.0,3432.0,27.17442,0.3,68900.0,0.33,276.0,2700.0,30.162498167004216,4.757370568005451,12844.900533614718,19.880741248130374,7.182123735582917,10.281756918873842,2.4247531675774656,2906,90,960,1460,77.63081253410589,44.55506469194724,0.0008332169697915,False
0.33,0.9194828719943248,2.0,3433.0,27.17442,0.2,68900.0,0.33,276.0,2700.0,33.953133968251194,5.52700082796674,14922.902235510195,22.1787848947449,8.56837466940627,11.774349073506292,3.0413738414395297,7145,142,2256,3667,79.25894551570137,45.56466260447468,0.0008997076816345,False
0.34,0.8714113905781846,2.0,3434.0,27.17442,0.1,68900.0,0.33,276.0,2700.0,30.719481422712622,5.1399937367560655,13877.983089241376,20.49285018142397,7.542962972809175,10.226631241288649,2.402969236053109,43148,264,8004,26578,78.75408360210726,44.45371959012934,0.0008226046754517,False
0.3500000000000001,0.6646058223202489,2.0,3435.0,27.17442,0.2,68900.0,0.33,276.0,2700.0,19.09949308030848,3.252614099038875,8782.058067404963,13.902260274045608,4.004937240232142,5.197232806262869,0.7523231411932665,4303,100,1276,2269,62.29781876799998,35.948820499437524,0.0005659433767656,False
0.36,0.7948334111448311,2.0,3436.0,27.17442,0.2,68900.0,0.33,276.0,2700.0,25.76743177905177,4.54042162233206,12259.13838029656,17.927103423903716,6.072842289252933,7.840328355148053,1.5324206669208733,6239,120,1738,3376,70.92399690099155,40.89962094866237,0.0006914435953053,False
0.37,0.7007453371455772,2.0,3437.0,27.17442,0.3,68900.0,0.33,276.0,2700.0,20.50740175784169,3.687781930079193,9957.01121121382,14.976466850780906,4.526669977187594,5.530934907060789,0.838888047108401,1941,70,646,966,57.68213541733391,33.16586555512264,0.0005687800427713,False
0.38,0.7557201284093995,2.0,3438.0,27.17442,0.3,68900.0,0.33,276.0,2700.0,23.16885355083617,4.287158526600354,11575.328021820957,16.67347573523257,5.396296494705148,6.4953778156036,1.109137968104794,2152,74,714,1075,58.785533047293455,33.80353337071346,0.0006078200887375,False
0.39,0.9294645658301914,2.0,3439.0,27.17442,0.2,68900.0,0.33,276.0,2700.0,32.972341010679685,6.305369074003678,17024.49649980993,22.53613881070115,8.791537925653179,10.436202199978537,2.4861688516495013,8702,140,2194,4883,72.80305371374526,41.92242868649771,0.0007958501482479,False
0.4,0.8915568807850045,2.0,3440.0,27.17442,0.3,68900.0,0.33,276.0,2700.0,30.405786377556677,5.947115988958169,16057.213170187057,21.192311337592,7.962829855900337,9.213475039964674,2.0157138669421686,2865,90,950,1434,65.45533819119863,37.49299323504904,0.0007228393172426,False
0.4100000000000001,1.0970323250051,2.0,3441.0,27.17442,0.3,68900.0,0.33,276.0,2700.0,43.47408783553364,8.76784020143236,23673.16854386737,28.909089500071516,13.091964344035544,14.564998335462125,4.324124142603184,4005,110,1332,2001,76.6022984396282,43.42349044562016,0.0012380188236202,False
0.42,0.9375205433150438,2.0,3442.0,27.17442,0.3,68900.0,0.33,276.0,2700.0,32.69535105822815,6.710854177881804,18119.30628028087,22.82637632440935,8.97425653094749,9.8689747338188,2.263402353065687,2970,92,990,1479,66.41457851100462,37.95320568766991,0.0007409441002651,False
0.43,0.8812096835438215,2.0,3443.0,27.17442,0.3,68900.0,0.33,276.0,2700.0,29.060235353764792,6.081431529653454,16419.865130064325,20.83177760879285,7.745416407503047,8.228457744971937,1.6639848778495931,2809,88,924,1411,60.458567075075656,34.62807021570728,0.0006716780426962,False
0.44,1.112425696352675,2.0,3444.0,27.17442,0.2,68900.0,0.33,276.0,2700.0,43.66183760588955,9.42719532089344,25453.42736641229,29.529923238407715,13.541743416759484,14.131914367481835,4.114548095866043,11576,164,2834,6557,74.33611551670664,42.489674346994775,0.0009169583902049,False
0.45,1.0597292674507903,2.0,3445.0,27.17442,0.3,68900.0,0.33,276.0,2700.0,39.76319394557133,8.75586688404693,23640.840586926708,27.429313162863465,12.04127572111896,12.333880782707867,3.28540883707203,3854,106,1268,1934,67.76362763894382,38.681506635695165,0.0008293751605136,False
0.46,1.053038798235098,2.0,3446.0,27.17442,0.3,68900.0,0.33,276.0,2700.0,39.0394826942569,8.77522097799254,23693.096640579857,27.167607449995806,11.85863684003452,11.87187524426109,3.0834158620419814,3956,106,1274,2005,65.90516988346276,37.48653322672529,0.0008069763694025,False
0.4700000000000001,1.0862827856538049,2.0,3447.0,27.17442,0.3,68900.0,0.33,276.0,2700.0,40.99628035712429,9.416679501208272,25425.034653262333,28.479078714546954,12.783518759301304,12.517201642577335,3.3668392580930337,3934,106,1272,1992,66.65753830532815,37.98869605240757,0.0008245039011597,False
0.4800000000000001,0.9839758338283948,2.0,3448.0,27.17442,0.3,68900.0,0.33,276.0,2700.0,34.05677131540013,7.942001772532161,21443.40478583684,24.53187111203323,10.074067129039951,9.524900203366895,2.132065356507792,3434,96,1094,1749,63.72062730046134,36.53008051933523,0.0007103179236992,False
0.49,0.9527491420721522,2.0,3449.0,27.17442,0.3,68900.0,0.33,276.0,2700.0,31.885481293372145,7.565539427474273,20426.956454180538,23.37948207762773,9.326074373156498,8.50599921574441,1.7605349456822248,3051,90,968,1559,61.2623558154548,35.055105407631096,0.0006697928207087,False
0.5,0.87597525038837,2.0,3450.0,27.17442,0.3,68900.0,0.33,276.0,2700.0,27.15140965149616,6.526053025074893,17620.343167702213,20.650415975236143,7.636848823152127,6.500993676260016,1.110795798077234,2805,82,844,1467,59.661835558515655,34.2958415225437,0.0005905275020149,False
0.02,0.3611293303272118,2.0,3452.0,30.1938,0.08,68900.0,0.33,276.0,2700.0,11.926016942351875,0.1192434142626991,321.9572185092877,6.176920603288799,1.0166950000969668,5.749096339063078,0.8974515858342677,15436,192,5088,7798,533.2927533282013,304.25522812554453,0.0038834825499007,True
0.03,0.7018202480815097,2.0,3453.0,30.1938,0.1,68900.0,0.33,276.0,2700.0,29.1229987267738,0.4367884322338448,1179.328767031381,15.00892005608744,4.542785784738561,14.11407867068636,4.105997352504716,23592,262,7794,11895,791.1741787096378,450.4320789053481,0.0070248294109372,True
0.04,0.4113935866503229,2.0,3454.0,30.1938,0.1,68900.0,0.33,276.0,2700.0,13.696904808207089,0.2738040548775896,739.2709481694918,7.296515691027978,1.3550451555290426,6.400389117179109,1.081241100651453,11215,166,3688,5677,332.3504946093732,190.00016395213265,0.0023839084365548,True
0.05,0.4721407992913126,2.0,3455.0,30.1938,0.1,68900.0,0.33,276.0,2700.0,16.27849392797576,0.4067005488115953,1098.0914817913074,8.73435307938163,1.8414909502851315,7.544140848594129,1.4347904014735362,13114,184,4312,6640,299.0513849273832,170.93038468630897,0.0023090422403276,True
0.06,0.4301113329855907,2.0,3456.0,30.1938,0.08,68900.0,0.33,276.0,2700.0,14.10199145232082,0.4226073542273162,1141.039856413754,7.729663682429016,1.4956595277759643,6.372327769891805,1.073052173548648,18369,212,6024,9327,232.7663358178768,133.32802359146916,0.0017337307309057,False
0.0699999999999999,0.551451299628554,2.0,3457.0,30.1938,0.1,68900.0,0.33,276.0,2700.0,19.71407809969606,0.6892743559692384,1861.0407611169437,10.751156311828588,2.613148857710228,8.962921787867472,1.9238745017409895,15755,206,5168,7997,254.41604072799623,145.7083993616219,0.0020717512550716,False
0.08,0.7554086956228067,2.0,3458.0,30.1938,0.2,68900.0,0.33,276.0,2700.0,30.883572285556163,1.2342705611298233,3332.530515050523,16.66364823214697,5.391105358061333,14.219924053409194,4.15683479693151,6251,136,2048,3173,290.1843325623756,165.81753402776917,0.0029574110006219,True
0.09,0.4256419160707755,2.0,3459.0,30.1938,0.1,68900.0,0.33,276.0,2700.0,13.2589079319063,0.5951240429061391,1606.8349158465755,7.625436508582778,1.461345542501648,5.633471423323522,0.8662214995955089,10926,164,3594,5529,141.20981380136016,81.43170984938041,0.0011761311525856,False
0.0999999999999999,0.4987512418396394,2.0,3460.0,30.1938,0.2,68900.0,0.33,276.0,2700.0,16.402353736897332,0.8180232917424735,2208.6628877046783,9.393412841027708,2.082645421808148,7.008940895869625,1.2646221300656744,3709,94,1198,1906,153.33268689990533,88.44457736095853,0.0013068742905456,False
0.11,0.7232057652918795,2.0,3461.0,30.1938,0.3,68900.0,0.33,276.0,2700.0,28.09161156661817,1.542250996282714,4164.077689963327,15.660617509362858,4.870707262311366,12.430994057255312,3.328456266028652,2854,88,928,1456,199.2453036144611,114.88578238723338,0.0019804364128668,False
0.12,0.5361148855084388,2.0,3462.0,30.1938,0.2,68900.0,0.33,276.0,2700.0,17.753775182547244,1.061607396215898,2866.339969782925,10.348834160892636,2.451357316724069,7.404941021654608,1.3897499205081714,3871,100,1264,1969,137.81728678216405,79.56710063224207,0.0012121002241702,False
0.13,0.7901564375539598,2.0,3463.0,30.1938,0.3,68900.0,0.33,276.0,2700.0,31.54745362210066,2.045983099396586,5524.154368370784,17.775176892183566,5.989353192432874,13.772276729917095,3.943370093036287,3033,94,994,1536,226.50827891286647,130.13549533525918,0.0019372455502307,False
0.14,0.4541530084247291,2.0,3464.0,30.1938,0.2,68900.0,0.33,276.0,2700.0,13.486896024251118,0.9383357015366108,2533.5063941488493,8.298931225838768,1.6883075620327734,5.187964798412351,0.7499718604961626,2898,84,956,1458,102.95702125116556,59.41225677319218,0.0008527728996644,False
0.15,0.6105350061656449,2.0,3465.0,30.1938,0.3,68900.0,0.33,276.0,2700.0,20.80884785379046,1.5535950055637104,4194.706515022018,12.356361427638262,3.2953557779894727,8.452486426152198,1.7417607724257622,2185,74,716,1105,128.12363627236988,73.92254173275825,0.0011718062198057,False
0.16,0.6180746475863086,2.0,3466.0,30.1938,0.3,68900.0,0.33,276.0,2700.0,20.9606803975895,1.6682757894677391,4504.344631562895,12.567513118305104,3.389313418776932,8.393167279284397,1.721037629309193,2208,74,720,1122,123.015017869224,71.02271300400972,0.0011201479037516,False
0.17,0.7923881143799825,2.0,3467.0,30.1938,0.3,68900.0,0.33,276.0,2700.0,30.53655852949557,2.5853177118690653,6980.357822046476,17.847601973261877,6.0291024341907775,12.688956556233691,3.443784722321712,3013,94,990,1522,492.2272271501751,251.773721237269,0.0015558028636102,True
0.18,0.5981930866777341,2.0,3468.0,30.1938,0.3,68900.0,0.33,276.0,2700.0,19.46664765737256,1.739783776926375,4697.416197701213,12.013802864731169,3.144972412562328,7.45284479264139,1.4051886356359529,2076,72,682,1047,105.66963763065212,61.00204686424155,0.0009622040810094,False
0.19,0.7277242140587983,2.0,3469.0,30.1938,0.3,68900.0,0.33,276.0,2700.0,26.190556821434683,2.4737374420289786,6679.091093478242,15.799782543484437,4.941783172015435,10.390774277950248,2.468045729986456,2640,84,866,1335,119.34061135120268,68.89848985634248,0.0011938377343022,False
0.2,0.8249372302913367,2.0,3470.0,30.1938,0.3,68900.0,0.33,276.0,2700.0,31.679096952107127,3.1511545343915683,8508.117242857235,18.918151519087075,6.627376597073044,12.760945433020051,3.476222062681476,3248,96,1064,1646,127.42014512002982,73.51240437210863,0.0013565422198903,False
0.21,0.8115338096842423,2.0,3471.0,30.1938,0.3,68900.0,0.33,276.0,2700.0,30.58023358303427,3.191528333175332,8617.126499573396,18.474084503878977,6.376789706837839,12.106149079155294,3.185261373662507,2936,92,964,1484,120.26696071164984,69.34155295120081,0.0012647325214175,False
0.22,0.7024333247253511,2.0,3472.0,30.1938,0.3,68900.0,0.33,276.0,2700.0,24.01459987124062,2.6193048667861856,7072.123140322701,15.027442782214884,4.551993080516997,8.987157089025736,1.9326882137308117,2349,80,774,1182,100.43941504297956,57.97329587317368,0.0009939673581687,False
0.23,0.913019878184549,2.0,3473.0,30.1938,0.3,68900.0,0.33,276.0,2700.0,36.39423510273547,4.159854531603765,11231.607235330164,21.948739287804383,8.425777276995241,14.445495814931084,4.265922745391476,3499,102,1154,1762,148.22608505892612,80.57390551441847,0.0021456870592295,False
0.24,0.7017269088555514,2.0,3474.0,30.1938,0.3,68900.0,0.33,276.0,2700.0,23.48737870623574,2.789532526852809,7531.737822502584,15.006100850766831,4.541384995330979,8.48127785546891,1.7518524684781704,2296,78,758,1153,93.28741707530278,53.83207780183409,0.0009159078122275,False
0.25,0.6431298342985481,2.0,3475.0,30.1938,0.08,68900.0,0.33,276.0,2700.0,20.16182077425253,2.4875026733066754,6716.257217928023,13.27945959495918,3.713080840295492,6.8823611792933495,1.2255781669888162,44318,256,8416,27176,86.702967729715,49.38326427643457,0.0008008237697126,False
0.26,0.6067775203360466,2.0,3476.0,30.1938,0.2,68900.0,0.33,276.0,2700.0,18.12056377834366,2.3188622028650108,6260.927947735529,12.251664454534382,3.249123734825511,5.868899323809277,0.9302615319605004,3829,98,1268,1921,76.55990688144253,44.1032202561704,0.0007121715425643,False
0.27,0.958487302048454,2.0,3477.0,30.1938,0.3,68900.0,0.33,276.0,2700.0,38.197836879146,5.115483999884305,13811.806799687623,23.589405063626582,9.460831471609271,14.608431815519417,4.345347471724968,3795,106,1252,1911,110.463532645955,63.56956001682186,0.0012684714171157,False
0.28,0.7672550901225947,2.0,3478.0,30.1938,0.2,68900.0,0.33,276.0,2700.0,26.14569219145477,3.614420745515933,9758.936012893018,17.03918756276033,5.590730420448202,9.106504628694443,1.9763096749322693,5596,124,1862,2797,87.66039645200797,50.492477744600336,0.0009010789596621,False
0.29,0.6951996499745403,2.0,3479.0,30.1938,0.2,68900.0,0.33,276.0,2700.0,21.964616061017608,3.133789126695285,8461.230642077271,14.809495456497404,4.444078519876275,7.155120604520203,1.3102893931809891,4476,110,1490,2235,80.26341821979304,46.24202068429915,0.0007703274722833,False
0.3,0.6188989115596537,2.0,3480.0,30.1938,0.3,68900.0,0.33,276.0,2700.0,17.87604172396456,2.6248575908300684,7087.115495241184,12.590683705134628,3.399681915241983,5.285358018829932,0.7748243244119144,1829,66,606,914,67.864603656802,39.12679682372299,0.0006458294331303,False
0.31,0.6631465367582067,2.0,3481.0,30.1938,0.3,68900.0,0.33,276.0,2700.0,19.86452759111235,3.0166076521265976,8144.840660741814,13.859574130046685,3.984681024680543,6.004953461065664,0.9680733725539454,1943,70,642,974,70.8819157515717,40.85396888271649,0.0006842739462574,False
0.32,0.6338084677757736,2.0,3482.0,30.1938,0.2,68900.0,0.33,276.0,2700.0,18.19366506244978,2.8423572712767444,7674.36463244721,13.012748727535808,3.590542881341258,5.180916334913974,0.7481856100645135,3636,96,1188,1830,66.91254986159316,38.3656189057659,0.0006331302766783,False
0.33,0.8628795817568298,2.0,3483.0,30.1938,0.3,68900.0,0.33,276.0,2700.0,30.46441332808704,4.951361922339656,13368.67719031707,20.19969626003438,7.369373760176957,10.264717068052658,2.4180118378373017,2998,92,994,1501,84.46664104008656,48.59034086805277,0.0009139588199455,False
0.34,0.7645529164744602,2.0,3484.0,30.1938,0.3,68900.0,0.33,276.0,2700.0,24.55333319804368,4.091748538562963,11047.72105412,16.953216184873405,5.54480377295002,7.600117013170273,1.4530552343870573,2459,80,812,1235,75.65440807781394,42.985447076503874,0.0007573095668694,False
0.3500000000000001,0.9842439058803488,2.0,3485.0,30.1938,0.3,68900.0,0.33,276.0,2700.0,37.56702936261987,6.484432948443373,17507.968960797105,24.541870132369212,10.080644778255838,13.025159230250654,3.596211829812465,3653,104,1206,1838,88.95148161559479,50.95308335152766,0.0010397991641192,False
0.36,0.877315898425462,2.0,3486.0,30.1938,0.3,68900.0,0.33,276.0,2700.0,30.56054275160724,5.403181597392047,14588.590312958528,20.69680089175198,7.664564850671454,9.863741859855256,2.2613832532794067,2854,90,948,1426,79.93926089725456,45.96166147747547,0.0008612796024628,False
0.37,0.6979185824044276,2.0,3487.0,30.1938,0.3,68900.0,0.33,276.0,2700.0,20.36327716475316,3.661118880357813,9885.020976966094,14.89126139658276,4.484455653279031,5.472015768170401,0.8233367729212189,1964,70,654,977,61.78873300949699,35.57419094660212,0.0006287244433941,False
0.38,0.7472842900504654,2.0,3488.0,30.1938,0.3,68900.0,0.33,276.0,2700.0,22.71874319267809,4.201637558550316,11344.421408085853,16.408137565074277,5.2567621807909415,6.310605627603813,1.0551246222406254,2184,74,724,1092,64.49281510639089,37.108023214576335,0.0006704468924225,False
0.39,0.9485640561834188,2.0,3489.0,30.1938,0.3,68900.0,0.33,276.0,2700.0,34.166650850928,6.538259492852095,17653.300630700658,23.22689812781168,9.228548674617205,10.939752723116325,2.690289181765108,3057,94,1016,1527,79.13685824971144,45.38346449305156,0.0008985571131282,False
0.4,1.0759833845154267,2.0,3490.0,30.1938,0.3,68900.0,0.33,276.0,2700.0,42.30670419053414,8.327299551553676,22483.708789194923,28.06979896287553,12.492311259941168,14.23690522765861,4.1650117083874925,4010,110,1332,2006,84.62890538472634,48.37014711497142,0.0010456992609064,False
0.4100000000000001,0.780275318920898,2.0,3491.0,30.1938,0.3,68900.0,0.33,276.0,2700.0,23.83192109673723,4.741196019979095,12801.229253943557,17.456006898082254,5.815293459709667,6.375914198654975,1.074097439730572,2319,78,774,1152,62.53137700037023,35.836226657550895,0.0006633129541017,False
0.42,1.0743983092925422,2.0,3492.0,30.1938,0.3,68900.0,0.33,276.0,2700.0,41.61184602213363,8.583318120301957,23174.958924815284,28.00704763554037,12.447868258221655,13.60479838659326,3.864550137919698,3848,108,1284,1916,81.31067976461058,46.31077103236968,0.0009986399617908,False
0.43,1.0567890975386107,2.0,3493.0,30.1938,0.2,68900.0,0.33,276.0,2700.0,40.12751225330392,8.460896063054369,22844.4193702468,27.314166333621948,11.960798208698884,12.813345919681971,3.499902145644516,10522,156,2604,5934,81.61006560510194,46.83759257702667,0.0009667625955101,False
0.44,0.9402062034647756,2.0,3494.0,30.1938,0.3,68900.0,0.33,276.0,2700.0,32.35345768005804,6.939351737210511,18736.24969046838,22.923496726647578,9.035690795831112,9.429960953410465,2.096339058620601,3007,92,1002,1498,69.78152443975685,39.945165574973934,0.0007923914261783,False
0.45,1.0901861629336516,2.0,3495.0,30.1938,0.2,68900.0,0.33,276.0,2700.0,41.82988544702664,9.22087247187542,24896.35567406363,28.634888599971955,12.894987315928915,13.194996847054686,3.6741148440534985,11463,162,2812,6485,79.80608598897096,45.73763618367115,0.0009712238688052,False
0.46,0.9894384750383386,2.0,3496.0,30.1938,0.3,68900.0,0.33,276.0,2700.0,34.91152069602624,7.825789718399497,21129.63223967864,24.73598284393807,10.208633092310189,10.175537852088166,2.3828433739106902,3397,98,1120,1701,71.89525381315549,41.18088740967016,0.0008234176747583,False
0.4700000000000001,1.0518210994673087,2.0,3497.0,30.1938,0.3,68900.0,0.33,276.0,2700.0,38.68539118168739,8.873620544980767,23958.775471448072,27.12009671613933,11.82558380858154,11.565294465548064,2.9519632636007724,4062,106,1272,2092,72.17465012696597,41.21381960403528,0.0008785121689463,False
0.4800000000000001,0.8106439680772684,2.0,3498.0,30.1938,0.2,68900.0,0.33,276.0,2700.0,23.973581664490904,5.52203625631395,14909.497892047664,18.444763103711253,6.360363744972154,5.528818560779651,0.8383274886582042,6565,114,1632,3693,74.1996615210137,42.047458083031486,0.0006240257968777,False
0.49,1.0345532844814342,2.0,3499.0,30.1938,0.1,68900.0,0.33,276.0,2700.0,37.01984104047255,8.82345756551432,23823.33542688866,26.450372725117624,11.363072114846425,10.569468315354923,2.539614549332104,66950,292,9798,43295,78.60135512095832,44.69177227587725,0.0008447767452442,False
0.5,1.1445251088191206,2.0,3500.0,30.1938,0.3,68900.0,0.33,276.0,2700.0,44.16325990233007,10.77901558778336,29103.342087015077,30.843689625390343,14.510652896715944,13.319570276939723,3.731637308932584,4287,110,1334,2212,85.20628233049838,48.271334182036576,0.0009493743450085,False
0.02,0.4928515852880857,2.0,3502.0,33.21318,0.1,68900.0,0.33,276.0,2700.0,17.997486594929864,0.1799581107884804,485.88689912889714,9.245760843057743,2.0276634903073747,8.75172575187212,1.8477053795188945,14079,194,4666,7074,773.4419647309237,444.33064905449504,0.0064390406907473,True
0.03,0.5242912143273426,2.0,3503.0,33.21318,0.1,68900.0,0.33,276.0,2700.0,19.32440778479386,0.2898095681041452,782.4858338811921,10.042697716108552,2.330809394736786,9.281710068685308,2.040999826632641,15538,204,5118,7855,634.4696326909451,361.7615858156297,0.0047261732188699,True
0.04,0.4386832567143015,2.0,3504.0,33.21318,0.1,68900.0,0.33,276.0,2700.0,14.938371743163604,0.2986333935767187,806.3101626571405,7.930966442824938,1.5627790721165875,7.007405300338667,1.2641456785398688,12093,176,3960,6147,395.0899011821624,226.11448030973543,0.0028429801932767,True
0.05,0.6559276327700548,2.0,3505.0,33.21318,0.1,68900.0,0.33,276.0,2700.0,25.877231094691936,0.6466689779795002,1746.0062405446504,13.649198335916388,3.8853902189503033,12.228032758775548,3.2387212409708024,21298,244,7000,10792,512.2125747821569,292.656612357151,0.0040934696757274,True
0.06,0.5757718706651027,2.0,3506.0,33.21318,0.2,68900.0,0.33,276.0,2700.0,21.22557525559871,0.6363148683258428,1718.0501444797756,11.401281042090313,2.882498692192596,9.824294213508397,2.2461838238667533,4650,112,1528,2352,312.94650959009715,179.814830692648,0.0027832847499596,True
0.0699999999999999,0.4298206759652445,2.0,3507.0,33.21318,0.2,68900.0,0.33,276.0,2700.0,13.87148979259075,0.4847837652205555,1308.9161660955,7.722870273625321,1.4934138340891223,6.14861951896543,1.0086300688685668,3047,86,996,1547,209.33389249245127,120.83065360697302,0.0016533224185464,False
0.08,0.6849783193708758,2.0,3508.0,33.21318,0.2,68900.0,0.33,276.0,2700.0,26.705431353541545,1.067144923849236,2881.291294392937,14.503773429300416,4.294270450260238,12.201657924241127,3.227125526411002,5351,124,1762,2702,301.7466838063404,172.8128344746527,0.0027418960548024,True
0.09,0.6094915826805769,2.0,3509.0,33.21318,0.1,68900.0,0.33,276.0,2700.0,22.24668143889713,0.999573850720727,2698.849396945963,12.32725233639326,3.282478049219855,9.919429102503877,2.282904198499128,18125,222,5966,9170,232.71237085212897,133.56195337052648,0.0020653430440229,False
0.0999999999999999,0.5041675813130205,2.0,3510.0,33.21318,0.2,68900.0,0.33,276.0,2700.0,16.661393239818228,0.8309752668885182,2243.6332205989997,9.529738965407724,2.1338921960585613,7.131654274410503,1.302916929170043,3642,94,1188,1854,169.86988524542102,98.0471783789512,0.0014572563503688,False
0.11,0.5497529699461492,2.0,3511.0,33.21318,0.2,68900.0,0.33,276.0,2700.0,18.66252990428163,1.0236515048542043,2763.859063106352,10.706312746049374,2.594927939664552,7.956217158232256,1.5712764348103474,4191,102,1368,2133,166.48129397208413,95.86363761551397,0.0014942782243944,False
0.12,0.7237276034469993,2.0,3512.0,33.21318,0.3,68900.0,0.33,276.0,2700.0,27.84360733011784,1.6669973250701362,4500.892777689368,15.67666354814792,4.878883756480503,12.16694378196992,3.211886431410367,2888,88,932,1484,200.0529905286184,115.37465674659184,0.00200520564183,False
0.13,0.7323800080122616,2.0,3513.0,33.21318,0.3,68900.0,0.33,276.0,2700.0,28.073299173919068,1.8201630602647567,4914.440262714843,15.943714464661344,5.015678551363284,12.129584709257724,3.1955154910985275,2923,88,952,1489,188.23395203160533,108.55128459973402,0.0018910224976544,False
0.14,0.670785288257837,2.0,3514.0,33.21318,0.3,68900.0,0.33,276.0,2700.0,24.29401769285325,1.6948342183387597,4576.052389514651,14.083611472298127,4.091405616617361,10.210406220555123,2.396571398278601,2494,82,822,1255,214.3386499592279,123.46325479651078,0.0017777163401726,False
0.15,0.5565898463322632,2.0,3515.0,33.21318,0.2,68900.0,0.33,276.0,2700.0,18.074050669161675,1.3484852167164612,3640.910085134445,10.887278604626191,2.668743627746114,7.186772064535482,1.3202584110296527,3972,100,1298,2019,127.44680070584224,73.48691095928716,0.0011409296452542,False
0.16,0.8314861085460802,2.0,3516.0,33.21318,0.3,68900.0,0.33,276.0,2700.0,33.24100286649941,2.650701586980553,7156.8942848474935,19.13676355464365,6.751984511732757,14.104239311855752,4.101282924752203,3324,98,1092,1680,174.08502205487744,100.50378510815396,0.0018710731566726,False
0.17,0.6595904773461911,2.0,3517.0,33.21318,0.3,68900.0,0.33,276.0,2700.0,22.920298327813743,1.9379355947261097,5232.426105760496,13.755778537395743,3.935580201476688,9.164519790418,1.9976446067505784,2305,78,756,1165,133.79399930055925,77.24447472577009,0.0012708930928675,False
0.18,0.578102584136932,2.0,3518.0,33.21318,0.3,68900.0,0.33,276.0,2700.0,18.458659279065348,1.649064822878724,4452.475021772555,11.4643650294414,2.9091453003460424,6.994294249623946,1.2600804774673182,2071,72,680,1045,114.12312822350876,65.88812607626532,0.0010138651722437,False
0.19,0.78601085631847,2.0,3519.0,33.21318,0.3,68900.0,0.33,276.0,2700.0,29.59460352264532,2.7971218786439915,7552.229072338777,17.640971688305065,5.915943081154408,11.953631834340252,3.1188212025104165,3010,92,988,1522,140.90927436887068,81.32596497995395,0.001460163430295,False
0.2,0.8332521461565383,2.0,3520.0,33.21318,0.3,68900.0,0.33,276.0,2700.0,32.19280108089941,3.202524947270457,8646.817357630234,19.195901246360872,6.785832964071133,12.996899834538535,3.583308016800676,3250,96,1062,1651,141.71707181516967,81.80754845276294,0.0015142242024306,False
0.21,0.7754200304793157,2.0,3521.0,33.21318,0.3,68900.0,0.33,276.0,2700.0,28.42281931750549,2.9649998352948157,8005.499555296001,17.300075353022002,5.7309182972151325,11.122743964483488,2.765918461920317,2794,88,918,1411,126.62158786972404,73.08641202341974,0.0013051307504358,False
0.22,0.9156780529807472,2.0,3522.0,33.21318,0.3,68900.0,0.33,276.0,2700.0,36.86709691922333,4.033079542064285,10889.31476357357,22.043228009305672,8.484246407009696,14.823868909917657,4.451166864945411,3488,102,1150,1757,140.88261714380735,81.12768396952143,0.0015907107730432,False
0.23,0.8267256621128867,2.0,3523.0,33.21318,0.3,68900.0,0.33,276.0,2700.0,30.951073370353274,3.5338909323798124,9541.505517425494,18.977745248375907,6.661263698935072,11.973328121977367,3.127372766555259,3205,94,1052,1621,123.78424543784348,71.31914838979932,0.0013126105257504,False
0.24,0.5968283887842318,2.0,3524.0,33.21318,0.3,68900.0,0.33,276.0,2700.0,18.060229539207857,2.1382746268094595,5773.341492385541,11.976159784025526,3.1286028921394933,6.08406975518233,0.9903282653300338,1911,68,626,966,90.29910139134007,52.00481080534342,0.0008207174467411,False
0.25,0.9375539240746226,2.0,3525.0,33.21318,0.3,68900.0,0.33,276.0,2700.0,37.40814516189501,4.643293221761984,12536.891698757356,22.8275823462608,8.975018512856517,14.580562815634211,4.331725291094533,3535,102,1162,1786,128.1031033936876,73.80017165801985,0.0014531695457391,False
0.26,0.6838330119999994,2.0,3526.0,33.21318,0.3,68900.0,0.33,276.0,2700.0,22.05307608132151,2.830088802252133,7641.239766080759,14.469680651214745,4.277678698147634,7.583395430106767,1.4475898958955007,2271,76,748,1143,92.36123648792952,53.2844038339196,0.0009089900989039,False
0.27,0.8797492544238209,2.0,3527.0,33.21318,0.3,68900.0,0.33,276.0,2700.0,33.11554591497335,4.429374719721001,11959.311743246702,20.781107679806667,7.715030079305482,12.334438235166688,3.2856553595844806,3160,96,1042,1591,112.3048543086903,64.72659111089774,0.0012354427076923,False
0.28,0.7866005978212922,2.0,3528.0,33.21318,0.3,68900.0,0.33,276.0,2700.0,27.251253649045108,3.7691993495785785,10176.83824386216,17.660037081005637,5.926352315706206,9.59121656803947,2.157152966127627,2669,86,880,1343,100.11677260006662,57.72064752402448,0.0010236033684179,False
0.29,0.6378015797570438,2.0,3529.0,33.21318,0.2,68900.0,0.33,276.0,2700.0,19.017442049064805,2.7064488949621306,7307.412016397752,13.126735677879404,3.642731692172983,5.8907063711854,0.9362827972108524,3990,100,1328,1992,80.74916882623052,46.54912252990771,0.0007598288477007,False
0.3,0.6007493434388598,2.0,3530.0,33.21318,0.08,68900.0,0.33,276.0,2700.0,17.000397245817467,2.4935109191080023,6732.479481591606,12.08443920621214,3.175773024690668,4.915958039605327,0.6822621055826659,40141,230,7138,24898,78.91034421678336,45.53790947340241,0.0007000776391259,False
0.31,0.8668376799537842,2.0,3531.0,33.21318,0.3,68900.0,0.33,276.0,2700.0,31.2293300708433,4.7781520364853165,12901.010498510355,20.335469472752425,7.449594713504223,10.893860598090878,2.6714426770189066,2969,92,984,1487,98.59031405474006,56.75444110512255,0.0010676795822441,False
0.32,0.8886271579929848,2.0,3532.0,33.21318,0.3,68900.0,0.33,276.0,2700.0,32.29870636480078,5.099163879652866,13767.742475062738,21.089956130946497,7.900892247216907,11.208750233854282,2.801728367564041,2919,92,968,1461,97.42280486594146,56.0623828481306,0.0010740926349916,False
0.33,0.8691192742822103,2.0,3533.0,33.21318,0.2,68900.0,0.33,276.0,2700.0,30.841096176054823,5.013514592254329,13536.489399086688,20.413913079320142,7.496081468687453,10.427183096734684,2.482566876433124,6169,134,2012,3117,92.75322232380928,53.34646006954904,0.0010138180582909,False
0.34,0.695677134636855,2.0,3534.0,33.21318,0.1,68900.0,0.33,276.0,2700.0,20.88313610308926,3.467815032420712,9363.100587535922,14.82384131308166,4.451153251548613,6.0592947900076,0.983338219127901,29697,208,5512,18285,80.19318964334887,46.28295818501181,0.0007534728988346,False
0.3500000000000001,0.9939693597165262,2.0,3535.0,33.21318,0.3,68900.0,0.33,276.0,2700.0,38.2094364733166,6.596854192815298,17811.506320601307,24.905848467771964,10.32109360394551,13.303588005544636,3.724239411130212,3667,104,1212,1843,98.5587030568954,56.55072403072985,0.0011589621033368,False
0.36,0.7355940527460267,2.0,3536.0,33.21318,0.3,68900.0,0.33,276.0,2700.0,22.535996351053768,3.958763245292426,10688.66076228955,16.043393166170084,5.067082479241161,6.492603184883684,1.1083192339487344,2198,74,730,1097,73.97219053428303,42.57238158361939,0.0007544445018591,False
0.37,0.7311067778058187,2.0,3537.0,33.21318,0.2,68900.0,0.33,276.0,2700.0,22.080731480994423,3.978847928862447,10742.889407928607,15.904298965174585,4.995403629329188,6.17643251581984,1.0165557004667405,5332,108,1454,2903,81.11738510385067,46.77739294412259,0.0007433172812622,False
0.38,0.7732498532055365,2.0,3538.0,33.21318,0.1,68900.0,0.33,276.0,2700.0,24.115625335389204,4.467045165665377,12061.021947296518,17.23056993456034,5.69344950779565,6.885055400828865,1.226404342130273,36709,228,6466,22810,80.20477139946779,46.27569955630744,0.0007859465483676,False
0.39,0.7672797284981104,2.0,3539.0,33.21318,0.3,68900.0,0.33,276.0,2700.0,23.569706298257906,4.4718553050814345,12074.009323719873,17.039972292651914,5.591150248017058,6.529734005605992,1.1192949429356238,2335,78,780,1159,70.7590955921253,40.74795540602887,0.0007447792021948,False
0.4,0.7951105956677404,2.0,3540.0,33.21318,0.2,68900.0,0.33,276.0,2700.0,24.862996964475176,4.838558106341874,13064.10688712306,17.936124725786573,6.077812655100661,6.926872238688603,1.2392545487587867,6754,118,1696,3786,77.57013170471956,44.7361772128296,0.0007762426767272,False
0.4100000000000001,0.800349501112745,2.0,3541.0,33.21318,0.1,68900.0,0.33,276.0,2700.0,24.92704305175793,4.965696020758334,13407.3792560475,18.1069943170058,6.172225600256564,6.820048734752135,1.2065295794982296,39723,232,6700,24923,77.6233496756524,44.74143707882263,0.0007714601544935,False
0.42,0.9894373298997172,2.0,3542.0,33.21318,0.3,68900.0,0.33,276.0,2700.0,35.96645767551512,7.397786567512072,19974.0237322826,24.73593997721127,10.208604766205442,11.230517698303846,2.8108181986933696,3312,98,1106,1647,83.40246972505598,47.7425602929892,0.0009802008942818,False
0.43,0.989278406606092,2.0,3543.0,33.21318,0.3,68900.0,0.33,276.0,2700.0,35.688755371491126,7.506563333464615,20267.72100035446,24.72999121675907,10.204674121860055,10.958764154732055,2.698110788395442,3335,98,1114,1658,81.9072978252853,46.685561507787526,0.0009603843224339,False
0.44,0.9874216411444724,2.0,3544.0,33.21318,0.3,68900.0,0.33,276.0,2700.0,35.30540966309156,7.588781173477882,20489.70916839028,24.660536461149324,10.15882082230524,10.644873201942236,2.5700396488273576,3357,98,1122,1668,81.13973507386035,46.33576347223944,0.0009387616198393,False
0.45,0.8629324354010661,2.0,3545.0,33.21318,0.2,68900.0,0.33,276.0,2700.0,27.53330072582917,6.004140909605917,16211.180455935975,20.20150668572218,7.370441435580604,7.331794040106992,1.3663005259746868,7392,124,1822,4171,76.00562569863025,43.75907272281731,0.0007814788006093,False
0.46,0.8621562548332575,2.0,3546.0,33.21318,0.2,68900.0,0.33,276.0,2700.0,27.260926095943656,6.066152960380483,16378.612993027304,20.174926790107627,7.354771735028953,7.0859993058360295,1.2886187746484694,7344,124,1834,4121,75.08956027334293,43.0880327465385,0.0007677257311634,False
0.4700000000000001,1.1634100532767175,2.0,3547.0,33.21318,0.3,68900.0,0.33,276.0,2700.0,46.3844916016555,10.682909143673278,28843.85468791785,31.62871295664108,15.100532717102356,14.75577864501442,4.417623573429077,4578,116,1478,2317,87.26435646712231,50.16046066462038,0.0011112917811272,False
0.4800000000000001,1.1768449895649329,2.0,3548.0,33.21318,0.3,68900.0,0.33,276.0,2700.0,47.051596077839584,11.060759715517634,29864.05123189761,32.19264283296362,15.529245562682066,14.858953244875964,4.468485847164432,4604,116,1476,2338,86.44235136948167,49.684070232693735,0.0011093916720967,False
0.49,1.1816372407766356,2.0,3549.0,33.21318,0.3,68900.0,0.33,276.0,2700.0,47.097539672501256,11.292493730361342,30489.73307197562,32.394894679185505,15.684005184630411,14.70264499331575,4.391511454269072,4724,116,1484,2426,84.80908135441757,48.500699787024764,0.0010958730285949,False
0.5,1.1328830043939142,2.0,3550.0,33.21318,0.3,68900.0,0.33,276.0,2700.0,43.35059584911903,10.575849574480468,28554.793851097264,30.364208099315675,14.15436183309718,12.986387749803356,3.578512258616712,4484,110,1346,2353,84.89368409751425,48.38838232889028,0.0010178556916344,False
0.03,0.6028075124881593,2.0,3553.0,36.23256,0.1,68900.0,0.33,276.0,2700.0,23.462675204166267,0.3518835793947313,950.0856643657744,12.141431372853448,3.2007034749397105,11.32124383131282,2.8488198955449797,18305,226,6038,9242,763.694520169451,434.52817030083446,0.0064752605978601,True
0.04,0.3422377784678669,2.0,3554.0,36.23256,0.05,68900.0,0.33,276.0,2700.0,10.7184849192784,0.2142356570990153,578.4362741673414,5.772544245933384,0.9038371535237728,4.945940673345016,0.6896014964247574,34403,284,11312,17429,336.72880622263403,192.99315644001044,0.0022808806380872,True
0.05,0.3907315221272291,2.0,3555.0,36.23256,0.1,68900.0,0.33,276.0,2700.0,12.569287731540058,0.3139703939007019,847.7200635318952,6.828599023749231,1.2091366145129805,5.740688707790827,0.8951662206122786,10516,160,3444,5344,292.2963615161649,167.2759265117826,0.0021840494285999,True
0.06,0.7162949309794416,2.0,3556.0,36.23256,0.1,68900.0,0.33,276.0,2700.0,29.108631897126333,0.8728065675716747,2356.5777324435217,15.448761254200567,4.76321207248617,13.659870642925766,3.890405504914496,23470,260,7718,11887,506.55972410944304,288.9980865347469,0.0043164883543256,True
0.0699999999999999,0.6719379226092299,2.0,3557.0,36.23256,0.2,68900.0,0.33,276.0,2700.0,26.234883305239915,0.9175025381632558,2477.2568530407907,14.11754448369184,4.107658423962042,12.117338821548076,3.190155885798786,5428,124,1786,2743,346.7356145037166,198.26771370453207,0.0033192347716906,True
0.08,0.5775164212534272,2.0,3558.0,36.23256,0.2,68900.0,0.33,276.0,2700.0,20.81092319934825,0.8313645976815055,2244.684413740065,11.44848686911046,2.9024299690987627,9.362436330237792,2.0710653714172573,4568,108,1488,2330,258.14561933316105,149.02801684709175,0.0023411264493118,False
0.09,0.5619505352177403,2.0,3559.0,36.23256,0.2,68900.0,0.33,276.0,2700.0,19.759697708557965,0.8876595828554658,2396.6808737097576,11.029992813260522,2.727489141749344,8.729704895297443,1.8398295588938784,4222,104,1384,2140,225.1815347709353,129.83933668131306,0.0020223695466622,False
0.0999999999999999,0.6432506366098156,2.0,3560.0,36.23256,0.2,68900.0,0.33,276.0,2700.0,23.8182223193802,1.1888167208666196,3209.805146339873,13.282930427092406,3.714685239345526,10.535291892287797,2.525868518478906,5316,120,1744,2694,243.68521163440096,140.1011052117795,0.0022010480268495,False
0.11,0.4488010579259736,2.0,3561.0,36.23256,0.2,68900.0,0.33,276.0,2700.0,13.87089387053274,0.760111522998015,2052.3011120946403,8.17094882370082,1.644234891726399,5.699945046831919,0.8841233687283839,3103,86,1016,1573,152.77575665001078,88.085518050064,0.0012553103604341,False
0.12,0.4573819312175241,2.0,3562.0,36.23256,0.08,68900.0,0.33,276.0,2700.0,14.046546582043913,0.8391736801855605,2265.7689365010133,8.376493362658803,1.7152293207925662,5.6700532193851085,0.8760556406070057,17638,208,5844,8866,139.2399845053124,80.3167592799308,0.0011867195039497,False
0.13,0.606447259043258,2.0,3563.0,36.23256,0.2,68900.0,0.33,276.0,2700.0,21.082283140508533,1.3657470180930968,3687.5169488513616,12.24247916047226,3.245079001132936,8.839803980036274,1.8793319830398387,4438,108,1458,2245,169.87067701855645,97.9321016276712,0.0015905835965175,False
0.14,0.5693221927807375,2.0,3564.0,36.23256,0.3,68900.0,0.33,276.0,2700.0,18.938647593220114,1.3199583113644382,3563.887440683983,11.22742322187921,2.8095253273886853,7.711224371340904,1.4895670160242471,1825,68,598,922,155.40916531021276,89.71394217241452,0.001366954662472,False
0.15,0.7259100274214998,2.0,3565.0,36.23256,0.3,68900.0,0.33,276.0,2700.0,27.14886186338916,2.029096056283611,5478.559351965751,15.743845223948709,4.913170170527236,11.40501663944045,2.884074114243625,2879,88,940,1463,178.4329988771836,102.84886228109288,0.0017800323163827,False
0.16,0.8573936948208745,2.0,3566.0,36.23256,0.3,68900.0,0.33,276.0,2700.0,34.8876289884788,2.782431676738901,7512.565527195034,20.01216690856976,7.259075238542867,14.875462079909044,4.476643561803966,3308,98,1084,1676,196.40272229787632,113.38448471704407,0.0021606132528171,False
0.17,0.8357329074084379,2.0,3567.0,36.23256,0.3,68900.0,0.33,276.0,2700.0,33.21437034880703,2.812931716510548,7594.915634578479,19.27910462759533,6.833556583964764,13.935265721211696,4.020624867454217,3207,96,1052,1623,178.7307798673572,103.18702932149895,0.0019335163772515,False
0.18,0.8307597607712327,2.0,3568.0,36.23256,0.3,68900.0,0.33,276.0,2700.0,32.61186259731479,2.9228531215211726,7891.7034281071665,19.11246375815968,6.7380933919612,13.49939883915511,3.815240270440027,3231,96,1060,1635,169.4800031258149,97.84040495339204,0.0018164557375525,False
0.19,0.7000167141129844,2.0,3569.0,36.23256,0.3,68900.0,0.33,276.0,2700.0,24.632271406189613,2.3257003275806984,6279.390884467885,14.954485120369782,4.515765787500943,9.677786285819831,2.1900654599202443,2379,80,784,1197,138.90463394864705,80.18887560520949,0.0013582738032423,False
0.2,0.5441726993784386,2.0,3570.0,36.23256,0.3,68900.0,0.33,276.0,2700.0,16.373028034081624,1.6205476425890186,4375.478634990351,10.559478829910692,2.5355938681848214,5.813549204170933,0.9150462255958028,1666,64,544,844,106.52892312498962,61.44342372646017,0.0009354396834408,False
0.21,0.7399238529975456,2.0,3571.0,36.23256,0.3,68900.0,0.33,276.0,2700.0,26.36618459276033,2.749053189196572,7422.443610830745,16.17808578510733,5.13683859306974,10.188098807653,2.387785403873168,2641,84,864,1339,133.30303344554653,76.95028860444539,0.0013349660236799,False
0.22,0.5322983324060548,2.0,3572.0,36.23256,0.2,68900.0,0.33,276.0,2700.0,15.39969044141342,1.6716648295051948,4513.495039664026,10.249632606351094,2.41204986203368,5.150057835062325,0.7403850325284853,3207,90,1060,1611,94.16190385722578,54.318700867695085,0.0008387427482583,False
0.23,0.5667685821848361,2.0,3573.0,36.23256,0.3,68900.0,0.33,276.0,2700.0,16.816026471708255,1.9083605390356309,5152.573455396203,11.158876886706825,2.780942415684202,5.657149585001433,0.8725818766485718,1685,64,548,857,97.50334394110789,56.17568966279708,0.0008725470557609,False
0.24,0.7589297428355384,2.0,3574.0,36.23256,0.3,68900.0,0.33,276.0,2700.0,26.67993688395804,3.1726395081794814,8566.1266720846,16.77489962250418,5.449974619495106,9.905037261453865,2.2773351113156246,2516,82,828,1268,120.5693680118486,69.5771542467275,0.0012219709359603,False
0.25,0.7291211974847385,2.0,3575.0,36.23256,0.3,68900.0,0.33,276.0,2700.0,24.74842690036075,3.0608284390698426,8264.236785488574,15.842912492870882,4.96388532656478,8.90551440748987,1.9030568874949372,2546,82,838,1283,112.07215111189062,64.65565177592359,0.0011163629837841,False
0.26,0.9486293971737564,2.0,3576.0,36.23256,0.3,68900.0,0.33,276.0,2700.0,37.841953453407946,4.8826428606233705,13183.1357236831,23.22927701075133,9.230066420862045,14.612676442656618,4.347423560238672,3483,102,1148,1755,135.17218242225331,77.8539167859919,0.0015551308525587,False
0.27,0.7565013829222906,2.0,3577.0,36.23256,0.3,68900.0,0.33,276.0,2700.0,25.785950017379182,3.439879273545785,9287.67403857362,16.69813955471541,5.409332356230315,9.087810462663771,1.969453082684529,2483,82,820,1247,109.07537837853036,62.9252199030525,0.0010960318551403,False
0.28,0.8979473711013515,2.0,3578.0,36.23256,0.3,68900.0,0.33,276.0,2700.0,33.980260045838335,4.71126024512963,12720.40266185,21.416323228932317,8.098974342606065,12.563936816906022,3.387714097476435,3170,96,1046,1595,120.95729702097864,69.63658791695016,0.0013426405053752,False
0.29,0.6403152132922361,2.0,3579.0,36.23256,0.2,68900.0,0.33,276.0,2700.0,19.143040335760865,2.7246606465330587,7356.583745639258,13.198695123899086,3.675817901755616,5.944345211861776,0.9511572552225568,4100,102,1368,2040,86.29446720981537,49.75343478589767,0.0008298041336456,False
0.3,0.7024261712492856,2.0,3580.0,36.23256,0.2,68900.0,0.33,276.0,2700.0,22.119346815945622,3.26135335462723,8805.65405749352,15.027226601623676,4.551885582837952,7.092120214321946,1.2905322282107217,4837,112,1588,2435,92.40721868539538,53.20870828843757,0.0009099877048356,False
0.31,0.9599272552214432,2.0,3581.0,36.23256,0.3,68900.0,0.33,276.0,2700.0,37.11754376531143,5.690825159127881,15365.227929645278,23.642213731961963,9.494837125031111,13.475330033349469,3.804011965903232,3631,104,1202,1822,116.94216871315548,67.13977100484182,0.0013445430724469,False
0.32,0.986164795099463,2.0,3582.0,36.23256,0.3,68900.0,0.33,276.0,2700.0,38.56149319535283,6.101209772541106,16473.266385860985,24.61357165717571,10.127855842508623,13.94792153817712,4.0266460699675175,3624,104,1200,1818,116.50071863939044,66.85061409725964,0.001356812040921,False
0.33,0.8344082982658338,2.0,3583.0,36.23256,0.3,68900.0,0.33,276.0,2700.0,28.77047349744017,4.671861850282924,12614.026995763894,19.23465871364021,6.808048747313376,9.535814783799957,2.136186897030452,2870,88,950,1439,99.04747499816943,56.96743007666081,0.0010448596698482,False
0.34,0.6535393838907372,2.0,3584.0,36.23256,0.1,68900.0,0.33,276.0,2700.0,18.755301096323223,3.106083081270484,8386.424319430305,13.579887488170035,3.852875330627904,5.175413608153187,0.7467922493574206,27206,196,5104,16698,83.5294400736549,48.21511607713784,0.0007627321013826,False
0.3500000000000001,0.9240974173170584,2.0,3585.0,36.23256,0.3,68900.0,0.33,276.0,2700.0,33.69972259482846,5.807654264079875,15680.666513015662,22.343678675219987,8.67109992661796,11.35604391960847,2.8634456625380844,3191,96,1058,1598,100.82812911200205,57.89981441970099,0.0011406602585649,False
0.36,1.0248296154845742,2.0,3586.0,36.23256,0.3,68900.0,0.33,276.0,2700.0,39.98535424101205,7.099647665484916,19169.048696809277,26.07654297059034,11.107696869545686,13.908811270421715,4.00804920406077,3751,106,1242,1882,107.98791928851789,61.81436799447243,0.0012875484942878,False
0.37,1.047492958000624,2.0,3587.0,36.23256,0.3,68900.0,0.33,276.0,2700.0,41.233078375806734,7.522032104402697,20309.486681887283,26.951528031688778,11.70856915777041,14.281550344117957,4.186537053367713,3883,108,1280,1957,107.49929622924444,61.4293655938109,0.0012960243509998,False
0.38,0.9440528335343208,2.0,3588.0,36.23256,0.3,68900.0,0.33,276.0,2700.0,34.149074679029574,6.3734005409571,17208.18146058417,23.06291655646301,9.124137036687308,11.086158122566562,2.750736495730207,3059,94,1018,1526,97.77006199607568,55.72589833081763,0.0010952062735095,False
0.39,0.8723884230644,2.0,3589.0,36.23256,0.3,68900.0,0.33,276.0,2700.0,29.51258631252332,5.630716907863183,15202.935651230597,20.526537875962088,7.563001608203829,8.98604843656123,1.932284700340646,2845,90,942,1426,88.24406104619308,50.63967143396859,0.0009569255620168,False
0.4,0.9805126507178776,2.0,3590.0,36.23256,0.3,68900.0,0.33,276.0,2700.0,35.93259802990894,7.052478319428622,19041.69146245728,24.402857633072998,9.989332252979208,11.529740396835944,2.9368539335505863,3563,102,1184,1781,94.6261181265172,54.23295555566228,0.0011025439147774,False
0.4100000000000001,0.7463457959715893,2.0,3591.0,36.23256,0.3,68900.0,0.33,276.0,2700.0,22.02698954267876,4.371185051397107,11802.199638772188,16.378729027391756,5.241377042441204,5.648260515287003,0.8701919910440976,2136,74,706,1071,72.18432949934592,41.45018552566213,0.000754387594314,False
0.42,1.043401129791799,2.0,3592.0,36.23256,0.3,68900.0,0.33,276.0,2700.0,39.51014130983912,8.14196013072011,21983.292352944296,26.79259602023853,11.59861343982967,12.717545289600588,3.4566533091095604,3734,106,1238,1869,95.50362928697842,54.48147345115847,0.0011514563269801,False
0.43,0.7587514078345323,2.0,3593.0,36.23256,0.3,68900.0,0.33,276.0,2700.0,22.25861124137885,4.619082345490478,12471.52233282429,16.769257439335814,5.446983570865301,5.489353802043038,0.8279012253748235,2069,72,690,1028,68.58267800808098,39.20506125166199,0.0007376318366886,False
0.44,0.9431028128724974,2.0,3594.0,36.23256,0.3,68900.0,0.33,276.0,2700.0,32.53132992820074,6.978483631801905,18841.905805865143,23.02844879234961,9.102243163776595,9.50288113585113,2.1237595319746907,3002,92,1000,1496,84.67647245839593,48.385412036935904,0.0009554225138814,False
0.45,1.0095045658648891,2.0,3595.0,36.23256,0.3,68900.0,0.33,276.0,2700.0,36.45697586383329,8.011967815656913,21632.313102273663,25.492190125639272,10.712557710925118,10.96478573819402,2.7005898952682053,3465,100,1152,1727,87.21960212066193,49.76459309445029,0.0010337253018076,False
0.46,1.096927090442395,2.0,3596.0,36.23256,0.3,68900.0,0.33,276.0,2700.0,42.00660408317341,9.45765889744334,25535.679023097025,28.904865755387835,13.088922330888195,13.10173832778558,3.631263433444856,3881,108,1282,1942,90.73741029280666,51.74035461528067,0.0011375288469482,False
0.4700000000000001,0.8111034883052339,2.0,3597.0,36.23256,0.3,68900.0,0.33,276.0,2700.0,24.208452438364592,5.47153994029991,14773.157838809757,18.45990238830299,6.368842964918871,5.748550050061603,0.897303024618961,2358,78,756,1200,75.96884065922522,43.811477184815736,0.0007486361247084,False
0.4800000000000001,1.1738174712776546,2.0,3598.0,36.23256,0.3,68900.0,0.33,276.0,2700.0,46.83316784864444,11.008336940510803,29722.50973937917,32.065167158283,15.431974773376702,14.768000690361433,4.423637832865898,4633,116,1480,2357,96.74363730784346,55.51310501706994,0.0012056086291591,False
0.49,1.1703564023038904,2.0,3599.0,36.23256,0.3,68900.0,0.33,276.0,2700.0,46.28611183066604,11.093693909111726,29952.97355460166,31.919718751694173,15.321246808504185,14.366393078971864,4.227552899392457,4958,116,1490,2599,95.0184422483431,54.57654886896871,0.0011844550634959,False
0.5,1.0394248568994986,2.0,3600.0,36.23256,0.3,68900.0,0.33,276.0,2700.0,37.07372031137189,9.006630690043755,24317.90286311814,26.63855547126899,11.492385151859851,10.435164840102903,2.4857544618160983,3787,100,1146,1980,87.74300718011378,50.30903695232989,0.000985141333506,False
0.02,0.3408719662840258,2.0,3602.0,39.25194,0.08,68900.0,0.33,276.0,2700.0,11.069671247404996,0.1106799573132311,298.8358847457242,5.743656524930628,0.8959726751977619,5.32601472247437,0.7852927178845307,14153,184,4662,7154,660.8988787260574,377.18124568543175,0.0047033216537495,True
0.03,0.5372672534262548,2.0,3603.0,39.25194,0.1,68900.0,0.33,276.0,2700.0,19.98694660632644,0.2997476504271319,809.3186561532561,10.37885897836754,2.463300277811048,9.608087627958897,2.1635526273839165,15702,206,5160,7956,755.6965418026356,431.0889769754367,0.0058127274865022,True
0.04,0.7066008284681685,2.0,3604.0,39.25194,0.1,68900.0,0.33,276.0,2700.0,29.11430844978472,0.5821521277091418,1571.810744814683,15.153604856165826,4.614882743418944,13.960703593618891,4.032730615709802,23327,260,7668,11819,787.578278776978,448.6382382536023,0.0068836548941045,True
0.05,0.4959091879654835,2.0,3605.0,39.25194,0.1,68900.0,0.33,276.0,2700.0,17.424269402062926,0.4353449356637743,1175.4313262921908,9.322174935474504,2.056050115513504,8.102094466588422,1.6207051798497296,14118,192,4646,7143,430.29633789176114,246.0875663726897,0.0031972711358728,True
0.06,0.4818402588630647,2.0,3606.0,39.25194,0.1,68900.0,0.33,276.0,2700.0,16.509694656815412,0.4948384503623446,1336.0638159783305,8.972517975920153,1.927362579078309,7.537176680895259,1.432524128715965,13382,186,4394,6785,338.29352393220523,193.5205990924371,0.0026038033814906,True
0.0699999999999999,0.559383167217645,2.0,3607.0,39.25194,0.2,68900.0,0.33,276.0,2700.0,20.120917584484918,0.7035137379368522,1899.487092429501,10.96155328936822,2.6992589813234718,9.159364295116694,1.9957452433866192,4363,106,1434,2206,307.424033524666,177.46154399582176,0.0027487727160231,True
0.08,0.3869174653602973,2.0,3608.0,39.25194,0.08,68900.0,0.33,276.0,2700.0,11.783968101112324,0.4702863937520672,1269.7732631305814,6.743398350515457,1.183254546503664,5.040569750596867,0.712968152751597,15329,192,5050,7748,188.9891689934923,108.80295911295444,0.0015132200998052,False
0.09,0.780259522873423,2.0,3609.0,39.25194,0.3,68900.0,0.33,276.0,2700.0,32.11690605453903,1.44373395842461,3898.081687746447,17.455498634510466,5.81501772781027,14.661407420028564,4.37128376938566,3144,96,1034,1587,338.1403115690073,194.8142880536234,0.003602838771913,True
0.0999999999999999,0.6997788141041985,2.0,3610.0,39.25194,0.3,68900.0,0.33,276.0,2700.0,27.004912332316337,1.3481512215134226,3640.008298086241,14.947310836415342,4.512208968768727,12.057601495900997,3.1640577472553044,2680,86,882,1351,275.34341194946813,158.85209004374843,0.0026816389720676,False
0.11,0.6946367410961068,2.0,3611.0,39.25194,0.3,68900.0,0.33,276.0,2700.0,26.434539354491854,1.4511120246157652,3918.0024664625657,14.792590419224885,4.435746881770047,11.64194893526697,2.984634857154282,2708,86,886,1373,250.30700162003012,144.50229327748065,0.0024256798769697,False
0.12,0.7975467855762165,2.0,3612.0,39.25194,0.3,68900.0,0.33,276.0,2700.0,32.29863984175477,1.93429927576835,5222.608044574546,18.015496508096536,6.121605113239808,14.283143333658234,4.187305837471458,3156,96,1034,1599,257.90186109482846,148.89125894379367,0.002783578247526,False
0.13,0.7742403472309408,2.0,3613.0,39.25194,0.3,68900.0,0.33,276.0,2700.0,30.5736584422354,1.9826864127053447,5353.253314304432,17.262278328585985,5.710531985822566,13.311380113649417,3.727845573117221,3106,94,1018,1573,236.58783610692396,135.92877263367248,0.0024248186257881,False
0.14,0.6935528263803737,2.0,3614.0,39.25194,0.3,68900.0,0.33,276.0,2700.0,25.566807638012445,1.7839295144999032,4816.609689149739,14.760061189961132,4.419730607453112,10.806746448051314,2.635801092953209,2491,82,820,1255,199.27454837693796,115.05004817032936,0.0019295688803148,False
0.15,0.5296441192095532,2.0,3615.0,39.25194,0.2,68900.0,0.33,276.0,2700.0,16.762794328198225,1.2501409911442891,3375.3806760895804,10.180858935119971,2.384936461065592,6.581935393078254,1.1347954699213023,3467,94,1142,1748,143.0673912789354,82.36050434969596,0.001263421062458,False
0.16,0.6461212013042454,2.0,3616.0,39.25194,0.3,68900.0,0.33,276.0,2700.0,22.443900227586013,1.7869333758674804,4824.720114842197,13.365513975459404,3.752933231636719,9.07838625212661,1.9659998557692384,2309,78,756,1169,164.05855912520897,94.71018109828516,0.0015456835816488,False
0.17,0.8179578604174844,2.0,3617.0,39.25194,0.3,68900.0,0.33,276.0,2700.0,32.10481712346667,2.7186196923566115,7340.273169362851,18.686355484135216,6.496149427468063,13.41846163933145,3.777529735111451,3260,96,1066,1655,190.8524066130393,110.18478564507662,0.0020297705813616,False
0.18,0.5460870475965511,2.0,3618.0,39.25194,0.3,68900.0,0.33,276.0,2700.0,16.89429004272304,1.5082715916079157,4072.333297341372,10.609762973705129,2.5558565036542245,6.284527069017912,1.0475849120463088,1715,64,564,863,126.38046585573456,72.95729143892044,0.0011175728015508,False
0.19,0.714701010768028,2.0,3619.0,39.25194,0.3,68900.0,0.33,276.0,2700.0,25.453318227890247,2.403699775642259,6489.989394234099,15.400068910876008,4.738626794018101,10.053249317014238,2.334927018375842,2380,80,780,1204,153.6380960484657,88.6944435595632,0.001514905550762,False
0.2,0.6885717279410722,2.0,3620.0,39.25194,0.3,68900.0,0.33,276.0,2700.0,23.75014909406998,2.358259748587489,6367.301321186221,14.61095370175881,4.346580908076021,9.13919539231117,1.988321159488532,2432,80,798,1229,141.20901801434894,81.52315730527341,0.0013733821697948,False
0.21,0.8759489595981622,2.0,3621.0,39.25194,0.3,68900.0,0.33,276.0,2700.0,34.59110301359501,3.612669623384213,9754.207983137376,20.64950679502889,7.636305919349592,13.941596218566117,4.023636295965379,3260,98,1070,1649,167.0641654854387,96.32730861660656,0.0018355027018674,False
0.22,0.7384858424661314,2.0,3622.0,39.25194,0.3,68900.0,0.33,276.0,2700.0,26.02697161717571,2.840665758839048,7669.797548865428,16.133299501074944,5.113606543134627,9.893672116100769,2.2729407842955798,2515,82,828,1267,137.11699934700218,79.1357209583388,0.0013809753043995,False
0.23,0.5584471116660932,2.0,3623.0,39.25194,0.3,68900.0,0.33,276.0,2700.0,16.419658474166805,1.862778219318363,5029.501192159581,10.936641630939253,2.689010019579176,5.483016843227553,0.8262318002608131,1591,62,526,796,102.42316473282258,58.97975740632671,0.0009228935360304,False
0.24,0.8313286170973493,2.0,3624.0,39.25194,0.3,68900.0,0.33,276.0,2700.0,30.95642509545653,3.6858180935593015,9951.708852610114,19.13149358890214,6.748971050111967,11.824931506554396,3.0631529565526656,3141,94,1034,1584,141.08245374876557,81.35388969439799,0.0015051394964512,False
0.25,0.8269319402168549,2.0,3625.0,39.25194,0.3,68900.0,0.33,276.0,2700.0,30.417286837635984,3.769435931229603,10177.477014319928,18.98462397231819,6.665179101689181,11.432662865317797,2.895743170459578,3163,94,1036,1603,135.71031149710396,78.27619843627318,0.0014377713863991,False
0.26,0.7958209494638966,2.0,3626.0,39.25194,0.3,68900.0,0.33,276.0,2700.0,28.30043388746881,3.642245317051236,9834.062356038336,17.959252855180846,6.090561863215296,10.341181032287963,2.44831654616406,2726,88,900,1370,126.54463371013834,72.99959045274258,0.0013136786878864,False
0.27,0.8431747597146941,2.0,3627.0,39.25194,0.3,68900.0,0.33,276.0,2700.0,30.86077569837728,4.124980740479944,11137.447999295848,19.529628234510252,6.977960149860615,11.331147463867026,2.852979409380671,2855,90,946,1430,128.58845509378236,74.10079181123744,0.001378761404822,False
0.28,0.6841727046595201,2.0,3628.0,39.25194,0.2,68900.0,0.33,276.0,2700.0,21.61155966508629,2.979642191824345,8045.033917925732,14.479788966344955,4.282595659228591,7.131770698741335,1.3029534674042456,4508,110,1500,2252,103.8466705789053,59.86057770500776,0.0010111020449314,False
0.29,0.6511907509229684,2.0,3629.0,39.25194,0.2,68900.0,0.33,276.0,2700.0,19.69011611007443,2.803986633808526,7570.763911283021,13.511866161640343,3.8210610648729872,6.178249948434086,1.017074431064461,4086,104,1362,2037,96.61104673454722,55.56727120688429,0.0009220281753117,False
0.3,0.651087470139092,2.0,3630.0,39.25194,0.2,68900.0,0.33,276.0,2700.0,19.469734532145644,2.8639115120572294,7732.561082554519,13.508878116220536,3.819665703050323,5.960856415925109,0.9557541909930936,4135,104,1374,2064,92.33792811234969,53.22309414454507,0.000896465925634,False
0.31,0.652814254740911,2.0,3631.0,39.25194,0.3,68900.0,0.33,276.0,2700.0,19.343622560808875,2.9358673724299784,7926.841905560942,13.558871436507548,3.843035778833264,5.784751124301327,0.9071684064032856,1950,70,644,978,88.88640882206387,51.031591508321966,0.0008724979653501,False
0.32,0.9725529040337548,2.0,3632.0,39.25194,0.3,68900.0,0.33,276.0,2700.0,37.658776957301946,5.956775174453092,16083.29297102335,24.10747687642428,9.796268322075145,13.55130008087767,3.839493147622053,3620,104,1198,1817,124.45962861851936,71.45048481654972,0.0014412136746282,False
0.33,0.8116498114469173,2.0,3633.0,39.25194,0.1,68900.0,0.33,276.0,2700.0,27.445727261156254,4.453278721296075,12023.852547499404,18.47790837410204,6.378932954988668,8.967818887054214,1.925654233692593,38235,246,7104,23549,107.80842699144742,62.16296277467024,0.0011097309196785,False
0.34,0.6517974213585436,2.0,3634.0,39.25194,0.08,68900.0,0.33,276.0,2700.0,18.66925807406136,3.091455767485968,8346.930572212113,13.529423327135303,3.8292636398416766,5.139834746926052,0.7378078723557087,48274,244,7898,30493,300.294109866211,162.5939902192687,0.0008248393446247,True
0.3500000000000001,0.8812891226082583,2.0,3635.0,39.25194,0.2,68900.0,0.33,276.0,2700.0,31.05799727777177,5.34535233359495,14432.451300706363,20.83453530285382,7.747071373960112,10.22346197491795,2.401719040365162,6769,134,2012,3575,110.8595705393764,63.803208678380095,0.0011661810147312,False
0.36,0.6862063568530842,2.0,3636.0,39.25194,0.3,68900.0,0.33,276.0,2700.0,19.97679034354874,3.4981061639415167,9444.886642642095,14.540365489880768,4.3121040919970826,5.436424853667971,0.8139979280555658,2026,70,674,1009,81.70550606281981,46.95308986934744,0.0008191798266932,False
0.37,0.8368098501691277,2.0,3637.0,39.25194,0.3,68900.0,0.33,276.0,2700.0,27.919734300811623,5.059063450528632,13659.471316427307,19.31527284856888,6.854338549061791,8.604461452242749,1.7952750985331587,2719,86,904,1357,96.14274445821074,55.21180724751089,0.0010321272319955,False
0.38,0.7923237402853669,2.0,3638.0,39.25194,0.3,68900.0,0.33,276.0,2700.0,25.163343568127058,4.666111629885491,12598.501400690826,17.845511073887845,6.027953578273423,7.317832494239212,1.3618419483879318,2494,82,830,1243,88.30878907084548,50.79571536601498,0.0009381291583025,False
0.39,0.7533522686249119,2.0,3639.0,39.25194,0.2,68900.0,0.33,276.0,2700.0,22.8239100052116,4.3264250279374,11681.347575430978,16.598817273360297,5.356904460234018,6.225092731851305,1.0304794322966186,5987,110,1508,3353,92.21048581753644,53.18277783696176,0.000874703823242,False
0.4,0.8969867633822486,2.0,3640.0,39.25194,0.3,68900.0,0.33,276.0,2700.0,30.73174575561339,6.012307864569513,16233.231234337683,21.382584593464127,8.07841786385089,9.349161162149262,2.0661099992813767,2867,90,950,1436,94.94916607835115,54.3358422135346,0.0010526656930982,False
0.4100000000000001,0.7309760303293181,2.0,3641.0,39.25194,0.3,68900.0,0.33,276.0,2700.0,21.228415489994735,4.207477370596882,11360.188900611582,15.90025371080993,4.993324446832063,5.328161779184809,0.7858470762351812,2165,72,724,1073,76.78584841728122,43.72146313154559,0.0007924175133513,False
0.42,0.782822825324736,2.0,3642.0,39.25194,0.2,68900.0,0.33,276.0,2700.0,23.75166730428428,4.832680589553592,13048.237591794696,17.538059127303452,5.859867228731497,6.213608176980827,1.0271866391779056,6522,114,1628,3660,88.01791291572924,50.776090031757214,0.000865226821936,False
0.43,0.8939864894321357,2.0,3643.0,39.25194,0.3,68900.0,0.33,276.0,2700.0,29.81331573417966,6.243343811442734,16857.02829089538,21.27735777256632,8.014422163518102,8.535957961613342,1.771078352075368,2790,88,924,1396,87.71736520360449,50.23225822424062,0.0009869941747221,False
0.44,0.7523005012061702,2.0,3644.0,39.25194,0.2,68900.0,0.33,276.0,2700.0,21.71580242510256,4.599067581120299,12417.482469024808,16.565700313311282,5.339463783142828,5.150102111791277,0.740396202022529,5706,106,1428,3202,82.1130370968134,47.29430102486718,0.0007941291345272,False
0.45,1.096915667054466,2.0,3645.0,39.25194,0.3,68900.0,0.33,276.0,2700.0,42.29281390369062,9.325031374624814,25177.584711487,28.9044072775788,13.088592142012336,13.388406626111824,3.7635607673875215,3868,108,1284,1932,101.33750705947875,57.6693505514962,0.0012582713809286,False
0.46,1.0221923450836643,2.0,3646.0,39.25194,0.3,68900.0,0.33,276.0,2700.0,37.012009255471575,8.308902087071921,22434.035635094187,25.97556186788104,11.039059170264842,11.036447387590538,2.730157083192921,3466,100,1150,1729,95.36643304478442,54.48168916317408,0.0011174415313816,False
0.4700000000000001,0.9276679565224412,2.0,3647.0,39.25194,0.2,68900.0,0.33,276.0,2700.0,30.855010360729,7.033481052055542,18990.39884054996,22.47163373428426,8.751107246261082,8.38337662644474,1.7176261942055395,8370,134,2092,4704,90.7173687758158,52.196991715123154,0.0009773996945924,False
0.4800000000000001,1.165626395282665,2.0,3648.0,39.25194,0.2,68900.0,0.33,276.0,2700.0,46.24451074357728,10.867059235294684,29341.05993529564,31.72143119934138,15.17073548708844,14.523079544235898,4.303676251793757,12153,170,3010,6854,103.645434930714,59.15715859871489,0.0013095836709578,False
0.49,1.0286512076575776,2.0,3649.0,39.25194,0.3,68900.0,0.33,276.0,2700.0,36.63814380126761,8.729941741909036,23570.8427031544,26.223181939981448,11.207630862337044,10.414961861286162,2.4776891204280087,3688,100,1148,1902,95.40888365852858,54.90432587649384,0.0010684427314299,False
0.5,0.9455116034072416,2.0,3650.0,39.25194,0.3,68900.0,0.33,276.0,2700.0,31.208531001500187,7.540333362575898,20358.900078954925,23.115886441841184,9.157819153476458,8.092644559659004,1.6174857909005604,3241,90,962,1708,88.53208714526703,50.74475244757048,0.0009466375794996,False
0.04,0.517392846886031,2.0,3654.0,42.27132,0.1,68900.0,0.33,276.0,2700.0,18.728730042375147,0.3744405595609498,1010.9895108145646,9.8657093476708,2.2621423287275992,8.863020694704348,1.8877017691666491,15138,200,4986,7653,626.6809611895242,358.17755520212177,0.0044703746735896,True
0.05,0.4118975409145771,2.0,3655.0,42.27132,0.1,68900.0,0.33,276.0,2700.0,13.501616415901063,0.3372786110096841,910.652249726147,7.308062367755276,1.3587251749561788,6.193554048145789,1.0214465639464947,11026,164,3612,5602,367.8824072391529,210.6251430162439,0.0027210120796245,True
0.06,0.5990803312972253,2.0,3656.0,42.27132,0.2,68900.0,0.33,276.0,2700.0,22.46446732730105,0.6734816304769113,1818.4004022876609,12.03830124322669,3.155642461078128,10.426166084074362,2.4821608306012166,4592,112,1504,2330,414.8007877145523,239.4484260971145,0.0037350740243829,True
0.0699999999999999,0.7260622991903074,2.0,3657.0,42.27132,0.1,68900.0,0.33,276.0,2700.0,29.401647924363434,1.0283392998326002,2776.5161095480207,15.748537081530849,4.915567870898652,13.653110842832586,3.887228571066052,23714,262,7818,11981,486.1701334637543,277.8788449221151,0.0044086874863751,True
0.08,0.4160909882706172,2.0,3658.0,42.27132,0.2,68900.0,0.33,276.0,2700.0,13.047296166710709,0.5208195163760037,1406.21269421521,7.404390807396058,1.3895729694458503,5.642905359314651,0.8687534530698469,2980,84,968,1522,254.36080509014332,146.77258951785907,0.001887661604998,False
0.09,0.4743197451705948,2.0,3659.0,42.27132,0.2,68900.0,0.33,276.0,2700.0,15.473228209027978,0.6947684553766137,1875.874829516857,8.787649974848984,1.860580676794067,6.685578234178994,1.165812221417453,3418,92,1112,1744,225.3245247503939,130.08666072469094,0.0018913944721081,False
0.0999999999999999,0.717227464178052,2.0,3660.0,42.27132,0.3,68900.0,0.33,276.0,2700.0,28.020994672789424,1.3989553385370774,3777.179414050109,15.477278627006717,4.777631850233113,12.543716045782707,3.378676511696036,2883,88,938,1470,302.1052280223912,174.2451793063035,0.0030096602355747,True
0.11,0.7031859275503958,2.0,3661.0,42.27132,0.3,68900.0,0.33,276.0,2700.0,26.92611120739534,1.478148476525457,3991.0008866187336,15.050193892674573,4.563311336790287,11.875917314720768,3.08516286026483,2719,86,888,1381,271.2081817548134,156.42011333485155,0.0026596666513433,False
0.12,0.7226132262610857,2.0,3662.0,42.27132,0.3,68900.0,0.33,276.0,2700.0,27.77845268026756,1.6630880460791322,4490.337724413657,15.642405782016116,4.861433131206183,12.136046898251443,3.1983450851270505,2886,88,934,1479,254.3654742281284,146.67680735991553,0.0025466110119691,False
0.13,0.7967746316956597,2.0,3663.0,42.27132,0.3,68900.0,0.33,276.0,2700.0,31.956123224016302,2.072546623521108,5595.87588350699,17.990323361591102,6.107704097436511,13.965799862425204,4.035157473915404,3022,94,994,1525,256.83201526859983,148.28201550390713,0.0027492322541757,False
0.14,0.5097592146489602,2.0,3664.0,42.27132,0.2,68900.0,0.33,276.0,2700.0,16.035879731343933,1.116764561033109,3015.264314789394,9.67125062680728,2.187574276638811,6.364629104536654,1.0708097156057022,3467,92,1136,1757,157.61528795915075,90.89218858226394,0.0013802447381012,False
0.15,0.6918915696059738,2.0,3665.0,42.27132,0.3,68900.0,0.33,276.0,2700.0,25.209943436760906,1.8836771742864928,5085.928370573531,14.710262728338757,4.395251729428751,10.49968070842215,2.5115745551422584,2503,82,820,1267,201.0562754794909,116.04183506881978,0.00194077453834,False
0.16,0.7183659111420647,2.0,3666.0,42.27132,0.3,68900.0,0.33,276.0,2700.0,26.44660422624067,2.1071496957598503,5689.304178551596,15.512122582586548,4.795271742004655,10.934481643654122,2.6881220462448043,2667,84,870,1356,194.0947052896784,112.05328788697656,0.001926725937758,False
0.17,0.8210018539701878,2.0,3667.0,42.27132,0.3,68900.0,0.33,276.0,2700.0,32.29370217614494,2.734674921834264,7383.622288952512,18.787300842166623,6.553184152521701,13.506401333978316,3.818509230687437,3261,96,1068,1653,205.88169161487767,118.86238357665049,0.0021987259404957,False
0.18,0.6619468641518382,2.0,3668.0,42.27132,0.3,68900.0,0.33,276.0,2700.0,22.799670860141955,2.039755865175621,5507.340835974176,13.82452211336076,3.968075102348283,8.975148746781194,1.928319237172662,2278,78,744,1156,161.87213334664287,93.3914219251314,0.0015422330285785,False
0.19,0.8786156847386868,2.0,3669.0,42.27132,0.3,68900.0,0.33,276.0,2700.0,35.35408197268365,3.344272331397635,9029.535294773614,20.741815166299677,7.691495519067952,14.612266806383978,4.347223187670317,3366,100,1106,1701,197.06989621423045,113.754258282003,0.0021936164332754,False
0.2,0.6566966250044584,2.0,3670.0,42.27132,0.3,68900.0,0.33,276.0,2700.0,22.03155592320281,2.186400431501134,5903.281165053061,13.67154624495111,3.895894938208296,8.3600096782517,1.7094945067071623,2293,76,748,1165,145.37908005756026,83.93333709077532,0.001385402761755,False
0.21,0.7497823783356494,2.0,3671.0,42.27132,0.3,68900.0,0.33,276.0,2700.0,26.931031432158957,2.8083621073334286,7582.577689800257,16.48652524025967,5.297849034040577,10.444506191899285,2.489486926707148,2613,84,858,1320,157.21588903470828,90.75521686979748,0.0015866334224223,False
0.22,0.7104795481678233,2.0,3672.0,42.27132,0.3,68900.0,0.33,276.0,2700.0,24.458058720143267,2.6680853401654723,7203.830418446775,15.271416808347498,4.6738876866504455,9.18664191179577,2.005802346484973,2402,80,788,1214,143.68424788182756,82.94319232198302,0.0014136165446497,False
0.23,0.8298094459606189,2.0,3673.0,42.27132,0.3,68900.0,0.33,276.0,2700.0,31.13913940529665,3.555518526398297,9599.900021275402,19.08069121911438,6.719945633339182,12.058448186182265,3.164427106940885,3156,94,1036,1596,158.169209973217,91.11786660444106,0.0016810239181671,False
0.24,0.839206934190116,2.0,3674.0,42.27132,0.3,68900.0,0.33,276.0,2700.0,31.43768013928467,3.743568698818648,10107.63548681035,19.395881555393416,6.90073546504216,12.041798583891254,3.1571667662235114,3115,94,1024,1573,153.61799142759585,88.52370033709927,0.0016400445041102,False
0.25,0.6141274285458553,2.0,3675.0,42.27132,0.3,68900.0,0.33,276.0,2700.0,18.69871096550624,2.3046139472133853,6222.45765747614,12.45679094573694,3.339925342843964,6.241920019769299,1.0353113956305786,1902,68,626,957,109.86541962810873,63.41185130875249,0.001043730493067,False
0.26,0.7089114357137338,2.0,3676.0,42.27132,0.3,68900.0,0.33,276.0,2700.0,23.39732258460472,3.004840847678952,8113.070288733171,15.223741542227131,4.649977775926833,8.173581042377583,1.6451369282478807,2307,78,758,1164,122.16436700520184,70.47727421992819,0.001211478265993,False
0.27,0.6985242647764215,2.0,3677.0,42.27132,0.3,68900.0,0.33,276.0,2700.0,22.60209690751466,3.0100591037139317,8127.1595800276145,14.90950127226417,4.493480551123978,7.692595635250489,1.4834214474100471,2215,76,728,1117,115.60008683209024,66.69232076182936,0.0011498524446117,False
0.28,0.7837732926798018,2.0,3678.0,42.27132,0.3,68900.0,0.33,276.0,2700.0,27.088504424905448,3.7464144581990273,10115.319037137371,17.568714358946405,5.87655114800335,9.519790065959045,2.130136689804323,2689,86,884,1357,125.96091787509502,72.61243516149827,0.0012967113620146,False
0.29,0.7726686594171976,2.0,3679.0,42.27132,0.3,68900.0,0.33,276.0,2700.0,26.20494431843735,3.7486367240210527,10121.319154856845,17.211975827504478,5.683440611381031,8.99296849093287,1.9348038873599784,2648,86,876,1328,121.30650530843226,69.92793908076926,0.0012339269714324,False
0.3,0.6721594983219414,2.0,3680.0,42.27132,0.3,68900.0,0.33,276.0,2700.0,20.541241739198814,3.024637593115205,8166.521501411054,14.124071394469691,4.110787252022419,6.41717034472912,1.086149658907214,2055,72,682,1026,101.61300010187831,58.50014706956645,0.0009967721269242,False
0.31,0.7788918034698757,2.0,3681.0,42.27132,0.3,68900.0,0.33,276.0,2700.0,26.06661824654536,3.97793170371912,10740.415600041624,17.411513812453993,5.791173588435137,8.655104434091363,1.8132418847160163,2586,84,856,1296,113.84057372324366,65.65655435496693,0.0011781215323504,False
0.32,0.9951515985961108,2.0,3682.0,42.27132,0.3,68900.0,0.33,276.0,2700.0,39.16258611795766,6.197384640158005,16732.938528426614,24.950256199558936,10.350564513145905,14.212329918398725,4.1531798729879,3763,106,1242,1894,137.0070201587222,78.73161274692134,0.0016023345399386,False
0.33,0.8022160240333434,2.0,3683.0,42.27132,0.3,68900.0,0.33,276.0,2700.0,26.904229665053183,4.363931617939074,11782.6153684355,18.168038581301616,6.206079676812217,8.736191083751567,1.8421480588731427,2565,84,846,1290,109.65012766184772,63.162918071748415,0.0011603478374178,False
0.34,0.9126349300904972,2.0,3684.0,42.27132,0.3,68900.0,0.33,276.0,2700.0,33.25166140060388,5.57046433299816,15040.253699095032,21.93507046405618,8.417330782652893,11.316590936547698,2.8468664496547333,3064,94,1018,1531,119.98441016439573,68.98215054896032,0.0013429574070338,False
0.3500000000000001,0.8984430083209467,2.0,3685.0,42.27132,0.3,68900.0,0.33,276.0,2700.0,32.1055135277029,5.528667677332901,14927.402728798834,21.433740157689087,8.109593385489271,10.67177337001381,2.5809257081563697,2966,92,982,1487,115.42107881346232,66.29291774805559,0.0012827840867351,False
0.36,0.798225295670042,2.0,3686.0,42.27132,0.2,68900.0,0.33,276.0,2700.0,25.95779412971177,4.574686845450859,12351.65448271732,18.037629123322684,6.13383631741302,7.920165006389084,1.5591494719621606,6550,122,1810,3549,109.81517122724723,63.293845354927626,0.0010814897991626,False
0.37,0.7921718353164915,2.0,3687.0,42.27132,0.3,68900.0,0.33,276.0,2700.0,25.38543769475982,4.590218578409044,12393.590161704416,17.8405775454358,6.025243131189965,7.54486014932402,1.4350245527809218,2460,82,816,1230,98.35552767197112,56.375960585537456,0.0010340578227566,False
0.38,0.701637685258925,2.0,3688.0,42.27132,0.3,68900.0,0.33,276.0,2700.0,20.34522561498144,3.750669218787955,10126.80689072748,15.003406158048834,4.540046217258311,5.341819456932607,0.789376998470356,1966,70,654,979,85.59415606471973,48.90618553844234,0.0008664354215839,False
0.39,1.006707990569349,2.0,3689.0,42.27132,0.3,68900.0,0.33,276.0,2700.0,37.91532510937896,7.269250973250033,19626.97762777509,25.38619196614069,10.64141514351532,12.529133143238267,3.372164170265288,3651,104,1216,1821,116.15615712542,66.4749040371727,0.0013632456061864,False
0.4,1.073422560070147,2.0,3690.0,42.27132,0.3,68900.0,0.33,276.0,2700.0,42.12975094444298,8.291908902335434,22388.154036305677,27.96845023220687,12.420559235908527,14.161300712236113,4.128650333573093,3979,110,1322,1990,118.374698073845,67.43129703482649,0.0014592513326068,False
0.4100000000000001,0.9161102841339122,2.0,3691.0,42.27132,0.3,68900.0,0.33,276.0,2700.0,31.63742440869316,6.341324198930062,17121.575337111168,22.058609085314902,8.493777500792625,9.578815323378258,2.152453301862563,3041,92,1010,1520,103.35213496579642,59.2020642480413,0.0011412151511366,False
0.42,0.8639804340034329,2.0,3692.0,42.27132,0.2,68900.0,0.33,276.0,2700.0,28.29370725639949,5.786508979497784,15623.574244644016,20.23741887067034,7.391631401901727,8.056288385729147,1.6051224224039435,7517,126,1858,4244,100.4171599372242,57.84977038342304,0.0010551698258519,False
0.43,0.9766657319391534,2.0,3693.0,42.27132,0.3,68900.0,0.33,276.0,2700.0,34.88488367836956,7.333730919443457,19801.073482497333,24.25990228614797,9.895731529733748,10.624981392221592,2.5620006102902915,3331,98,1112,1657,102.92084102344438,58.72304269141803,0.0011918263747257,False
0.44,1.1054981590194577,2.0,3694.0,42.27132,0.3,68900.0,0.33,276.0,2700.0,43.1781788305334,9.320790390315087,25166.134053850736,29.249790090037067,13.338144783798318,13.928388740496333,4.017354393483231,4041,110,1342,2020,111.0142261921156,63.1951021866068,0.0013956000622325,False
0.45,1.0959925330713582,2.0,3695.0,42.27132,0.3,68900.0,0.33,276.0,2700.0,42.22917599907039,9.31071284608525,25138.924684430174,28.86736812557737,13.061926599090375,13.36180787349301,3.751213753005125,3874,108,1286,1935,109.48497783526464,62.2878415957518,0.0013534315136387,False
0.46,1.0090486959909053,2.0,3696.0,42.27132,0.2,68900.0,0.33,276.0,2700.0,36.16263595118729,8.11354622708653,21906.574813133637,25.474897951505525,10.70094053111401,10.687737999681763,2.5873943040274803,9599,146,2384,5409,106.29911592214536,61.05745628252348,0.0012005805154484,False
0.4700000000000001,1.037640053009348,2.0,3697.0,42.27132,0.3,68900.0,0.33,276.0,2700.0,37.75179277559543,8.654224919548923,23366.407282782093,26.56954149891283,11.44490215453772,11.182251276682605,2.790677234988795,3456,100,1142,1729,100.75173342794156,57.49788445167037,0.0012065838861602,False
0.4800000000000001,0.9782536852609997,2.0,3698.0,42.27132,0.3,68900.0,0.33,276.0,2700.0,33.69979374849156,7.856327156474109,21212.08332248009,24.318867141566955,9.934301930489262,9.380926606924604,2.0779747740151526,3476,96,1088,1788,100.81594347124724,57.80176346675727,0.0010977620309963,False
0.49,0.862126677358583,2.0,3699.0,42.27132,0.2,68900.0,0.33,276.0,2700.0,26.59036515517704,6.2682359736169255,16924.2371287657,20.173914224517578,7.354175026617399,6.416450930659462,1.085939053000474,7013,120,1752,3935,89.7973561003489,51.77668491797785,0.0009260515578249,False
0.5,1.1058459809246493,2.0,3700.0,42.27132,0.3,68900.0,0.33,276.0,2700.0,41.48958975245523,10.11059805031466,27298.614735849584,29.263826422371867,13.348320942497692,12.225763330083364,3.237722892183031,4464,108,1316,2362,105.35245044012647,60.36750099923175,0.0012545057028208,False
0.02,0.4375025892680575,2.0,3702.0,45.2907,0.1,68900.0,0.33,276.0,2700.0,15.340046403623957,0.153383708875419,414.1360139636315,7.90313002746238,1.5534316744420105,7.436916376161577,1.4000479655665914,12283,178,4058,6190,937.9900325270852,540.244334657119,0.0074255754814147,True
0.03,0.5605079838967002,2.0,3703.0,45.2907,0.1,68900.0,0.33,276.0,2700.0,21.194740873484985,0.3178645644345093,858.234323973175,10.991517660920014,2.7116055685235536,10.203223212564971,2.393741004089044,17081,216,5618,8648,919.5562604596728,524.0934550106418,0.0071811366871141,True
0.04,0.664269221458102,2.0,3704.0,45.2907,0.1,68900.0,0.33,276.0,2700.0,26.6344740688182,0.5325554400898113,1437.8996882424904,13.89240947918697,4.000259385411001,12.74206458963123,3.467703945321189,21524,246,7076,10904,876.7518639422616,499.79004891879816,0.0071375705060685,True
0.05,0.5453845534966614,2.0,3705.0,45.2907,0.1,68900.0,0.33,276.0,2700.0,19.90034670949296,0.4972468683494912,1342.5665445436264,10.59129987816676,2.548409693597894,9.3090468313262,2.051162825248403,16111,208,5286,8176,549.8718777379631,314.32392945089794,0.0041737140243895,True
0.06,0.5086718003822075,2.0,3706.0,45.2907,0.1,68900.0,0.33,276.0,2700.0,17.811535830317304,0.5338936855674024,1441.5129510319864,9.64366906836415,2.177072619713,8.167866761953153,1.6431789341455976,14380,194,4726,7285,424.4815391462021,243.22655984564207,0.0032240834765792,True
0.0699999999999999,0.5601374203068448,2.0,3707.0,45.2907,0.2,68900.0,0.33,276.0,2700.0,20.159769214336627,0.704873544981661,1903.1585714504847,10.981642579963989,2.707534342060461,9.17812663437264,2.0026607970788,4388,106,1442,2219,356.4308511411243,205.04920755532189,0.0031772313749775,True
0.08,0.575076561058954,2.0,3708.0,45.2907,0.2,68900.0,0.33,276.0,2700.0,20.68383102065373,0.8262809105337255,2230.958458441059,11.382487964767126,2.874577806169264,9.301343055886608,2.0482968956355383,4546,108,1484,2314,321.9342100129519,184.64462319242648,0.0029093813189723,True
0.09,0.6757768588196631,2.0,3709.0,45.2907,0.2,68900.0,0.33,276.0,2700.0,25.903846513820262,1.1641462790922672,3143.194953549121,14.230801755016325,4.162072051910254,11.67304475880394,2.997925772817987,5402,124,1780,2726,339.8731781726133,194.77099036750607,0.0032407089558883,True
0.0999999999999999,0.6512754439626551,2.0,3710.0,45.2907,0.3,68900.0,0.33,276.0,2700.0,24.26082620425503,1.2109469151103585,3269.556670797968,13.51431663986028,3.822205529658009,10.74650956439475,2.6112586145476504,2418,80,794,1221,297.0601922291981,171.0449972083051,0.0027996401226043,True
0.11,0.5126849741245627,2.0,3711.0,45.2907,0.2,68900.0,0.33,276.0,2700.0,16.84359898962113,0.9236103045478776,2493.7478222792697,9.74560816964231,2.215978753490384,7.097990819978818,1.2923684489425065,3775,98,1240,1909,215.77174403840368,124.52199630603458,0.0018580904291461,False
0.12,0.5623617487524701,2.0,3712.0,45.2907,0.2,68900.0,0.33,276.0,2700.0,19.05888841728916,1.1399141903004146,3077.76831381112,11.040970115582269,2.732027080944134,8.017918301706894,1.5921128906437194,4142,102,1346,2117,213.56758093374984,123.2889867693664,0.0019347599753141,False
0.13,0.632746254233976,2.0,3713.0,45.2907,0.3,68900.0,0.33,276.0,2700.0,22.47638800421845,1.4563638342342389,3932.182352432445,12.982494371972953,3.5767366342300666,9.4938936322455,2.1203727999958275,2375,78,770,1214,225.6577418502745,130.18704744125574,0.0021054548473797,False
0.14,0.6303534367948127,2.0,3714.0,45.2907,0.3,68900.0,0.33,276.0,2700.0,22.097947920220008,1.5411093342544369,4160.99520248698,12.91444515776624,3.545753338659959,9.183502762453768,2.004644004405522,2333,78,766,1178,215.57021501635768,124.39340459992816,0.0019538797462258,False
0.15,0.7605020211411319,2.0,3715.0,45.2907,0.3,68900.0,0.33,276.0,2700.0,29.18011893502622,2.181440336656387,5889.888908972245,16.824678131772806,5.476388554944761,12.355440803253412,3.2949482182883743,2825,88,920,1439,231.39466135394676,133.55406520300133,0.0023753320773788,False
0.16,0.676459695013051,2.0,3716.0,45.2907,0.3,68900.0,0.33,276.0,2700.0,24.09284547912804,1.9188489959908437,5180.892289175277,14.250985762162616,4.171796248927993,9.84185971696542,2.25294725293715,2441,80,798,1238,196.7893407765398,113.45468814778644,0.0019019920023967,False
0.17,0.4903499405970696,2.0,3717.0,45.2907,0.2,68900.0,0.33,276.0,2700.0,14.498664100078312,1.2220966853685995,3299.6610504952187,9.183415741208398,2.004611897216014,5.315248358869914,0.7825152118474146,3186,88,1052,1602,138.33167555054882,79.8064408424953,0.0011839941800967,False
0.18,0.8395758747863618,2.0,3718.0,45.2907,0.3,68900.0,0.33,276.0,2700.0,33.16365401447079,2.9725143490652144,8025.788742476079,19.408301046834342,6.907893684070021,13.755352967636444,3.9353793350048063,3181,96,1042,1612,213.25247095883577,122.92472121496868,0.0023047355485663,False
0.19,0.6920268471880016,2.0,3719.0,45.2907,0.3,68900.0,0.33,276.0,2700.0,24.19008507691797,2.283692626299892,6165.970091009706,14.714315266235602,4.397241972305213,9.475769810682372,2.113549346005322,2438,80,800,1232,171.15758998028974,98.81782519087024,0.0016729251695879,False
0.2,0.8795245027274672,2.0,3720.0,45.2907,0.3,68900.0,0.33,276.0,2700.0,35.11503760893547,3.4947486000744035,9435.821220200887,20.773314626753127,7.710360365877061,14.34172298218234,4.215611765802658,3368,100,1108,1700,201.5038838323612,116.20044089616604,0.0022314584124107,False
0.21,0.5641538219789534,2.0,3721.0,45.2907,0.3,68900.0,0.33,276.0,2700.0,17.115423272117667,1.7777232505287666,4799.85277642767,11.08885894072342,2.751856205969688,6.026564331394248,0.974132955440921,1680,64,550,849,130.72217770865245,75.37346183736638,0.0011688400474035,False
0.22,0.6578581385054825,2.0,3722.0,45.2907,0.2,68900.0,0.33,276.0,2700.0,21.616838578128306,2.3555511245438328,6359.988036268349,13.705329507405285,3.9117942403274615,7.911509070723023,1.5562431157836287,4530,110,1494,2283,141.77383935131724,81.70648580264303,0.0013668219797689,False
0.23,0.5821165626074913,2.0,3723.0,45.2907,0.3,68900.0,0.33,276.0,2700.0,17.556211126069677,1.9934817742871949,5382.400790575426,11.573328948227328,2.9553815687134186,5.982882177842349,0.9618997944262238,1877,68,620,941,124.02574002952475,71.55882243269915,0.0011237471569174,False
0.24,0.8676968855699918,2.0,3724.0,45.2907,0.3,68900.0,0.33,276.0,2700.0,33.20405870141859,3.955534126274748,10679.94214094182,20.364994505538306,7.467079745791961,12.839064195880288,3.511545619517213,3289,98,1082,1660,169.56041067043947,97.7637617667979,0.00184461251547,False
0.25,0.8693729200502449,2.0,3725.0,45.2907,0.3,68900.0,0.33,276.0,2700.0,33.026657887606405,4.095607312475905,11058.139743684944,20.42264176775913,7.501260478312302,12.604016119847271,3.405653165836397,3192,96,1052,1608,163.12598686557666,94.05945306454876,0.001779130379788,False
0.26,0.8952387741625119,2.0,3726.0,45.2907,0.2,68900.0,0.33,276.0,2700.0,34.37478293978161,4.4319106938519095,11966.158873400156,21.321250901354567,8.04109495299406,13.053532038427043,3.6091842591421504,6898,144,2298,3445,160.28631870826487,92.37210854034728,0.0017878230783849,False
0.27,0.7888093123970801,2.0,3727.0,45.2907,0.3,68900.0,0.33,276.0,2700.0,27.633472338697665,3.68929478692378,9961.095924694206,17.731518937576602,5.965437215958048,9.901953401121062,2.2761424290342678,2658,86,874,1341,140.11588752915196,80.80562355730817,0.0014455456407257,False
0.28,0.8144627511062477,2.0,3728.0,45.2907,0.3,68900.0,0.33,276.0,2700.0,28.87658357108522,3.996745538664153,10791.212954393211,18.57073736242772,6.431040710830909,10.3058462086575,2.434295172166756,2938,90,974,1471,137.77941345266822,79.40630311092335,0.0014683907453905,False
0.29,0.9475343878135584,2.0,3729.0,45.2907,0.3,68900.0,0.33,276.0,2700.0,36.88533457837861,5.297293311712628,14302.691941624096,23.18942494720096,9.204651967045818,13.69590963117765,3.90735865533319,3364,100,1112,1690,153.5759157929398,88.33346165765214,0.0017563163109191,False
0.3,0.7677716671503456,2.0,3730.0,45.2907,0.3,68900.0,0.33,276.0,2700.0,25.68348755072004,3.795974464843392,10249.13105507716,17.05564368485243,5.599536723453269,8.62784386586761,1.803562258609877,2611,84,862,1312,124.832264975557,71.96771336424324,0.0012742845876608,False
0.31,0.8654454632100381,2.0,3731.0,45.2907,0.3,68900.0,0.33,276.0,2700.0,31.14457384311975,4.765014821188167,12865.540017208052,20.287667874301643,7.421316613156893,10.856905968818108,2.656301791968726,2975,92,986,1490,134.29238297277695,77.30922881612415,0.0014507718250523,False
0.32,0.6426132914781795,2.0,3732.0,45.2907,0.3,68900.0,0.33,276.0,2700.0,18.626600372987653,2.9116269209628056,7861.392686599575,13.26462267971307,3.706225263023017,5.361977693274582,0.7945983420602114,1952,68,644,980,101.3698265771628,58.42142492594164,0.000963069813206,False
0.33,0.8584299914392883,2.0,3733.0,45.2907,0.3,68900.0,0.33,276.0,2700.0,30.19699221715128,4.907237439035261,13249.541085395203,20.047533688232445,7.279832102343605,10.149458528918837,2.372594663308345,2893,90,956,1453,126.70398450458312,72.89510154102533,0.0013573423123345,False
0.34,0.9832651775412962,2.0,3734.0,45.2907,0.3,68900.0,0.33,276.0,2700.0,37.78872078574199,6.341764428471675,17122.763956873525,24.505372551082477,10.056642817036051,13.283348234659512,3.7148783885643777,3646,104,1206,1831,137.30565375160913,78.68308662028642,0.0015972508192401,False
0.3500000000000001,0.7573158308986682,2.0,3735.0,45.2907,0.2,68900.0,0.33,276.0,2700.0,23.927187916850947,4.097460695433807,11063.14387767128,16.72386760692674,5.422942598148467,7.203320309924209,1.3254819027146594,5400,114,1590,2863,113.9103936396284,65.7031645372875,0.0011060250695779,False
0.36,0.9487485265165436,2.0,3736.0,45.2907,0.3,68900.0,0.33,276.0,2700.0,34.987862682570785,6.200099184965488,16740.267799406818,23.23361445351183,9.23283396772057,11.754248229058955,3.0327347827550817,3309,98,1092,1665,127.01652361536526,72.83845943235748,0.0014456947131645,False
0.37,0.8241688611497671,2.0,3737.0,45.2907,0.3,68900.0,0.33,276.0,2700.0,27.19188416507064,4.924411175416512,13295.91017362458,18.8925727801072,6.6128503011375805,8.299311384963438,1.688439125721069,2771,86,918,1388,110.94515335277086,63.82441105089441,0.0011667755179356,False
0.38,0.9209929262885476,2.0,3738.0,45.2907,0.2,68900.0,0.33,276.0,2700.0,32.70884483483479,6.0997568705600935,16469.343550512254,22.232685484868032,8.60190652797434,10.47615934996676,2.502149657414246,8275,138,2164,4583,124.21021140441088,71.42874703290525,0.0013371794832636,False
0.39,0.7074580116276518,2.0,3739.0,45.2907,0.2,68900.0,0.33,276.0,2700.0,20.435337024739223,3.8606532967452862,10423.763901212273,15.179608328549808,4.627883301857316,5.2557286961894185,0.7672300051120295,5542,104,1404,3102,100.29958321597454,57.88615279591784,0.0009356627825084,False
0.4,0.8111995860342508,2.0,3740.0,45.2907,0.3,68900.0,0.33,276.0,2700.0,25.755141501599372,5.016987013766712,13545.86493717012,18.46306908065124,6.370617071770373,7.292072420948134,1.353630058003661,2488,82,818,1251,100.22591281069435,57.56429319810085,0.0010651875107106,False
0.4100000000000001,0.8756930647843882,2.0,3741.0,45.2907,0.3,68900.0,0.33,276.0,2700.0,29.217999249021485,5.845342041197364,15782.423511232884,20.6406584248844,7.631022949814863,8.577340824137089,1.7856809086174987,2795,88,926,1400,104.2287676146688,59.813832003334056,0.0011551735579569,False
0.42,1.0187808108863745,2.0,3742.0,45.2907,0.3,68900.0,0.33,276.0,2700.0,37.87522226247805,7.798627130774288,21056.29325309058,25.845193514714097,10.950665113864993,12.03002874776395,3.152037983090705,3662,104,1222,1823,118.11693993547355,67.369313474056,0.0013913379814442,False
0.43,1.1285235094483357,2.0,3743.0,45.2907,0.3,68900.0,0.33,276.0,2700.0,45.09501689123498,9.528909560209543,25728.05581256577,30.18553837110758,14.022378849777006,14.909478520127404,4.493469289567461,4144,112,1376,2074,123.59882384441626,70.5419653934054,0.0015729467214249,False
0.44,0.9788337114011988,2.0,3744.0,45.2907,0.2,68900.0,0.33,276.0,2700.0,34.76014721481926,7.468823434857976,20165.82327411653,24.34042082950899,9.948413759573915,10.419726385310272,2.4795903247159394,9084,142,2228,5140,114.01933408805937,65.56388239858092,0.001280580825892,False
0.45,0.8500265441074334,2.0,3745.0,45.2907,0.2,68900.0,0.33,276.0,2700.0,26.79928638674382,5.838987683311302,15765.266744940516,19.76151842028216,7.112566708866934,7.037767966461658,1.273579025555632,7160,122,1782,4025,102.2752565826518,58.84737831243692,0.0010443311787109,False
0.46,0.9728029562805208,2.0,3746.0,45.2907,0.2,68900.0,0.33,276.0,2700.0,33.865343091771514,7.585168869420906,20479.955947436447,24.116731918537187,9.802297607921249,9.748611173234329,2.2171287385003406,9022,142,2244,5076,110.60564274794643,63.45389112559172,0.0012232880793857,False
0.4700000000000001,0.9739860392399388,2.0,3747.0,45.2907,0.3,68900.0,0.33,276.0,2700.0,33.68569971860895,7.698693051157334,20786.471238124803,24.16054200420431,9.83085561450562,9.525157714404642,2.132162563348285,3367,96,1098,1694,102.85996602164931,59.19232086888107,0.0011879772400171,False
0.4800000000000001,0.9400491241759652,2.0,3748.0,45.2907,0.3,68900.0,0.33,276.0,2700.0,31.35857111808685,7.294433725176712,19694.971057977124,22.917811342962843,9.03209043580484,8.440759775124008,1.737656710628129,3076,90,980,1568,97.47149563763588,55.747570892710485,0.0011161586642048,False
0.49,0.9100248411200264,2.0,3749.0,45.2907,0.3,68900.0,0.33,276.0,2700.0,29.33764689300902,6.941319999385751,18741.563998341528,21.8424890714446,8.360199157245265,7.495157821564423,1.4188791578595144,3149,88,944,1647,101.77412432619909,58.37694940746187,0.0010557181306538,False
0.5,0.9567408044211042,2.0,3750.0,45.2907,0.2,68900.0,0.33,276.0,2700.0,31.88649612528503,7.709824643521906,20816.526537509148,23.525424154555136,9.419688514045522,8.361071970729895,1.709863870523615,8696,136,2134,4919,103.3467679598237,59.44250098575487,0.0011173699857831,False
0.03,0.5289167405423851,2.0,3753.0,48.31008,0.1,68900.0,0.33,276.0,2700.0,19.559610066342334,0.2933376023273693,792.0115262838971,10.162042639183928,2.3775379655548776,9.397567427158409,2.084200363227509,15879,206,5222,8040,940.1146504226706,536.243514046984,0.0069750404776701,True
0.04,0.5840119688212693,2.0,3754.0,48.31008,0.1,68900.0,0.33,276.0,2700.0,22.180183729143742,0.4434696332963216,1197.3680099000685,11.624922614104753,2.977366609531923,10.55526111503899,2.5338969762356016,17826,222,5860,9030,793.4417086280889,452.8212012193742,0.0061304833791393,True
0.05,0.5158200264851002,2.0,3755.0,48.31008,0.1,68900.0,0.33,276.0,2700.0,18.40594607133451,0.4598868523955619,1241.6945014680173,9.8255236189143,2.2466569504117784,8.580422452420212,1.7867700980162164,15172,200,4994,7675,570.8995884142842,326.3588199128803,0.0041403431108408,True
0.06,0.455837786983642,2.0,3756.0,48.31008,0.2,68900.0,0.33,276.0,2700.0,15.282606898503111,0.4580258176129772,1236.6697075550385,8.33936869485243,1.7023234774985114,6.943238203650683,1.2442976598855342,3455,92,1130,1754,371.7524647646858,214.4969889787371,0.0029939125803797,True
0.0699999999999999,0.3916387172709901,2.0,3757.0,48.31008,0.05,68900.0,0.33,276.0,2700.0,12.190759080542511,0.425958190298866,1150.0871138069383,6.848918312539811,1.2153407016023483,5.3418407680027,0.7893825113034822,39850,310,13168,20092,273.8213605900511,157.55708180696035,0.0021399001638768,False
0.08,0.5175523368807564,2.0,3758.0,48.31008,0.2,68900.0,0.33,276.0,2700.0,17.77409001824565,0.7098912704374009,1916.7064301809824,9.869787805936944,2.263716135887568,7.904302212308709,1.5538248654501672,3929,100,1286,1994,310.4465993429348,178.52067058451635,0.0026980342885526,True
0.09,0.6449806313225326,2.0,3759.0,48.31008,0.2,68900.0,0.33,276.0,2700.0,24.177254456477,1.0864496365118186,2933.41401858191,13.332676013601914,3.7377076577105175,10.844578442875088,2.651258021198699,5225,120,1718,2642,360.56764609329554,207.2009772875779,0.0032468905833285,True
0.0999999999999999,0.4312603145108096,2.0,3760.0,48.31008,0.2,68900.0,0.33,276.0,2700.0,13.29822955297542,0.6628170825463787,1789.6061228752226,7.756539148474668,1.50455620507332,5.541690404500751,0.8417391225269414,2989,84,978,1516,215.80260780472443,124.47649686722544,0.001737680638628,False
0.11,0.4866279462737546,2.0,3761.0,48.31008,0.2,68900.0,0.33,276.0,2700.0,15.606317170299056,0.8555598044851632,2310.0114721099408,9.090948610382265,1.9706034650171536,6.5153685599167925,1.1150436605319904,3366,90,1106,1701,219.86027860238053,126.87858375399324,0.0018540676582726,False
0.12,0.7329730826122314,2.0,3762.0,48.31008,0.3,68900.0,0.33,276.0,2700.0,28.386572998381627,1.6995752651659657,4588.853215948107,15.962088236403533,5.025139811513201,12.424484761978094,3.325564546347235,2898,88,944,1476,294.95282362562784,170.19158840837375,0.0029689930034352,True
0.13,0.5973018821323388,2.0,3763.0,48.31008,0.3,68900.0,0.33,276.0,2700.0,20.60563523636407,1.334764904323708,3603.865241674012,11.989215062962847,3.134276614704633,8.61642017340122,1.7995117103809248,2203,74,722,1114,233.86606167127215,134.79378588807802,0.0020787189491843,False
0.14,0.5760917045811573,2.0,3764.0,48.31008,0.3,68900.0,0.33,276.0,2700.0,19.27984147081465,1.3438418827958392,3628.373083548766,11.409929707858948,2.886146591556284,7.8699117629557,1.542304708760445,2151,74,704,1089,212.89025510410423,122.9055003629611,0.0018490710330524,False
0.15,0.7560300481759623,2.0,3765.0,48.31008,0.3,68900.0,0.33,276.0,2700.0,28.914137439771437,2.1614917245122816,5836.027656183161,16.68325791369676,5.401465450195689,12.230879526074672,3.239973725683407,2837,88,922,1448,243.98156283483644,140.85829200676423,0.0025099269596368,False
0.16,0.7243678391091599,2.0,3766.0,48.31008,0.3,68900.0,0.33,276.0,2700.0,26.790942976163237,2.134696795753658,5763.681348534877,15.696359549745466,4.888926820039394,11.094583426417769,2.7542300242857363,2643,84,866,1338,222.00180391163087,127.88529038806334,0.0022261795307194,False
0.17,0.6876835323829353,2.0,3767.0,48.31008,0.3,68900.0,0.33,276.0,2700.0,24.45757457942412,2.068604076112994,5585.231005505083,14.58443137921876,4.333615303869751,9.873143200205362,2.265011227756757,2458,80,808,1240,204.33295414849803,117.71650295508576,0.0019618433261224,False
0.18,0.8749661522343376,2.0,3768.0,48.31008,0.3,68900.0,0.33,276.0,2700.0,35.41801429501894,3.1754067743145478,8573.598290649277,20.615532108768544,7.616028129286226,14.802482186250398,4.440621354971679,3339,100,1100,1683,236.15136215378436,136.32538786107946,0.0026359674951607,False
0.19,0.7834861947344952,2.0,3769.0,48.31008,0.3,68900.0,0.33,276.0,2700.0,29.443620469847357,2.7827784886281863,7513.501919296103,17.55945225360947,5.871508535824484,11.884168216237882,3.088730047196297,2986,92,980,1510,203.91964343595467,117.69866821086848,0.0021157916703645,False
0.2,0.8811852134631541,2.0,3770.0,48.31008,0.3,68900.0,0.33,276.0,2700.0,35.22191705695111,3.505436544875965,9464.678671165106,20.83092817207853,7.744906662617438,14.390988884872588,4.239470117741472,3372,100,1108,1704,215.1637341827048,124.16566458423438,0.0023871492609172,False
0.21,0.7086985287702473,2.0,3771.0,48.31008,0.3,68900.0,0.33,276.0,2700.0,24.60936301159649,2.564586923174368,6924.384692570793,15.217273305198722,4.646737224233149,9.392089706397767,2.0821503010587814,2387,80,784,1205,170.94145471872957,98.68049236434568,0.0016791997954647,False
0.22,0.5996080776121326,2.0,3772.0,48.31008,0.3,68900.0,0.33,276.0,2700.0,18.63402123419028,2.027441216710649,5474.091285118752,12.052882627667408,3.161999477525092,6.58113860652287,1.134558260814443,1913,68,632,959,141.21476155712915,81.44943265095786,0.0012933873900802,False
0.23,0.7627424494173636,2.0,3773.0,48.31008,0.3,68900.0,0.33,276.0,2700.0,27.156875160846788,3.097558138286563,8363.40697337372,16.895717687941914,5.51416259553157,10.261157472904872,2.4166044572450067,2601,84,854,1314,169.18385344089765,97.64457161379626,0.0017063551687185,False
0.24,0.766700297891173,2.0,3774.0,48.31008,0.3,68900.0,0.33,276.0,2700.0,27.12630980139924,3.226204258272426,8710.751497335552,17.021521523154792,5.581282112407053,10.104788278244447,2.3550778541346267,2751,88,908,1383,160.55110644437377,92.6345958713534,0.0016523811001713,False
0.25,0.7340536955898913,2.0,3775.0,48.31008,0.3,68900.0,0.33,276.0,2700.0,25.022787991617093,3.095123575477243,8356.833653788555,15.995588938310355,5.042406749215803,9.027199053306736,1.94728317373856,2585,82,846,1310,149.4570361592784,86.21090096415651,0.001501876937559,False
0.26,0.6357381749457267,2.0,3776.0,48.31008,0.3,68900.0,0.33,276.0,2700.0,19.563558917393127,2.506451570941445,6767.4192415419,13.067783907014638,3.615706761701929,6.495775010378489,1.109255190760484,1976,70,652,992,127.9155348782589,73.63055466454202,0.0012032318977312,False
0.27,0.6777137165336449,2.0,3777.0,48.31008,0.3,68900.0,0.33,276.0,2700.0,21.50047942032213,2.861340742942923,7725.6200059458915,14.288084001953113,4.189690548628994,7.212395418369013,1.3283498056860714,2265,76,746,1140,130.7597884878005,75.46624129648619,0.0012639237448682,False
0.28,0.8951674162910028,2.0,3778.0,48.31008,0.3,68900.0,0.33,276.0,2700.0,33.80467403119257,4.686678203079226,12654.03114831391,21.31874871772679,8.039573603187494,12.485925313465778,3.352895400108268,3164,96,1044,1592,161.06640954826293,92.71946441977812,0.0017822289581353,False
0.29,0.7477005278125513,2.0,3779.0,48.31008,0.2,68900.0,0.33,276.0,2700.0,24.80534841995338,3.5456953187409748,9573.377360600633,16.421187827627868,5.263594583106031,8.384160592325511,1.7178992643650566,5062,118,1682,2533,132.43452042939103,76.3247828680011,0.0013529332596987,False
0.3,0.6375113385152262,2.0,3780.0,48.31008,0.3,68900.0,0.33,276.0,2700.0,18.79121387425404,2.7621334133734896,7457.760216108422,13.118436976826285,3.6389229764726823,5.672776897427752,0.8767895630991931,1934,70,636,974,112.31515095051054,64.55361573174916,0.0010697240406453,False
0.31,0.6175628240401378,2.0,3781.0,48.31008,0.08,68900.0,0.33,276.0,2700.0,17.606796914114835,2.666659397192464,7199.980372419653,12.553134024870213,3.3828847497063355,5.053662889244622,0.7162253525138715,43586,238,7598,27137,113.5672106472339,65.52675783901073,0.0010247413055742,False
0.32,0.7332351563107218,2.0,3782.0,48.31008,0.3,68900.0,0.33,276.0,2700.0,23.30895120752369,3.6608030544885706,9884.16824711914,15.970210237541115,5.029324119256685,7.338740969982576,1.3685210647681147,2456,78,808,1238,120.5702389920992,69.47237375098958,0.0012067981039919,False
0.33,1.018203452677105,2.0,3783.0,48.31008,0.3,68900.0,0.33,276.0,2700.0,40.423113554407536,6.594547459682541,17805.278141142862,25.823159291184187,10.935749540442128,14.59995426322335,4.341202080759587,3919,108,1296,1969,155.1197084120064,88.96510924825716,0.0018393861676611,False
0.34,0.7542954628165837,2.0,3784.0,48.31008,0.3,68900.0,0.33,276.0,2700.0,23.991630599458016,3.9962590968034015,10789.899561369186,16.62853923774425,5.372574383309588,7.363091361713767,1.3763152865061854,2347,78,776,1177,117.82452465780254,67.84969628283699,0.0011859387031976,False
0.3500000000000001,1.0351528633393088,2.0,3785.0,48.31008,0.3,68900.0,0.33,276.0,2700.0,40.98247355618973,7.082135682318096,19121.76634225886,26.473501518611112,11.37893813243166,14.50897203757862,4.296802450113564,3899,108,1290,1958,149.61867603825854,85.68484601669174,0.0017864879392564,False
0.36,0.6771222267646866,2.0,3786.0,48.31008,0.2,68900.0,0.33,276.0,2700.0,19.5194122160499,3.415778100991736,9222.600872677687,14.270580789787418,4.181244470042442,5.248831426262482,0.765466369050706,4725,102,1344,2529,116.39027876796712,66.10176016400395,0.0010056944288552,False
0.37,1.0491748013792193,2.0,3787.0,48.31008,0.3,68900.0,0.33,276.0,2700.0,41.34833280718407,7.543354174207528,20367.05627036033,27.01697507424543,11.753952432607504,14.331357732938637,4.210598258399975,3876,108,1280,1950,146.11070518394436,81.7836655958593,0.0017319265171734,False
0.38,0.8814375604862583,2.0,3788.0,48.31008,0.3,68900.0,0.33,276.0,2700.0,30.300622452959573,5.6421946180037965,15233.92546861025,20.839688687076336,7.750164390641445,9.460933765883237,2.1079697726376487,2895,90,958,1452,120.85791976437709,69.50281144864721,0.0013233875603925,False
0.39,0.9565820268451788,2.0,3789.0,48.31008,0.3,68900.0,0.33,276.0,2700.0,34.673486946923326,6.637092531571186,17920.149835242202,23.519611324264527,9.415953665707452,11.1538756226588,2.7788611341362657,3184,96,1062,1585,127.34973360236704,73.00438045483762,0.0014519649754498,False
0.4,1.0167341560530463,2.0,3790.0,48.31008,0.3,68900.0,0.33,276.0,2700.0,38.296990545544034,7.525356822555642,20318.463420900232,25.767123034991226,10.897848833257434,12.529867510552808,3.3724920107017926,3660,104,1220,1824,129.89699682029533,74.23735634524273,0.0015452516142202,False
0.4100000000000001,1.0704183152912383,2.0,3791.0,48.31008,0.3,68900.0,0.33,276.0,2700.0,41.62967592596532,8.389735759970854,22652.286551921305,27.849762526351945,12.336713505573618,13.77991339961337,3.946977745602764,3858,108,1286,1923,132.4026561537819,75.52360842849535,0.0016244669787592,False
0.42,0.8547454619324788,2.0,3792.0,48.31008,0.3,68900.0,0.33,276.0,2700.0,27.76017260053924,5.674466701767137,15321.060094771268,19.921910508444338,7.206197908849118,7.838262092094904,1.5317312070819815,2757,86,900,1393,107.68029133599036,61.67384116387487,0.0011707578591654,False
0.43,1.0138971153808378,2.0,3793.0,48.31008,0.1,68900.0,0.33,276.0,2700.0,37.28087076725419,7.848868143553677,21191.94398759493,25.659077076600088,10.824899770415604,11.621793690654105,2.9760316268619285,60796,294,9662,38631,137.05400135745765,77.51937384905763,0.0014688611362659,False
0.44,0.7938078504128253,2.0,3794.0,48.31008,0.3,68900.0,0.33,276.0,2700.0,23.91288089767572,5.082424845086397,13722.547081733272,17.89374211227206,6.054474065227495,6.019138785403655,0.9720492201410984,2299,78,754,1156,96.92687193082904,55.66175583228673,0.001019778928208,False
0.45,1.1370356860971516,2.0,3795.0,48.31008,0.2,68900.0,0.33,276.0,2700.0,45.09994459363375,9.956635779862015,26882.91660562744,30.534845985305857,14.28080887693385,14.565098608327894,4.324173097071835,11656,166,2864,6590,132.59618073441504,75.80821442454199,0.0016477579689221,False
0.46,0.9389990290952706,2.0,3796.0,48.31008,0.3,68900.0,0.33,276.0,2700.0,31.78232803295703,7.106075405893576,19186.403595912656,22.87981975760384,9.008044504666474,8.902508275353192,1.9019690987728977,2985,92,982,1498,108.38949935569168,61.99838553153347,0.0012174566519686,False
0.4700000000000001,1.010947922526056,2.0,3797.0,48.31008,0.2,68900.0,0.33,276.0,2700.0,36.021956293773314,8.247713346320957,22268.826035066584,25.546974352056168,10.749391563642089,10.474981941717148,2.501678217321132,9306,144,2292,5256,118.55533860740302,68.13779295005021,0.0013456087867653,False
0.4800000000000001,0.9948012585581104,2.0,3798.0,48.31008,0.3,68900.0,0.33,276.0,2700.0,34.736620091805364,8.105165478869422,21883.94679294744,24.93709292385735,10.341825745342144,9.799527167948014,2.2366602664727235,3319,96,1080,1671,110.5631248639888,63.104800837707785,0.0012810818365111,False
0.49,0.9702710549848886,2.0,3799.0,48.31008,0.3,68900.0,0.33,276.0,2700.0,32.95691940718775,7.828041765359676,21135.71276647113,24.023092691787635,9.741354999763931,8.933826715400112,1.9133132344042572,3609,96,1078,1896,113.95126616447264,65.5360815276898,0.0012287837641732,False
0.5,0.8519950674805712,2.0,3800.0,48.31008,0.2,68900.0,0.33,276.0,2700.0,25.80863927446064,6.1903604308160505,16713.973163203336,19.82835885380868,7.151533492266889,5.980280420651962,0.9611730614508388,6899,118,1704,3895,103.16504208595646,59.41604194673216,0.0010274233338363,False
0.03,0.5140871032304624,2.0,3803.0,51.32946,0.1,68900.0,0.33,276.0,2700.0,18.80934453689732,0.282083619385697,761.625772341382,9.781319232905275,2.229668384347056,9.028025303992044,1.947584764961359,15315,202,5040,7749,931.483404120782,531.3565937593696,0.0070695068735591,True
0.04,0.5872833055879391,2.0,3804.0,51.32946,0.1,68900.0,0.33,276.0,2700.0,22.35541384028842,0.4469742355192138,1206.8304359018773,11.714182022885664,3.0155415717599783,10.641231817402756,2.5685673362407644,17744,222,5826,8999,870.1355211054425,496.7523013091365,0.0065749049216319,True
0.05,0.7448695514174264,2.0,3805.0,51.32946,0.1,68900.0,0.33,276.0,2700.0,31.13209551424687,0.7780405884683739,2100.709588864609,16.33251440133761,5.217232151693461,14.799581112909262,4.439191563225087,24369,268,8010,12348,875.4398449263149,498.9560396944279,0.0078804332467257,True
0.06,0.7433562126847126,2.0,3806.0,51.32946,0.2,68900.0,0.33,276.0,2700.0,30.74069268849181,0.9217683913126402,2488.7746565441284,16.285195375595787,5.192551337163376,14.455497312896023,4.270782945850736,6188,136,2032,3134,624.0381022514471,356.1428870702676,0.0065568469974066,True
0.0699999999999999,0.5026244115563518,2.0,3807.0,51.32946,0.2,68900.0,0.33,276.0,2700.0,17.279312561289515,0.604057562125012,1630.9554177375326,9.49082316862304,2.119216225635137,7.7884893926664756,1.5151586635101246,3737,96,1226,1892,373.54447662244223,214.1559146486732,0.0031252743287343,True
0.08,0.4060087592702531,2.0,3808.0,51.32946,0.2,68900.0,0.33,276.0,2700.0,12.605858451865949,0.5031620077822122,1358.537421011973,7.1735361878746815,1.3160861167745117,5.432322263991267,0.8129241089922993,2841,82,932,1437,269.2640733840908,155.4367887530277,0.002100134601455,False
0.09,0.6735450086528445,2.0,3809.0,51.32946,0.2,68900.0,0.33,276.0,2700.0,25.777115473266814,1.1584433822673628,3127.7971321218797,14.16491207166792,4.1303845858735375,11.612203401598896,2.9719412036061748,5465,124,1800,2759,384.1876583062074,220.1721999990114,0.0036561532732985,True
0.0999999999999999,0.5733648770951051,2.0,3810.0,51.32946,0.2,68900.0,0.33,276.0,2700.0,20.100554997153758,1.002933354755293,2707.920057839291,11.336275730506395,2.855134144924809,8.764279266647357,1.8522007901695168,4311,106,1414,2184,294.3531542324309,169.9184671574484,0.0026608845556968,True
0.11,0.6302312588800482,2.0,3811.0,51.32946,0.1,68900.0,0.33,276.0,2700.0,22.849362826207297,1.2539273155601174,3385.603752012317,12.91097440757902,3.544175690708571,9.938388418628277,2.2902483751484537,18305,224,6038,9242,298.75258237635035,171.81954230715513,0.0027708440698628,True
0.12,0.4856691405801537,2.0,3812.0,51.32946,0.2,68900.0,0.33,276.0,2700.0,15.342617601764884,0.9169379413689576,2475.7324416961856,9.067184979299109,1.961898405927757,6.275432622465775,1.0449604645587998,3359,90,1102,1700,223.52233899041568,128.0045108740523,0.0064308580313516,False
0.13,0.8281718335590578,2.0,3813.0,51.32946,0.3,68900.0,0.33,276.0,2700.0,33.924879865467126,2.2005158052154057,5941.392674081595,19.02599303604952,6.688743653177836,14.898886829417606,4.48822784796243,3321,98,1088,1683,326.04029883040334,187.7895219575669,0.003585534321325,True
0.14,0.5353748390781554,2.0,3814.0,51.32946,0.3,68900.0,0.33,276.0,2700.0,17.262387622572074,1.2026201134190802,3247.0743062315164,10.329569932634724,2.4437058280062427,6.932817689937352,1.2410857145871623,1884,68,614,957,210.018668906686,121.23815662464423,0.0017881046601629,False
0.15,0.5468014910634971,2.0,3815.0,51.32946,0.3,68900.0,0.33,276.0,2700.0,17.593500382304704,1.3124439452022778,3543.59865204615,10.62855284619597,2.5634432908836877,6.964947536108735,1.2509993456814097,1871,68,612,947,197.6608748496483,114.1175945729229,0.0017253075548799,False
0.16,0.7102561229447601,2.0,3816.0,51.32946,0.3,68900.0,0.33,276.0,2700.0,25.98421094234349,2.070158233048076,5589.427229229805,15.264620243983355,4.670476426228848,10.71959069836014,2.600318193180772,2504,82,822,1265,232.718568706835,134.33926330835078,0.0023015844168141,False
0.17,0.5371007585878464,2.0,3817.0,51.32946,0.3,68900.0,0.33,276.0,2700.0,16.681124484341613,1.407605818030979,3800.535708683643,10.37451891125746,2.461572612671636,6.306605573084152,1.053966794640657,1742,64,570,881,171.26018202784897,98.7773939808513,0.0015035237264741,False
0.18,0.8723381502481142,2.0,3818.0,51.32946,0.3,68900.0,0.33,276.0,2700.0,35.24844668561662,3.1601456894683406,8532.39336156452,20.52480390361924,7.561969724922308,14.723642781997384,4.401824035453968,3354,100,1104,1692,250.96359482232413,144.6409232421158,0.0027851836638256,False
0.19,0.5946657952609616,2.0,3819.0,51.32946,0.2,68900.0,0.33,276.0,2700.0,19.05958275582705,1.7962949057962547,4849.996245649888,11.91660384392552,3.1027677453848743,7.142978911901535,1.3064728395886196,4042,102,1332,2038,168.43703218469108,97.23530542977824,0.0015498882368966,False
0.2,0.5881552123112468,2.0,3820.0,51.32946,0.1,68900.0,0.33,276.0,2700.0,18.50902546439069,1.8341473856199209,4952.197941173787,11.738017656678124,3.02576563566021,6.771007807712564,1.1916182500402892,19856,198,4896,11234,161.31229767777268,93.05460953629898,0.0014715535757224,False
0.21,0.6991380958150544,2.0,3821.0,51.32946,0.3,68900.0,0.33,276.0,2700.0,24.08126707470468,2.509136849800456,6774.669494461231,14.927995948565323,4.502638141594306,9.153271126139355,1.9935012917938504,2386,80,784,1204,178.9497838677845,103.3092237825696,0.0017518916958033,False
0.22,0.6879788834620827,2.0,3822.0,51.32946,0.3,68900.0,0.33,276.0,2700.0,23.226133106191533,2.532573522630645,6837.948511102742,14.593248629183902,4.337924133454569,8.63288447700763,1.805350610823924,2385,78,782,1206,168.9522126482042,97.39423169695988,0.0016417732562855,False
0.23,0.7268108575081823,2.0,3823.0,51.32946,0.3,68900.0,0.33,276.0,2700.0,25.116364304087316,2.862899389759208,7729.828352349862,15.771610428402388,4.927365204319775,9.344753875684924,2.064465814560567,2553,82,840,1287,170.69452134475938,98.49453908961256,0.0016969085793255,False
0.24,0.6861103651807696,2.0,3824.0,51.32946,0.3,68900.0,0.33,276.0,2700.0,22.64438146230001,2.6883728575804646,7258.606715467255,14.537503842671075,4.310708475346673,8.106877619628937,1.6223356177662085,2365,78,776,1195,156.90924353902133,90.39154726199588,0.0015126559130134,False
0.25,0.8773642904553356,2.0,3825.0,51.32946,0.3,68900.0,0.33,276.0,2700.0,33.5281151836403,4.158289474480148,11227.3815810964,20.69847604633283,7.665566451410321,12.829639137307474,3.5072769769301733,3263,98,1074,1646,186.46937324025467,107.47021468208364,0.0020445952059201,False
0.26,0.6968975722482147,2.0,3826.0,51.32946,0.1,68900.0,0.33,276.0,2700.0,22.74941417676216,2.9206127546594174,7885.654437580427,14.86053496649317,4.46926721238209,7.888879210268993,1.5486544577226726,24433,220,5832,14001,150.15158720382982,86.62402336807804,0.0014564235286685,False
0.27,0.6403918830442494,2.0,3827.0,51.32946,0.3,68900.0,0.33,276.0,2700.0,19.579356402180952,2.601989135494025,7025.370665833869,13.20089249514115,3.676829926672674,6.3784639070398015,1.0748407911786484,2030,70,670,1019,131.10487606775845,75.58870290379132,0.0012487881995505,False
0.28,0.7376666995484988,2.0,3828.0,51.32946,0.2,68900.0,0.33,276.0,2700.0,24.491157217405146,3.3827858491489846,9133.52179270226,16.107810844821294,5.100401505687569,8.383346372583851,1.7176156565385845,5078,118,1688,2540,143.34112575244222,82.4076046045891,0.0014558003323065,False
0.29,0.9644660037006236,2.0,3829.0,51.32946,0.3,68900.0,0.33,276.0,2700.0,38.00109517298909,5.459078597931147,14739.512214414097,23.80900824300388,9.60252150999371,14.192086929985209,4.143442912062564,3758,106,1240,1892,176.70104782888603,101.65530229850874,0.0020355072311191,False
0.3,0.7181797344439875,2.0,3830.0,51.32946,0.3,68900.0,0.33,276.0,2700.0,22.95895879399416,3.387295151334506,9145.696908603168,15.506422124728353,4.792384276901785,7.452536669265806,1.4050891255672786,2380,78,790,1189,134.7710042385574,77.71544141820395,0.001318455931489,False
0.31,0.953184857813126,2.0,3831.0,51.32946,0.3,68900.0,0.33,276.0,2700.0,36.67643358617362,5.62245308136152,15180.623319676104,23.395393128347774,9.336264647687583,13.28104045782585,3.713811566326063,3397,100,1120,1711,163.91055727358153,94.21554794417604,0.0018910613201127,False
0.32,0.7996533107909995,2.0,3832.0,51.32946,0.3,68900.0,0.33,276.0,2700.0,27.002860179505124,4.251828490005603,11479.936923015128,18.084247969842536,6.159627604657248,8.918612209662587,1.907799114651645,2611,86,862,1312,137.2471832414624,79.0574241925354,0.0014399494972544,False
0.33,0.6625933247408003,2.0,3833.0,51.32946,0.3,68900.0,0.33,276.0,2700.0,19.41296767946224,3.127873390316564,8445.258153854722,13.843405895295325,3.977018214300373,5.569561784166913,0.8491448239838095,1906,68,628,958,110.02301867721228,63.41204595508781,0.0011043293125089,False
0.34,0.650334093780595,2.0,3834.0,51.32946,0.1,68900.0,0.33,276.0,2700.0,18.59709591304052,3.079188200112424,8313.808140303545,13.487090082955485,3.809496641837886,5.110005830085033,0.7303084417254619,26497,194,4936,16299,118.9229940077452,68.6414470023405,0.001074875339579,False
0.3500000000000001,0.9894249007038596,2.0,3835.0,51.32946,0.3,68900.0,0.33,276.0,2700.0,37.90866410525353,6.5442190284042665,17669.39137669152,24.735474709072204,10.208297321254197,13.173189396181323,3.66407829284993,3681,104,1220,1845,152.59911612772694,87.57047989359468,0.0017797039475602,False
0.36,0.9945693388354542,2.0,3836.0,51.32946,0.3,68900.0,0.33,276.0,2700.0,37.9628183017635,6.735591196420173,18186.096230334468,24.92838073451033,10.336043351957784,13.034437567253164,3.600452155537611,3653,104,1208,1835,149.00135855584594,85.45822221882554,0.0017491370821938,False
0.37,0.9121809310346356,2.0,3837.0,51.32946,0.2,68900.0,0.33,276.0,2700.0,32.42621341016296,5.892762085758626,15910.45763154829,21.918954549476044,8.407375939872907,10.507258860686914,2.5146138541142804,8623,140,2260,4769,142.86314079208972,82.16883894424991,0.0015342962254518,False
0.38,0.9406810013741096,2.0,3838.0,51.32946,0.3,68900.0,0.33,276.0,2700.0,33.93681505496282,6.333071212384365,17099.292273437786,22.940685501251323,9.046578904524932,10.996129553711498,2.7135076921405688,3066,94,1020,1530,135.66416032853286,77.72312861533861,0.0015444433923644,False
0.39,0.9813883150413344,2.0,3839.0,51.32946,0.3,68900.0,0.33,276.0,2700.0,36.26201911282913,6.946856303922804,18756.51202059157,24.435450161522823,10.010715233449789,11.826568951306308,3.063858929526985,3539,102,1176,1769,136.00672535547557,77.87663596498108,0.0015999971497129,False
0.4,1.000063057015891,2.0,3840.0,51.32946,0.3,68900.0,0.33,276.0,2700.0,37.20057758715959,7.3060742308787505,19726.400423372623,25.13511847217917,10.47356038257945,12.065459114980412,3.1674861517007,3579,102,1184,1797,137.7038260863392,78.56371583520567,0.0016049214820074,False
0.4100000000000001,1.005091516110767,2.0,3841.0,51.32946,0.3,68900.0,0.33,276.0,2700.0,37.25333116188144,7.492585083333653,20229.979725000863,25.325012628793843,10.600428468865871,11.928318533087593,3.1078433855322185,3697,104,1232,1843,135.96023378438193,77.59052817128446,0.0015813087917458,False
0.42,0.9359137025089588,2.0,3842.0,51.32946,0.3,68900.0,0.33,276.0,2700.0,32.59627079883689,6.690047323409645,18063.12777320604,22.768355488736955,8.937624801826706,9.827915310099936,2.247577478417061,2972,92,990,1481,125.3007283379178,71.60798605054403,0.0013964324535362,False
0.43,0.940307833101892,2.0,3843.0,51.32946,0.3,68900.0,0.33,276.0,2700.0,32.6123527338167,6.845136766364618,18481.86926918447,22.927175476305717,9.038020689417682,9.685177257510986,2.1928839230530635,2994,92,996,1494,121.42984383381626,69.47372098071916,0.0013760858445749,False
0.44,1.0907772753480716,2.0,3844.0,51.32946,0.3,68900.0,0.33,276.0,2700.0,42.15842262950368,9.096444026088545,24560.398870439072,28.65851723432858,12.911920737222864,13.499905395175094,3.81547671113432,3856,108,1284,1922,134.88934474093165,76.80275031067082,0.001663771071628,False
0.45,1.1031763054584578,2.0,3845.0,51.32946,0.3,68900.0,0.33,276.0,2700.0,42.72553263885885,9.422393090037666,25440.4613431017,29.15616972127309,13.270339767128371,13.569362917585757,3.8479466770907056,4046,110,1342,2021,131.42228208350716,74.69276742371511,0.001657585636847,False
0.46,1.126600340260934,2.0,3846.0,51.32946,0.3,68900.0,0.33,276.0,2700.0,44.0675602366824,9.931678812750388,26815.53279442605,30.106870957236342,13.964402612747236,13.96068927944605,4.032723799996848,4046,110,1340,2024,131.38757339052646,74.64392309573071,0.0016734498082849,False
0.4700000000000001,1.1144713467565692,2.0,3847.0,51.32946,0.3,68900.0,0.33,276.0,2700.0,42.93089899284107,9.871314880601892,26652.550177625108,29.612875148179683,13.602236143534093,13.31802384466139,3.730921262932201,4140,110,1342,2093,131.5265859892922,75.65338023215145,0.0016156650675406,False
0.4800000000000001,0.9975675053572866,2.0,3848.0,51.32946,0.3,68900.0,0.33,276.0,2700.0,34.911288422339545,8.147085878197627,21997.13187113359,25.041112696719264,10.410951726671952,9.870175725620282,2.2638658484743246,3333,96,1082,1680,116.86243502214472,67.38256063676464,0.0013661992095665,False
0.49,0.8377553306723886,2.0,3849.0,51.32946,0.2,68900.0,0.33,276.0,2700.0,25.23677099072281,5.9366054033256335,16028.83458897921,19.34705004862387,6.872615783546651,5.889720942098943,0.9360103802210178,6729,116,1670,3788,108.0811692061974,61.99895594204804,0.0010845721356416,False
0.5,1.0590054163429223,2.0,3850.0,51.32946,0.3,68900.0,0.33,276.0,2700.0,38.35244197559117,9.32631110609864,25181.039986466327,27.40094458677993,12.021431250504245,10.95149738881124,2.695120144405605,3834,102,1194,1975,126.25980447424816,72.15519754639693,0.0014314652769172,False
0.04,0.6426141593557588,2.0,3854.0,54.34884,0.1,68900.0,0.33,276.0,2700.0,25.40072035846195,0.5078803658826603,1371.2769878831828,13.264647602566614,3.706236775102457,12.136072755895336,3.1983564092197967,20578,240,6766,10423,968.0056532282546,551.3150810367431,0.0081007400546987,True
0.05,0.3880479547391655,2.0,3855.0,54.34884,0.08,68900.0,0.33,276.0,2700.0,12.452689500026914,0.3110554381128744,839.849682904761,6.768613772874311,1.1908921365740548,5.684075727152603,0.8798366984611803,15938,196,5234,8081,448.3351259731375,257.00397831094824,0.003247791011183,True
0.06,0.4069045212142276,2.0,3856.0,54.34884,0.1,68900.0,0.33,276.0,2700.0,13.06554554264238,0.3915139769371544,1057.087737730317,7.193943203740301,1.3225210359040884,5.87160233890208,0.931007058966934,10731,162,3532,5427,374.6641675327568,215.0555955214704,0.0029110347106504,True
0.0699999999999999,0.7019424068617356,2.0,3857.0,54.34884,0.1,68900.0,0.33,276.0,2700.0,27.972227800417883,0.9783095954945064,2641.435907835168,15.012610054125524,4.544619481484131,12.95961774629236,3.5663098859896243,22565,254,7436,11405,605.4578532026252,346.2691882554162,0.0053476783975852,True
0.08,0.6292183718877622,2.0,3858.0,54.34884,0.1,68900.0,0.33,276.0,2700.0,23.574427370847857,0.941904764541486,2543.142864262012,12.882215424712768,3.53111289964964,10.69221194613509,2.589208135108154,18649,228,6132,9445,451.1591930007354,258.3228373725294,0.0039310716475073,True
0.09,0.7705936584662492,2.0,3859.0,54.34884,0.3,68900.0,0.33,276.0,2700.0,31.519091805991124,1.4168323172399524,3825.4472565478713,17.14565967513613,5.647794566922518,14.373432130854994,4.230962249682566,3180,96,1050,1599,461.03372824464566,266.17092120819217,0.0048970751944196,True
0.0999999999999999,0.6367740713909856,2.0,3860.0,54.34884,0.3,68900.0,0.33,276.0,2700.0,23.463371331387304,1.1710741714669737,3161.9002629608285,13.097366241211168,3.6292589523879024,10.366005090176136,2.458184780920929,2413,80,792,1219,350.64468366596265,201.7842267992758,0.0032607217021712,True
0.11,0.5375117868336444,2.0,3861.0,54.34884,0.2,68900.0,0.33,276.0,2700.0,18.054215528882853,0.9901942142072716,2673.524378359634,10.385234561537487,2.4658390350527597,7.668980967345366,1.4756448208454875,3902,100,1278,1979,267.45179164679206,154.39650349302784,0.0023732640737708,False
0.12,0.8082645478963129,2.0,3862.0,54.34884,0.3,68900.0,0.33,276.0,2700.0,32.96823475416355,1.974474970512876,5331.082420384765,18.36645596911744,6.3165690944129,14.601778785046108,4.342094123900024,3177,96,1040,1611,979.2513417688026,562.5748354830235,0.0039491833534097,True
0.13,0.5452190764642109,2.0,3863.0,54.34884,0.3,68900.0,0.33,276.0,2700.0,17.971278151291376,1.163531693793982,3141.535573243751,10.586952581400528,2.5466574364226338,7.384325569890848,1.3831257426286518,1891,68,616,961,239.1196190104256,137.6247281713661,0.0020757905961519,False
0.14,0.5365711167217163,2.0,3864.0,54.34884,0.3,68900.0,0.33,276.0,2700.0,17.320473000521467,1.2066860898754568,3258.052442663733,10.360717223161044,2.45608148840238,6.959755777360423,1.2493953985269228,1890,68,618,957,222.7103971806628,128.56600713978293,0.0018999846980823,False
0.15,0.79649730061056,2.0,3865.0,54.34884,0.3,68900.0,0.33,276.0,2700.0,31.357635048217883,2.3447540451457614,6330.835921893556,17.98128569169568,6.102716074795422,13.376349356522203,3.757962029649661,3019,94,992,1525,290.1418872628,167.4755239931092,0.003042863543733,True
0.16,0.6006606315934244,2.0,3866.0,54.34884,0.2,68900.0,0.33,276.0,2700.0,20.059650284913644,1.5961933804536883,4309.722127224959,12.08198510535104,3.1747011006430026,7.977665179562603,1.578507720189314,4150,104,1362,2101,207.5223167760353,119.75039165918658,0.0019432331436926,False
0.17,0.5065058928653499,2.0,3867.0,54.34884,0.3,68900.0,0.33,276.0,2700.0,15.240446794930753,1.2851482144310555,3469.90017896385,9.588820774885903,2.156244743833637,5.651626020044846,0.8710965294025814,1596,62,522,807,173.62761456640612,100.22657630076182,0.0014764083415093,False
0.18,0.60004993785995,2.0,3868.0,54.34884,0.3,68900.0,0.33,276.0,2700.0,19.56083453899389,1.748260596272295,4720.303609935197,12.065096403965493,3.1673278654402965,7.495738135028402,1.4190672691680015,2057,72,678,1034,189.67097350542969,109.4640055669974,0.0017399711700958,False
0.19,0.5829148121798549,2.0,3869.0,54.34884,0.3,68900.0,0.33,276.0,2700.0,18.4725817959666,1.7405298146094992,4699.430499445648,11.595046594384028,2.9646286405827484,6.877535201582569,1.2240988259732493,2064,72,680,1038,177.8205084230068,102.65836912603424,0.0015972559927632,False
0.2,0.7279549988650664,2.0,3870.0,54.34884,0.3,68900.0,0.33,276.0,2700.0,25.944088431325863,2.5776536823134406,6959.66494224629,15.806904326074433,4.945430343542675,10.13718410525143,2.3677766612292346,2619,84,858,1326,203.90145134001645,117.71682672914204,0.0020493774817487,False
0.21,0.761313814004889,2.0,3871.0,54.34884,0.3,68900.0,0.33,276.0,2700.0,27.597927280826017,2.878386171443471,7771.642662897371,16.85040390640362,5.490057149466821,10.747523374422396,2.6116709780233505,2653,84,868,1345,203.3222559178446,117.34734896588115,0.0020803165092342,False
0.22,0.894869468017712,2.0,3872.0,54.34884,0.3,68900.0,0.33,276.0,2700.0,35.512300715115444,3.884051959612416,10486.940290953522,21.30830246131844,8.033223275095754,14.203998253797003,4.149171315483338,3357,100,1106,1692,225.7397426568153,130.21200095590189,0.0025058633298038,False
0.23,0.763678703019355,2.0,3873.0,54.34884,0.3,68900.0,0.33,276.0,2700.0,27.210911373204127,3.103772302707655,8380.185217310669,16.925441815363467,5.529995185016962,10.28546955784066,2.426222882309307,2601,84,854,1314,190.60369550761968,110.0061729884493,0.0019235097600941,False
0.24,0.5547510459375486,2.0,3874.0,54.34884,0.2,68900.0,0.33,276.0,2700.0,16.038698025555398,1.895690845171166,5118.365281962148,10.838491750876369,2.64876896321501,5.200206274679031,0.753078118043844,3437,92,1138,1724,135.33734717867088,78.09661006716271,0.0012305916181278,False
0.25,0.6273059253899708,2.0,3875.0,54.34884,0.3,68900.0,0.33,276.0,2700.0,19.358297093596683,2.387062213224692,6445.067975706668,12.827985478652993,3.5065282224616863,6.530311614943692,1.1194660092369944,1988,70,656,998,147.85601964248127,85.28127156711182,0.0013773392962694,False
0.26,0.833043282802552,2.0,3876.0,54.34884,0.3,68900.0,0.33,276.0,2700.0,30.51650465157742,3.930334516385402,10611.903194240587,19.18890314255988,6.781824374596195,11.327601509017544,2.8514898582107926,2902,90,958,1459,181.97117138412335,104.8777689049466,0.0019388057040911,False
0.27,0.6099603563343035,2.0,3877.0,54.34884,0.2,68900.0,0.33,276.0,2700.0,18.064728181480252,2.3975143256994307,6473.288679388463,12.340326647181351,3.288259804568465,5.724401534298902,0.8907454788690345,3861,98,1284,1929,134.2202384627184,77.22448715886146,0.0012500606706146,False
0.28,0.7497043936987364,2.0,3878.0,54.34884,0.3,68900.0,0.33,276.0,2700.0,25.158975824364617,3.4762804541233114,9385.95722613294,16.484075783590608,5.296563433866747,8.67490004077401,1.8202829797434357,2426,80,798,1223,162.74245041197918,92.80263930393365,0.0016088493489127,False
0.29,0.6671877831737522,2.0,3879.0,54.34884,0.3,68900.0,0.33,276.0,2700.0,20.505624223020877,2.922235310185761,7890.035337501556,13.977917362551596,4.040929967805154,6.5277068604692765,1.1186946576193924,1973,70,654,986,135.18513522675144,77.9051577284795,0.0013110711538792,False
0.3,0.9118075289193164,2.0,3880.0,54.34884,0.3,68900.0,0.33,276.0,2700.0,34.29760241249998,5.088091694110378,13737.84757409802,21.905703521966643,8.39919382996844,12.391898890533334,3.311102135858061,3310,98,1094,1663,172.52399326199856,99.28544647374972,0.0019321066826007,False
0.31,0.7651660738612909,2.0,3881.0,54.34884,0.3,68900.0,0.33,276.0,2700.0,25.2959460007836,3.858477505626062,10417.889265190368,16.972708081956796,5.555204738001844,8.323237918826806,1.6967272323757825,2584,82,852,1300,144.3497493639241,83.12730146031643,0.0014812687488615,False
0.32,0.983740994770438,2.0,3882.0,54.34884,0.3,68900.0,0.33,276.0,2700.0,38.40006955620932,6.07538199027827,16403.531373751328,24.52311315817052,10.068307115920032,13.876956398038796,3.9929251256417633,3625,104,1200,1819,174.85965376777307,100.3395962387287,0.0020284209116694,False
0.33,0.876811535755079,2.0,3883.0,54.34884,0.3,68900.0,0.33,276.0,2700.0,31.308162322544124,5.0905805064250735,13744.567367347698,20.679345209379907,7.6541305591713025,10.628817113164216,2.563550052746229,2954,92,980,1478,153.00060546275364,87.90750250520055,0.0016818443842534,False
0.34,0.8050964222653526,2.0,3884.0,54.34884,0.3,68900.0,0.33,276.0,2700.0,26.825277735126928,4.477979109867115,12090.54359664121,18.26241325813811,6.258546731295627,8.562864476988818,1.7805676214285118,2554,84,842,1285,140.4388181737047,80.78821090375348,0.0014613485826885,False
0.3500000000000001,0.8927575963962753,2.0,3885.0,54.34884,0.3,68900.0,0.33,276.0,2700.0,31.75669040580815,5.4676236310013175,14762.583803703556,21.234322849072456,7.988301013275542,10.522367556735697,2.5206773822742248,2928,92,970,1467,146.95399527982556,84.40503659601401,0.0016354893151048,False
0.36,1.0249477124819146,2.0,3886.0,54.34884,0.3,68900.0,0.33,276.0,2700.0,39.99333777252609,7.101084701157443,19172.928693125097,26.08106899457668,11.110776698223004,13.912268777949407,4.009691997065561,3751,106,1242,1882,161.99304733191298,92.72771599747428,0.0019315706193166,False
0.37,0.8465456525497512,2.0,3887.0,54.34884,0.3,68900.0,0.33,276.0,2700.0,28.48578324841094,5.163782505834503,13942.212765753156,19.643564491717477,7.043984386981827,8.842218756693466,1.8802018811473244,2722,86,904,1360,133.87767467672262,77.00919058156771,0.0014502836960181,False
0.38,0.6819647094734756,2.0,3888.0,54.34884,0.2,68900.0,0.33,276.0,2700.0,19.354572842796298,3.562445192072778,9618.6020185965,14.4141369681295,4.25069685708911,4.940435874666799,0.6882516650163324,5109,102,1330,2826,121.72157421281948,70.18708042072353,0.0010989872294596,False
0.39,0.8228183832835942,2.0,3889.0,54.34884,0.3,68900.0,0.33,276.0,2700.0,26.64068825208605,5.070696786077918,13690.88132241038,18.847651804154346,6.587366637312945,7.7930364479317085,1.5166698512350267,2780,86,922,1391,174.35497181568982,99.4307006188221,0.0013340941062063,False
0.4,0.8203175709207997,2.0,3890.0,54.34884,0.3,68900.0,0.33,276.0,2700.0,26.26651587215708,5.119261887878251,13822.007097271277,18.76458825686629,6.540336092601285,7.501927615290786,1.421074204723034,2723,84,892,1369,120.72579485949154,69.44448057795945,0.0013007404912291,False
0.4100000000000001,0.8291973589708699,2.0,3891.0,54.34884,0.3,68900.0,0.33,276.0,2700.0,26.53627167099524,5.295587887701967,14298.087296795313,19.06023890466741,6.708272850266624,7.4760327663278225,1.412684962564657,2732,84,888,1380,121.099891673428,69.1774120991848,0.0012987265073092,False
0.42,0.948720219317387,2.0,3892.0,54.34884,0.3,68900.0,0.33,276.0,2700.0,33.38954495378046,6.856634895947256,18512.91421905759,23.23258376953577,9.23217630375753,10.156961184244686,2.3755414078102746,3069,94,1022,1530,133.718000781456,76.56518471402036,0.0015148712834997,False
0.43,0.8723098156779852,2.0,3893.0,54.34884,0.3,68900.0,0.33,276.0,2700.0,28.540514982533136,5.969691649838649,16118.167454564353,20.523826636828037,7.561388177271983,8.016688345705102,1.591696527433334,2833,88,920,1433,120.12069160329769,68.88047957402281,0.0013250070532172,False
0.44,1.061395407056511,2.0,3894.0,54.34884,0.2,68900.0,0.33,276.0,2700.0,40.15562714001975,8.655829018402084,23370.738349685627,27.49466117321725,12.08703121590368,12.6609659668025,3.4312021975015945,10589,156,2618,5974,144.4222185632358,82.63998799818562,0.0017164128485843,False
0.45,0.7848740645632638,2.0,3895.0,54.34884,0.2,68900.0,0.33,276.0,2700.0,23.22159814289561,5.034007828445933,13591.82113680402,17.60424570637995,5.89590984795886,5.617352436515663,0.861902019512927,6382,112,1606,3569,117.34226719528904,67.60266751186003,0.0011358277833891,False
0.46,1.1562384383143267,2.0,3896.0,54.34884,0.3,68900.0,0.33,276.0,2700.0,46.17025515480426,10.415298643918431,28121.30633857977,31.32954234554136,14.874777306756378,14.840712809262904,4.459478662837945,4483,116,1476,2245,142.67637722532257,80.99127434957686,0.0018386164394401,False
0.4700000000000001,1.0992485608968214,2.0,3897.0,54.34884,0.3,68900.0,0.33,276.0,2700.0,41.88117826656195,9.624630509926291,25986.502376800992,28.99810605565872,13.156132323826798,12.883072210903237,3.5315018139005048,4180,110,1346,2119,138.57818489415297,79.67631279235472,0.0016795836073058,False
0.4800000000000001,1.11071638894855,2.0,3898.0,54.34884,0.3,68900.0,0.33,276.0,2700.0,42.38544869972141,9.940884344769271,26840.38773087704,29.46069082219842,13.49132688052535,12.924757877522987,3.5504425357560763,4279,110,1344,2197,141.11324346673914,80.22753728925143,0.0016747065319247,False
0.49,0.8566738144111423,2.0,3899.0,54.34884,0.3,68900.0,0.33,276.0,2700.0,26.28491831494177,6.193401497759277,16722.18404395005,19.98761468301357,7.244677709743533,6.2973036319281945,1.0512762119842556,2691,80,828,1391,113.12727351866732,65.288145681491,0.0011619793659027,False
0.5,1.1861962207817722,2.0,3900.0,54.34884,0.3,68900.0,0.33,276.0,2700.0,47.12790060199729,11.520175762700177,31104.47455929048,32.58783729364153,15.83213247404722,14.540063308355762,4.311956711347042,4953,116,1494,2590,139.2205321872124,79.66894885610472,0.0017774014075635,False
0.03,0.4417920363470572,2.0,3903.0,57.36822,0.1,68900.0,0.33,276.0,2700.0,15.310073738258795,0.2295945574061175,619.9053049965174,8.004429235464611,1.5875488259531183,7.305644502794184,1.357954268547001,12208,176,4006,6193,881.6278767724489,502.73384808930086,0.0064789155753755,True
0.04,0.5966945782023199,2.0,3904.0,57.36822,0.1,68900.0,0.33,276.0,2700.0,22.862531243029792,0.4571165835740411,1234.2147756499112,11.972471345841356,3.127000602010769,10.890059897188436,2.669884018436728,18057,224,5940,9141,946.6964036865672,539.6527409648248,0.0075429731156222,True
0.05,0.5784836896500213,2.0,3905.0,57.36822,0.1,68900.0,0.33,276.0,2700.0,21.62553968208966,0.5403766926644599,1459.0170701940417,11.474693165061089,2.9135164010016417,10.15084651702857,2.373139708337182,17730,220,5816,9000,740.1697755431472,423.4011395762589,0.0057286769134417,True
0.06,0.5800619068591787,2.0,3906.0,57.36822,0.2,68900.0,0.33,276.0,2700.0,21.45154882795968,0.643094075496674,1736.3540038410197,11.517502439356628,2.9316597321582,9.934046388603052,2.2885656566615262,4708,112,1548,2380,542.5173906200189,311.954198805448,0.0048572855681054,True
0.0699999999999999,0.6099623811427473,2.0,3907.0,57.36822,0.2,68900.0,0.33,276.0,2700.0,22.78959366907054,0.7969174008973484,2151.676982422841,12.340383131990633,3.288284791423245,10.449210537079908,2.491367390525897,4809,114,1572,2445,485.8299096507496,280.03604533755106,0.0045127915402341,True
0.08,0.6371463459198929,2.0,3908.0,57.36822,0.2,68900.0,0.33,276.0,2700.0,24.010064301019423,0.95933024174835,2590.191652720545,13.108003958591253,3.634136748202834,10.90206034242817,2.6748065064544844,5210,118,1702,2651,471.78415730029207,271.0690587574408,0.0042311035017897,True
0.09,0.7368509386340765,2.0,3909.0,57.36822,0.2,68900.0,0.33,276.0,2700.0,29.468985056805018,1.3245775135265805,3576.3592865217665,16.082444183477797,5.087271730885847,13.38654087332722,3.7626942173592672,6164,134,2022,3125,469.1755122576778,268.62846385518844,0.0047570815831448,True
0.0999999999999999,0.6908584791692861,2.0,3910.0,57.36822,0.3,68900.0,0.33,276.0,2700.0,26.49136870059697,1.322474039927364,3570.679907803883,14.679329397075946,4.380070678456676,11.812039303521026,3.0575966385293114,2737,86,894,1390,396.0476060448138,227.74757546504213,0.0038488585020622,True
0.11,0.4873698274817566,2.0,3911.0,57.36822,0.2,68900.0,0.33,276.0,2700.0,15.641072356490373,0.8574713397256846,2315.1726172593485,9.109351706441194,1.977354694554488,6.531720650049179,1.1198833548288032,3367,90,1106,1702,260.6495305139135,150.41509778798843,0.0022064964306834,False
0.12,0.4580467412979123,2.0,3912.0,57.36822,0.2,68900.0,0.33,276.0,2700.0,14.076545501509369,0.8409736153536257,2270.6287614547896,8.392495332374732,1.720803416538341,5.684050169134634,0.8798298011847153,3089,86,1016,1559,227.1428046497624,130.8335522553373,0.0018833261295496,False
0.13,0.5580002284203783,2.0,3913.0,57.36822,0.3,68900.0,0.33,276.0,2700.0,18.60512628163845,1.2047318222665409,3252.7759201196604,10.924756296580815,2.684125273535233,7.680369985057634,1.4793934512686917,1859,68,608,941,259.5004167026703,149.78800697272936,0.0022584708877212,False
0.14,0.6275767050888374,2.0,3914.0,57.36822,0.3,68900.0,0.33,276.0,2700.0,21.95014418477177,1.530763072773056,4133.060296487251,12.835658208482164,3.5100028192748174,9.114485976289602,1.9792397465017613,2327,78,762,1178,271.95386224027027,156.94112507360614,0.0024601671605327,False
0.15,0.7419631893788801,2.0,3915.0,57.36822,0.3,68900.0,0.33,276.0,2700.0,28.08403091119262,2.0992337348686028,5667.931084145227,16.2416892452536,5.169895988654277,11.84234166593902,3.0706622537856743,2841,88,924,1449,287.6126972735268,166.00130495930654,0.0029079593610401,True
0.16,0.7973019715552971,2.0,3916.0,57.36822,0.3,68900.0,0.33,276.0,2700.0,31.119965635939263,2.48101860853574,6698.750243046498,18.00751365383427,6.1171956442888575,13.112451982104997,3.636177035753117,3025,94,994,1528,287.6437458161534,165.97215902080467,0.0030281143064093,True
0.17,0.5026661566045327,2.0,3917.0,57.36822,0.2,68900.0,0.33,276.0,2700.0,15.062960994715215,1.2700619214127349,3429.1671878143843,9.49187511146262,2.119612442462137,5.5710858832525965,0.8495505210494023,3279,88,1080,1653,177.77225876747474,102.5511954781587,0.0015455417260002,False
0.18,0.723388944740599,2.0,3918.0,57.36822,0.3,68900.0,0.33,276.0,2700.0,26.205167864831576,2.346250595597684,6334.8766081137455,15.666249327784794,4.873576481397161,10.538918537046785,2.5273258857994776,2602,84,856,1312,236.4306136167734,136.3555957589042,0.0023657315519106,False
0.19,0.8278385346888806,2.0,3919.0,57.36822,0.3,68900.0,0.33,276.0,2700.0,32.14266117704898,3.0391873558123392,8205.805860693315,19.014868716091645,6.6824041651341055,13.127792460957334,3.6432168093217663,3248,96,1064,1646,253.52310963432245,146.31461616901925,0.0027198431574841,False
0.2,0.7747678477811036,2.0,3920.0,57.36822,0.3,68900.0,0.33,276.0,2700.0,28.653322957665708,2.848577134947428,7691.158264358056,17.279175111042942,5.719642303361214,11.374147846622764,2.871065168413786,2883,90,948,1455,231.08067425955207,133.3653387191219,0.0023557643228911,False
0.21,0.5366545367279784,2.0,3921.0,57.36822,0.3,68900.0,0.33,276.0,2700.0,15.808624315052256,1.6405093600372247,4429.375272100507,10.362890558071436,2.456945870146594,5.445733756980822,0.8164365101093694,1635,62,538,822,159.1869422295987,91.45917241513064,0.0013904486791063,False
0.22,0.5796079097235827,2.0,3922.0,57.36822,0.3,68900.0,0.33,276.0,2700.0,17.649203598861906,1.9191112768245275,5181.6004474262245,11.505181315155095,2.9264336161150424,6.144022283706809,1.0073223392905148,1889,68,620,953,164.34983215703937,94.86715214517474,0.0014740611315825,False
0.23,0.9292939994150236,2.0,3923.0,57.36822,0.3,68900.0,0.33,276.0,2700.0,37.462706163959375,4.282728703644511,11563.36749984018,22.530011345341524,8.787694539824805,14.93269481861785,4.504965836180294,3465,102,1142,1746,234.87161624098857,135.2921890958163,0.0026949440203091,False
0.24,0.8164496799814891,2.0,3924.0,57.36822,0.3,68900.0,0.33,276.0,2700.0,30.056040070016696,3.5777718905065217,9659.984104367608,18.636427259027265,6.46800468927786,11.419612810989433,2.8902327987713385,3160,94,1040,1594,203.8735906385145,117.56640789016188,0.0021414052425328,False
0.25,0.5752328246001138,2.0,3925.0,57.36822,0.3,68900.0,0.33,276.0,2700.0,16.802931984625392,2.06764157460328,5582.632251428857,11.386710453276288,2.876356803948354,5.416221531349104,0.8087152293450739,1821,66,604,909,144.21483031242727,83.22577906987524,0.00130571239494,False
0.26,0.8916329969874566,2.0,3926.0,57.36822,0.3,68900.0,0.33,276.0,2700.0,34.1457900758531,4.402141621541241,11885.782378161352,21.19497347098331,7.964443035475352,12.95081660486979,3.5623014139341107,3281,98,1078,1658,203.9511553063234,117.4859788571214,0.0022548566124107,False
0.27,0.8541448810537853,2.0,3927.0,57.36822,0.3,68900.0,0.33,276.0,2700.0,31.530010105316883,4.215327385417372,11381.383940626903,19.90146618279703,7.194239330019938,11.628543922519851,2.978911944602566,3126,94,1026,1581,192.3105783347968,110.83230215728062,0.002049995425621,False
0.28,0.8790659340347171,2.0,3928.0,57.36822,0.3,68900.0,0.33,276.0,2700.0,32.79532167925002,4.545368873807237,12272.49595927954,20.75741812758309,7.700838019165232,12.037903551666927,3.155469145357995,3174,96,1046,1599,189.13122760089573,108.9037354735239,0.002062873928479,False
0.29,0.8712236250481558,2.0,3929.0,57.36822,0.3,68900.0,0.33,276.0,2700.0,32.03543299035993,4.594057581449923,12403.955469914792,20.48637884842702,7.539115729493218,11.54905414193291,2.9450581480432945,3187,96,1048,1609,180.2697354323944,103.816263636326,0.0019725714798591,False
0.3,0.7736295361995579,2.0,3930.0,57.36822,0.3,68900.0,0.33,276.0,2700.0,26.01347628951504,3.845472775662639,10382.776494289124,17.242721700294762,5.699993968971751,8.770754589220278,1.854521193309112,2593,84,856,1303,157.739171458567,90.46319703688518,0.0016315975448982,False
0.31,0.6925490759113989,2.0,3931.0,57.36822,0.1,68900.0,0.33,276.0,2700.0,21.376227929873437,3.2509212046349885,8777.48725251447,14.729964092668158,4.4049302962174,6.646263837205275,1.1540090915824115,29114,212,5588,17788,146.59790681352894,84.57339314115742,0.0013953863192034,False
0.32,1.006016135194069,2.0,3932.0,57.36822,0.2,68900.0,0.33,276.0,2700.0,39.8946939470514,6.314521892812182,17049.20911059289,25.35999900800709,10.623860631709237,14.534694939044307,4.309338738897055,7791,156,2558,3924,186.20541451477487,106.88730426117822,0.0022144910955186,False
0.33,0.9700757677708536,2.0,3933.0,57.36822,0.3,68900.0,0.33,276.0,2700.0,37.2077104452327,6.0640059466686935,16372.816056005471,24.01587692923356,9.736664301508188,13.191833515999145,3.672658354839493,3695,104,1222,1856,177.21141526361433,101.75424881970476,0.0020408416655998,False
0.34,0.962312472068276,2.0,3934.0,57.36822,0.3,68900.0,0.33,276.0,2700.0,36.41662639724833,6.108508382427755,16492.972632554938,23.729803539637494,9.551333363442264,12.686822857610832,3.442824981014508,3622,104,1200,1816,169.6287650491667,97.38139711058658,0.0019648890638404,False
0.3500000000000001,0.9167594147135208,2.0,3935.0,57.36822,0.3,68900.0,0.33,276.0,2700.0,33.24034851411538,5.7272637999549705,15463.61225987842,22.081717413763585,8.508103918082226,11.158631100351798,2.780840118127255,3102,94,1030,1551,159.95855557753012,91.9287509693974,0.0017894837430903,False
0.36,1.0022572536581222,2.0,3936.0,57.36822,0.3,68900.0,0.33,276.0,2700.0,38.47230164802769,6.82729819874773,18433.70513661887,25.217901714931216,10.528802574364711,13.254399933096472,3.701504375616983,3679,104,1218,1846,168.08785808085446,96.34152277185616,0.0019748351573635,False
0.37,0.7392298027172859,2.0,3937.0,57.36822,0.3,68900.0,0.33,276.0,2700.0,22.5095233497133,4.05817442457544,10957.070946353688,16.156463367906472,5.125617692319095,6.35305998180683,1.0674432677436547,2202,74,730,1101,124.66068235677388,71.74839405904765,0.0012847538801763,False
0.38,0.8211506572341314,2.0,3938.0,57.36822,0.3,68900.0,0.33,276.0,2700.0,26.78149452752928,4.973560312172046,13428.612842864526,18.79224144796705,6.555980131789938,7.989253079562221,1.5824198196178916,2778,86,918,1395,132.55082802690958,76.02226174799564,0.0014373503067877,False
0.39,1.0203563294221982,2.0,3939.0,57.36822,0.3,68900.0,0.33,276.0,2700.0,38.81989135700651,7.445641391537405,20103.231757151,25.90536402282961,10.991432086993951,12.9145273341769,3.545790695456546,3780,106,1252,1896,158.0640505433067,90.61001577778482,0.0018867347010288,False
0.4,0.7929746766275567,2.0,3940.0,57.36822,0.1,68900.0,0.33,276.0,2700.0,24.74553726378733,4.815066166204304,13000.67864875162,17.866658575338164,6.0395767522370285,6.87887868844917,1.224510586032725,38610,230,6552,24174,135.49675928039017,78.11354752740496,0.0013429801413214,False
0.4100000000000001,1.0417883215242352,2.0,3941.0,57.36822,0.3,68900.0,0.33,276.0,2700.0,39.685302533188896,7.9911392144516835,21576.075879019547,26.73006803389492,11.555452551071706,12.955234499293976,3.564313336620023,3779,106,1252,1895,154.46250329213476,88.47517057579897,0.0018577073560176,False
0.42,0.7847155563694794,2.0,3942.0,57.36822,0.3,68900.0,0.33,276.0,2700.0,23.85382467334478,4.854133637056298,13106.160820052006,17.59912741094195,5.893119836423225,6.2546972624028285,1.038986199366927,2321,78,772,1155,117.29934317126926,67.3152298648153,0.0012435138556023,False
0.43,1.0960557017553554,2.0,3943.0,57.36822,0.3,68900.0,0.33,276.0,2700.0,42.81462625681343,9.03862557380891,24404.289049284056,28.86990197695934,13.063750192774837,13.944724279854093,4.025124618965927,3855,108,1282,1926,152.47997434799612,86.78703238869906,0.0019108311959492,False
0.44,1.056155042501408,2.0,3944.0,57.36822,0.3,68900.0,0.33,276.0,2700.0,39.80298109088608,8.578246887592675,23161.266596500223,27.28936310886275,11.943487387786735,12.513617982023328,3.365240500194062,3833,106,1272,1915,145.85435829469426,83.13864391746115,0.0017786222227791,False
0.45,1.0547160190332314,2.0,3945.0,57.36822,0.3,68900.0,0.33,276.0,2700.0,39.42748269823537,8.680331853397382,23436.89600417293,27.233108287277528,11.904257836086824,12.194374410957844,3.223925982689442,3882,106,1272,1952,143.05700239808567,81.44690103151393,0.0017393237040661,False
0.46,1.1392067029973472,2.0,3946.0,57.36822,0.3,68900.0,0.33,276.0,2700.0,44.95653096341039,10.136142079897851,27367.5836157242,30.624227784672964,14.347197546880034,14.332303178737424,4.211055466982183,4196,112,1378,2111,154.24793020306817,88.52623759623033,0.0018925198457715,False
0.4700000000000001,1.1397530116716268,2.0,3947.0,57.36822,0.3,68900.0,0.33,276.0,2700.0,44.699988306956335,10.287050869418971,27775.037347431225,30.64673822764052,14.36393397664556,14.053250079315813,4.076883107226587,4267,112,1372,2171,150.06197353583332,86.10088731253849,0.0018630053213138,False
0.4800000000000001,0.7910506919176462,2.0,3948.0,57.36822,0.2,68900.0,0.33,276.0,2700.0,22.928789750596703,5.27128619697934,14232.472731844218,17.80418328927393,6.005261689984833,5.124606461322774,0.7339754930054925,6174,110,1526,3479,116.677363592083,67.30264586880189,0.0011541465805832,False
0.49,0.9006567404235354,2.0,3949.0,57.36822,0.3,68900.0,0.33,276.0,2700.0,28.79125157991205,6.807453147677272,18380.123498728637,21.51160713249702,8.157128109744523,7.279644447415031,1.349674962067251,3088,86,898,1641,128.9942878068537,74.1050471715481,0.0013237328312602,False
0.5,0.8274967295192178,2.0,3950.0,57.36822,0.2,68900.0,0.33,276.0,2700.0,24.466703533361606,5.8548764955412524,15808.166537961382,19.003463386130004,6.675906733990494,5.463240147231602,0.8210302384492412,6587,114,1610,3726,118.350174207302,67.97347029697545,0.0011793409360651,False
0.04,0.4026127254502656,2.0,3954.0,60.3876,0.1,68900.0,0.33,276.0,2700.0,13.305404477976406,0.2659740482729748,718.1299303370321,7.09635178366651,1.2918556877254816,6.2090526943098965,1.0258816394525068,11020,164,3612,5596,647.4266973381008,370.1427600010033,0.0046433686925228,True
0.05,0.5577873081310519,2.0,3955.0,60.3876,0.1,68900.0,0.33,276.0,2700.0,20.540351633682995,0.513246991454278,1385.7668769265506,10.919095220830558,2.6817997739629043,9.621256412852436,2.1685527825086264,16348,210,5364,8296,781.1110885945433,446.0392535035272,0.0057324764909404,True
0.06,0.7598271753799026,2.0,3956.0,60.3876,0.2,68900.0,0.33,276.0,2700.0,31.752073966648783,0.9521098296573492,2570.6965400748427,16.803304827970457,5.465041704708909,14.948769138678326,4.51293187505156,6092,136,2004,3080,744.1195784764122,424.9276849334009,0.008015714219282,True
0.0699999999999999,0.757832157552516,2.0,3957.0,60.3876,0.2,68900.0,0.33,276.0,2700.0,31.32905485253557,1.0957985423186192,2958.656064260272,16.740186772635077,5.431581789471164,14.588868079900491,4.335783247152545,6168,136,2024,3126,657.2796921541453,375.26457591748726,0.0068121810071785,True
0.08,0.655221729743388,2.0,3958.0,60.3876,0.2,68900.0,0.33,276.0,2700.0,25.01510759655492,0.9995319735697716,2698.7363286383834,13.62869696412883,3.8757624452603054,11.38641063242609,2.8762304716905347,5300,122,1740,2684,498.7077405436169,285.5711019286735,0.0046256399182249,True
0.09,0.7278519238976628,2.0,3959.0,60.3876,0.2,68900.0,0.33,276.0,2700.0,28.93189872723528,1.3004086286959415,3511.1032974790423,15.80372337280216,4.943801211335135,13.128175354433118,3.643392582639193,5955,130,1950,3024,500.2786611454061,286.45219970776907,0.0049041385347873,True
0.0999999999999999,0.6035742909599239,2.0,3960.0,60.3876,0.2,68900.0,0.33,276.0,2700.0,21.67746146781484,1.0817786782883487,2920.8024313785418,12.162691234903727,3.2100214129908773,9.514770232911111,2.1282427347025283,4459,108,1454,2272,362.44472378078825,208.54199960910935,0.0033637168690576,True
0.11,0.6626096733330578,2.0,3961.0,60.3876,0.3,68900.0,0.33,276.0,2700.0,24.625667778228337,1.3516240879212726,3649.385037387436,13.843883590740942,3.977244538403625,10.781784187487396,2.625620450482352,2403,80,790,1212,367.682963192738,212.2586025884964,0.0034942462726132,True
0.12,0.439480295558757,2.0,3962.0,60.3876,0.2,68900.0,0.33,276.0,2700.0,13.247105745795947,0.7912072300108215,2136.259521029218,7.949777913940071,1.569107856121725,5.297327831855876,0.7779006261109036,2882,84,944,1460,229.55303685191777,132.53048913382042,0.0018829584947582,False
0.13,0.7053995012921961,2.0,3963.0,60.3876,0.3,68900.0,0.33,276.0,2700.0,26.50840751929369,1.718445102714131,4639.801777328154,15.1171925212637,4.596700181286148,11.39121499802999,2.878255078572017,2681,86,880,1355,332.8950253269451,192.0321107397664,0.0032584394146631,True
0.14,0.6417245471515143,2.0,3964.0,60.3876,0.3,68900.0,0.33,276.0,2700.0,22.70726846216633,1.583761772190677,4276.156784914828,13.23911053092487,3.694447743230059,9.46815793124146,2.1106859710393824,2402,78,784,1220,284.9401913873463,164.45885279919875,0.0026700355368636,True
0.15,0.5119002239280394,2.0,3965.0,60.3876,0.2,68900.0,0.33,276.0,2700.0,15.919254967297718,1.186875539076753,3204.563955507233,9.725642800032237,2.2083387204900493,6.193612167265483,1.0214631814132964,3486,94,1150,1755,212.20262182922448,122.44168849330993,0.0018606941136405,False
0.16,0.7013140803893627,2.0,3966.0,60.3876,0.3,68900.0,0.33,276.0,2700.0,25.478197464319035,2.029677154806122,5480.12831797653,14.993634461643053,4.535192623120791,10.484563002675984,2.5055154683146688,2465,82,810,1244,273.11707894154847,157.60305704424542,0.0026614802238575,False
0.17,0.848125714014897,2.0,3967.0,60.3876,0.3,68900.0,0.33,276.0,2700.0,33.99734983096551,2.879484972494009,7774.609425733825,19.697068910805253,7.07506468814679,14.300280920160258,4.19557971565278,3335,98,1090,1694,305.0366699785085,176.08466558158784,0.0033112920690916,True
0.18,0.7950274237862942,2.0,3968.0,60.3876,0.3,68900.0,0.33,276.0,2700.0,30.415419554472123,2.725173247665334,7357.967768696401,17.933417594633763,6.0763209864411625,12.48200195983836,3.3511477387758286,2921,92,962,1472,271.4704782710453,156.69865980391174,0.0028406522214299,False
0.19,0.7416133685513795,2.0,3969.0,60.3876,0.3,68900.0,0.33,276.0,2700.0,26.98621094842816,2.5493245840933585,6883.176377052068,16.23077149692721,5.164216217199177,10.755439451500951,2.614891633105818,2645,84,866,1340,242.04246862656203,139.60802098534563,0.0024500806028292,False
0.2,0.6266936112917545,2.0,3970.0,60.3876,0.2,68900.0,0.33,276.0,2700.0,20.46055889064709,2.029300728245547,5479.111966262977,12.810641930700957,3.498678776431809,7.649916959946129,1.4693780481862624,4219,106,1388,2131,199.5060302682624,115.08263197922614,0.0018656835572764,False
0.21,0.7132231064966376,2.0,3971.0,60.3876,0.3,68900.0,0.33,276.0,2700.0,24.860891771408134,2.590997442954591,6995.693095977395,15.354977764427035,4.715900293354771,9.505914006981104,2.12490285040018,2432,80,796,1232,214.99027940180204,124.11665663726627,0.0021164567623743,False
0.22,0.6261144124463219,2.0,3972.0,60.3876,0.3,68900.0,0.33,276.0,2700.0,19.97018713323512,2.174419465605581,5870.932557135069,12.794245031163864,3.491263616355754,7.175942102071257,1.316844150750173,2159,74,710,1088,182.8057776456224,105.37144811736516,0.0017097447547939,False
0.23,0.5747963234991251,2.0,3973.0,60.3876,0.1,68900.0,0.33,276.0,2700.0,17.201702172888165,1.9527132446713216,5272.325760612568,11.374917038983645,2.871389066392209,5.826785133904522,0.9186758217208872,18708,190,4612,10584,166.65475009733035,96.2174774480167,0.0014942169705812,False
0.24,0.8829702327904034,2.0,3974.0,60.3876,0.3,68900.0,0.33,276.0,2700.0,34.167806101496446,4.071183814284096,10992.196298567058,20.892931535583678,7.782145598698174,13.274874565912771,3.710961784414078,3283,98,1078,1660,228.2357322171272,131.57557159042042,0.0025205512595992,False
0.25,0.6711379093481256,2.0,3975.0,60.3876,0.3,68900.0,0.33,276.0,2700.0,21.61489951031404,2.6691375153143606,7206.671291348774,14.093988925806878,4.096373624612577,7.5209105845071615,1.427236109298216,2210,76,730,1109,172.1083770617065,99.3002993068638,0.00166856337139,False
0.26,0.7490195028117923,2.0,3976.0,60.3876,0.3,68900.0,0.33,276.0,2700.0,25.61289339495348,3.292865053024292,8890.735643165588,16.46257028470426,5.285281005715831,9.150323110249218,1.9924159526915388,2511,82,826,1266,396.0248669161161,228.6200927688768,0.0018624346018255,True
0.27,0.6199107633598343,2.0,3977.0,60.3876,0.2,68900.0,0.33,276.0,2700.0,18.554854720554303,2.463681408474426,6651.93980288095,12.619150852378946,3.412436221311871,5.935703868175358,0.948754812837445,3766,98,1246,1891,156.52699190017518,90.2579681852069,0.0014166341733684,False
0.28,0.7234796235487383,2.0,3978.0,60.3876,0.3,68900.0,0.33,276.0,2700.0,23.713447444746382,3.273906480976761,8839.547498637254,15.669037543106738,4.874997204628675,8.044409901639645,1.6010907236519143,2459,80,806,1244,166.95793605476848,96.11696968267287,0.001665429682723,False
0.29,0.7148350688315297,2.0,3979.0,60.3876,0.3,68900.0,0.33,276.0,2700.0,23.01083602469376,3.285491021428299,8870.825757856408,15.404161763987732,4.740691571769029,7.606674260706024,1.4552005503407297,2211,76,730,1110,158.11589703516057,91.23261601382158,0.0015917439361345,False
0.3,0.7535563083712133,2.0,3980.0,60.3876,0.3,68900.0,0.33,276.0,2700.0,24.88987163091973,3.67693207687333,9927.716607557992,16.605245084901863,5.360291934446108,8.284626546017865,1.683359857572778,2416,80,792,1222,163.37377816781895,94.19274333865268,0.001653379394398,False
0.31,0.9095258185610964,2.0,3981.0,60.3876,0.3,68900.0,0.33,276.0,2700.0,33.87541733235745,5.188295562020008,14008.39801745402,21.824807944388247,8.349303674356335,12.050609387969203,3.161008112336328,3336,98,1102,1677,185.5766312029021,106.7001167504184,0.0020753461675016,False
0.32,0.7061733398518251,2.0,3982.0,60.3876,0.2,68900.0,0.33,276.0,2700.0,21.867461735432062,3.430164738953911,9261.44479517556,15.140643480656822,4.608407520430226,6.726818254775244,1.1782427814763148,5141,112,1572,2679,146.00443045550497,84.05981125867434,0.0014523942474934,False
0.33,0.7200822634461866,2.0,3983.0,60.3876,0.3,68900.0,0.33,276.0,2700.0,22.37878548640748,3.617233328462527,9766.529986848824,15.564715811067304,4.821941133005982,6.814069675340171,1.204707804543455,2366,78,780,1190,142.95082118650234,82.35904735085158,0.0014334208857888,False
0.34,0.7464435824820443,2.0,3984.0,60.3876,0.3,68900.0,0.33,276.0,2700.0,23.5652319193247,3.9237713211807534,10594.182567188034,16.38179222065463,5.242978810966647,7.183439698670068,1.3192074897858932,2342,78,772,1178,143.41028909947406,82.62415346881255,0.0014632839712094,False
0.3500000000000001,0.9837362091608106,2.0,3985.0,60.3876,0.3,68900.0,0.33,276.0,2700.0,37.53362443304868,6.478587085768414,17492.18513157472,24.52293470078552,10.068189758300624,13.01068973226316,3.5896026725322105,3643,104,1204,1831,178.74686858678848,102.44831323119276,0.0020782613328433,False
0.36,1.0009629357716268,2.0,3986.0,60.3876,0.3,68900.0,0.33,276.0,2700.0,38.38631833886591,6.811821203098606,18391.91724836624,25.169054704178706,10.496194209436371,13.217263634687203,3.6843730063377658,3665,104,1214,1838,176.74677413290348,101.27841352666792,0.0020366156991214,False
0.37,0.8015879100676402,2.0,3987.0,60.3876,0.2,68900.0,0.33,276.0,2700.0,25.911694374806306,4.687576064217645,12656.455373387642,18.14748646292956,6.194674533105163,7.7642079118767455,1.5070984688875173,6646,122,1786,3641,154.1176949786028,88.80056201140438,0.0015190523243449,False
0.38,0.7354963731255308,2.0,3988.0,60.3876,0.3,68900.0,0.33,276.0,2700.0,22.09576778802313,4.083272231665877,11024.835025497869,16.040359956263796,5.06551551482857,6.055407831759339,0.9822432831626936,2178,74,722,1089,126.89596030763316,72.57232954566042,0.0013063108794976,False
0.39,0.9040109904074404,2.0,3989.0,60.3876,0.3,68900.0,0.33,276.0,2700.0,31.40920541071452,6.000557632010468,16201.505606428263,21.62982597645166,8.22948160636053,9.77937943426286,2.228923974350062,2873,90,954,1436,150.7527141132948,86.50785120330603,0.0016728205310379,False
0.4,0.7522308418706994,2.0,3990.0,60.3876,0.3,68900.0,0.33,276.0,2700.0,22.548837683687594,4.3757262501843535,11814.460875497754,16.563507934166346,5.338309903827941,5.985329749521249,0.9625836536435876,2125,74,704,1063,121.65196944516678,69.82728489028418,0.0012876067537645,False
0.4100000000000001,0.7598431484376087,2.0,3991.0,60.3876,0.2,68900.0,0.33,276.0,2700.0,22.738070215849632,4.51695658939713,12195.78279137225,16.80381058467145,5.465310108905812,5.934259631178183,0.9483535195086824,5865,108,1464,3295,136.1208438702286,78.45450580131799,0.0013046258392149,False
0.42,1.0003575488944665,2.0,3992.0,60.3876,0.3,68900.0,0.33,276.0,2700.0,36.67175082702757,7.545898129329685,20373.92494919015,25.146222110980247,10.480964105748754,11.525528716047326,2.935065976419069,3590,102,1184,1802,153.45140236064805,87.85930665632353,0.0018088428347055,False
0.43,1.0677228320961465,2.0,3993.0,60.3876,0.3,68900.0,0.33,276.0,2700.0,40.86794990804215,8.620090158823084,23274.243428822327,27.74346602607013,12.261788239929077,13.12448388197202,3.641698081105991,3875,108,1292,1929,157.14210110153007,89.89548219640264,0.0019387354840133,False
0.44,1.0224856289531692,2.0,3994.0,60.3876,0.3,68900.0,0.33,276.0,2700.0,37.57015106383267,8.087024281640868,21834.965560430344,25.9867830705693,11.046679029008182,11.58336799326337,2.9596547473673134,3707,104,1218,1862,149.19319559899162,85.31419335851457,0.0017898437171196,False
0.45,0.7826552924999339,2.0,3995.0,60.3876,0.2,68900.0,0.33,276.0,2700.0,23.10351660827385,5.007439483156036,13520.086604521295,17.532658078643603,5.856929480580672,5.570858529630247,0.8494899974246364,6385,112,1608,3573,129.28112879029624,74.33814175940407,0.0012578510351727,False
0.46,1.0920322607516213,2.0,3996.0,60.3876,0.2,68900.0,0.33,276.0,2700.0,41.67088617212052,9.38044377790118,25327.19820033319,28.708712087626708,12.947918250803689,12.96217408449381,3.5674744729025054,10810,158,2664,6100,157.65951405972115,90.41291298767143,0.0019101978221666,False
0.4700000000000001,0.8940162540370118,2.0,3997.0,60.3876,0.3,68900.0,0.33,276.0,2700.0,28.866051026987527,6.566075608626303,17728.404143291016,21.27840057775258,8.015055491184187,7.587650449234946,1.448979882557884,2855,86,896,1465,126.76387408324614,72.65031154982638,0.0014160225310301,False
0.4800000000000001,1.1367557364853802,2.0,3998.0,60.3876,0.3,68900.0,0.33,276.0,2700.0,44.1965936650664,10.375559136452075,28014.009668420607,30.5233289488888,14.272262270795652,13.6732647161776,3.896703134343575,4159,110,1342,2110,154.0957843023335,88.62797846659521,0.0019184188743254,False
0.49,0.8341788817900835,2.0,3999.0,60.3876,0.2,68900.0,0.33,276.0,2700.0,25.04064573004728,5.888554714460127,15899.097729042342,19.226965357038303,6.803636882215699,5.813680373008975,0.915082167755572,6738,116,1674,3791,127.7480899182809,73.59138751073537,0.0012692857763256,False
0.5,0.9523498701766662,2.0,4000.0,60.3876,0.3,68900.0,0.33,276.0,2700.0,31.62063799897045,7.643360111943974,20637.07230224873,23.36490603786919,9.316742513067158,8.255731961101265,1.6733824011231846,3204,90,958,1683,138.97344518119058,79.77475169626311,0.0014731927873389,False
0.06,0.4507097922445601,2.0,4006.0,63.40698,0.1,68900.0,0.33,276.0,2700.0,15.044622803562898,0.4508862947647709,1217.3929958648814,8.216510230438336,1.65987452990745,6.828112573124562,1.208988235142679,12518,178,4112,6344,497.3624749285099,284.9254032426118,0.0038645502359313,True
0.0699999999999999,0.6400509704062167,2.0,4007.0,63.40698,0.2,68900.0,0.33,276.0,2700.0,24.438138792441613,0.8546164802153372,2307.4644965814105,13.191122999152531,3.672331240943077,11.24701579328908,2.81771476072774,5380,120,1764,2728,591.1762568853641,339.3981416324136,0.0053532416458534,True
0.08,0.5866736657792098,2.0,4008.0,63.40698,0.2,68900.0,0.33,276.0,2700.0,21.29059258050344,0.8505513729277135,2296.4887069048264,11.69752742596944,3.0084052171993125,9.593065154534,2.157853844271599,4458,108,1456,2268,460.4629055005395,265.09120852408944,0.0041823898601423,True
0.09,0.6995671587796422,2.0,4009.0,63.40698,0.2,68900.0,0.33,276.0,2700.0,27.270289016562256,1.2256361917154373,3309.2177176316804,14.940929201756312,4.509045966216458,12.329359814805944,3.2834097745010213,5594,126,1840,2828,500.2127506697302,286.2806570344522,0.0048214316486807,True
0.0999999999999999,0.4607103057439927,2.0,4010.0,63.40698,0.1,68900.0,0.33,276.0,2700.0,14.624572751154432,0.7291342424553275,1968.6624546293845,8.456718698006753,1.7432428606787127,6.16785405314768,1.0141086182233852,11952,172,3934,6045,288.72414308689133,166.67235644314135,0.0024754665074124,True
0.11,0.5021483182575086,2.0,4011.0,63.40698,0.08,68900.0,0.33,276.0,2700.0,16.339170474969272,0.8958667362417277,2418.8401878526647,9.478829084823298,2.1147005637018634,6.860341390145974,1.2188338274601356,20524,228,6790,10333,285.63933186522337,164.71873345148362,0.0025320005370261,True
0.12,0.6846557521086549,2.0,4012.0,63.40698,0.3,68900.0,0.33,276.0,2700.0,25.59645439760009,1.5321681491190702,4136.85400262149,14.49416811814823,4.289593557023031,11.102286279451862,2.757425407903961,2547,82,838,1284,369.4053851813735,213.21847501213796,0.0035399694474169,True
0.13,0.4673358262965618,2.0,4013.0,63.40698,0.2,68900.0,0.33,276.0,2700.0,14.286328338293266,0.9240099559491032,2494.826881062578,8.617245402687992,1.7998042015680826,5.6690829356052745,0.8757942456189796,3082,86,1012,1558,235.01865310985588,135.39114859935123,0.0019847024611968,False
0.14,0.6616881325957513,2.0,4014.0,63.40698,0.3,68900.0,0.33,276.0,2700.0,23.79273833307932,1.6597446631545831,4481.310590517374,13.81696724026908,3.9644992396080463,9.97577109281024,2.304754576453463,2286,78,750,1155,310.3177091796701,178.58702036306715,0.0029222212604601,True
0.15,0.7695437393994315,2.0,4015.0,63.40698,0.3,68900.0,0.33,276.0,2700.0,29.72096806708866,2.22200402156106,5999.410858214862,17.112145935197685,5.629810607697711,12.608822131890976,3.4078065861366507,3004,92,984,1522,326.07576272614085,188.25961252341455,0.0033788110944819,True
0.16,0.5810024588592917,2.0,4016.0,63.40698,0.3,68900.0,0.33,276.0,2700.0,19.060819800097512,1.5162869416683995,4093.9747425046794,11.543044761474466,2.942504552312283,7.517775038623046,1.4262176106438835,2059,72,674,1042,242.95196349870503,140.26502219452044,0.0021659509524415,False
0.17,0.5096905765773627,2.0,4017.0,63.40698,0.2,68900.0,0.33,276.0,2700.0,15.388216049499611,1.2977086010694092,3503.8132228874047,9.669508787858833,2.1869105204247603,5.71870726164078,0.8892019193553511,3328,90,1098,1675,209.6055595841167,120.94947730087084,0.0018298654744843,False
0.18,0.5916345068572844,2.0,4018.0,63.40698,0.3,68900.0,0.33,276.0,2700.0,19.135357546202577,1.7099676669210746,4616.912700686901,11.8333226510952,3.066771365335104,7.3020348951073775,1.3568036984140297,2100,72,688,1062,218.1054371518721,125.92174223365116,0.0019924328453982,False
0.19,0.666383727264473,2.0,4019.0,63.40698,0.3,68900.0,0.33,276.0,2700.0,22.792583715693496,2.150929996983568,5807.510991855632,13.954338805376535,4.029700421078217,8.838244910316961,1.8787704240946492,2249,76,734,1142,233.15935514271345,134.40611396467173,0.0022209554102851,False
0.2,0.7803501617860983,2.0,4020.0,63.40698,0.3,68900.0,0.33,276.0,2700.0,28.98374331390181,2.881619170570609,7780.371760540644,17.458415174495112,5.816600007401418,11.5253281394067,2.934980836830809,2983,92,980,1507,257.0398557183681,148.31411588881454,0.002631876636849,False
0.21,0.7431342735633768,2.0,4021.0,63.40698,0.3,68900.0,0.33,276.0,2700.0,26.549590082155085,2.768310765583021,7474.439067074158,16.27826063008293,5.188937784779493,10.271329452072155,2.420627019196472,2629,84,862,1330,234.2369374890305,135.2142912182111,0.0023497594152635,False
0.22,0.7546091179114085,2.0,4022.0,63.40698,0.3,68900.0,0.33,276.0,2700.0,26.948079952171685,2.9419876756886034,7943.366724359229,16.638428100620732,5.377791560142487,10.309651851550951,2.435803884453884,2607,84,856,1317,228.7668587375773,132.0564697963144,0.0022986201952551,False
0.23,0.6471999502295513,2.0,4023.0,63.40698,0.3,68900.0,0.33,276.0,2700.0,20.82654100854217,2.36956971077153,6397.838219083131,13.39660214249384,3.767368031008119,7.42993886604833,1.3977983202365891,2153,74,708,1085,192.79930995031464,111.18215401349268,0.0018028069054463,False
0.24,0.7778529729151751,2.0,4024.0,63.40698,0.3,68900.0,0.33,276.0,2700.0,27.772269850279763,3.303719464138088,8920.042553172838,17.378137223041403,5.773103314541577,10.39413262723836,2.4693838504034886,2785,88,918,1402,216.1301073080776,124.70233165005288,0.0022136937585095,False
0.25,0.8580168790619114,2.0,4025.0,63.40698,0.3,68900.0,0.33,276.0,2700.0,32.31958993090326,4.0072238178880175,10819.504308297648,20.03343173446475,7.271553131034598,12.286158196438514,3.2643293131465807,3099,94,1020,1563,226.88371322294665,130.79697615947106,0.0024455832978751,False
0.26,0.8712738387755005,2.0,4026.0,63.40698,0.3,68900.0,0.33,276.0,2700.0,32.86509906446147,4.235651790060329,11436.259833162889,20.48810937614066,7.540144470382849,12.376989688320808,3.30449268032252,3166,96,1044,1594,220.0790855010676,126.72190220229211,0.0024098550409949,False
0.27,0.647326644229364,2.0,4027.0,63.40698,0.3,68900.0,0.33,276.0,2700.0,19.931023673170948,2.6494642170776723,7153.553386109716,13.400255221013188,3.769065531524756,6.53076845215776,1.119601314447083,1982,70,654,995,163.84643033510375,94.4795985429029,0.0015624674722193,False
0.28,0.870576127434372,2.0,4028.0,63.40698,0.3,68900.0,0.33,276.0,2700.0,32.26836893579981,4.471595489724239,12073.307822255443,20.4640696601264,7.525858071215439,11.804299275673412,3.054262581491201,3199,96,1052,1615,206.11143105754235,118.64511804299433,0.0022494244132737,False
0.29,0.6321778863017515,2.0,4029.0,63.40698,0.3,68900.0,0.33,276.0,2700.0,18.737594063232315,2.665870937016418,7197.851529944329,12.966317554270743,3.569362398325511,5.771276508961572,0.903491461309093,1983,70,652,999,148.460878924515,85.13907699347065,0.0014993762538045,False
0.3,0.9821193373948448,2.0,4030.0,63.40698,0.3,68900.0,0.33,276.0,2700.0,38.8814044730744,5.775662003196551,15594.287408630687,24.462673825414665,10.028588043471188,14.41873064765974,4.252926040274637,3747,106,1238,1884,214.1831068266242,122.88252056483157,0.0025026896594554,False
0.31,0.8295330364293965,2.0,4031.0,63.40698,0.3,68900.0,0.33,276.0,2700.0,28.991945364788364,4.431357407046803,11964.664999026369,19.071454087114112,6.7146728250838015,9.920491277674252,2.283315418036999,2824,88,936,1414,180.4746004376123,103.95150625122474,0.001918418370101,False
0.32,0.6566890910405639,2.0,4032.0,63.40698,0.3,68900.0,0.33,276.0,2700.0,19.326805168853717,3.0236596883013744,8163.881158413711,13.671327226124296,3.895791938097546,5.6554779427294175,0.8721322497961714,1943,70,642,974,140.15803223151357,80.43052942275114,0.0013843406642921,False
0.33,0.9994670755178404,2.0,4033.0,63.40698,0.3,68900.0,0.33,276.0,2700.0,39.15749885924786,6.385721034981195,17241.446794449228,25.11265401801761,10.458587011661594,14.044844841230244,4.072865976680399,3740,106,1236,1880,200.5512081170271,115.20138805645112,0.0023521583264827,False
0.34,0.6808228276192456,2.0,4034.0,63.40698,0.3,68900.0,0.33,276.0,2700.0,20.12285068328405,3.3385665110537794,9014.129579845205,14.380232595930124,4.234256976153014,5.742618087353925,0.8956904650992343,2077,72,682,1048,136.40003341726637,78.33934881104531,0.0013713727298194,False
0.3500000000000001,0.7994244878523042,2.0,4035.0,63.40698,0.3,68900.0,0.33,276.0,2700.0,26.2625943896336,4.506156828170773,12166.623436061089,18.07677438959137,6.155490368981086,8.18582000004223,1.6493335408103134,2562,84,846,1287,157.06804194223662,90.39897489710292,0.0016461795471969,False
0.36,1.0237456036401322,2.0,4036.0,63.40698,0.3,68900.0,0.33,276.0,2700.0,39.9121061891304,7.086463016146219,19133.45014359479,26.03501499059797,11.079452099182408,13.87709119853243,3.992989083036189,3755,106,1244,1883,188.8620173712848,108.10738715663592,0.0022502492553277,False
0.37,0.6949356902137873,2.0,4037.0,63.40698,0.3,68900.0,0.33,276.0,2700.0,20.211627304677062,3.6330636562436287,9809.271871857798,14.801567338899616,4.440170455389315,5.4100599657774495,0.8071067991456862,1979,70,658,986,130.41888149191357,74.58047496050524,0.0013131898250585,False
0.38,0.9411096433704108,2.0,4038.0,63.40698,0.3,68900.0,0.33,276.0,2700.0,33.96376671641692,6.338192028060698,17113.118475763884,22.95620819216916,9.05641557242794,11.007558524247765,2.718223544367243,3071,94,1022,1532,168.2337340641019,96.4517569307764,0.0019066786026936,False
0.39,0.9185841332884168,2.0,4039.0,63.40698,0.3,68900.0,0.33,276.0,2700.0,32.30017506884755,6.17429671534638,16670.601131435225,22.14673209615692,8.54845614203716,10.15344297269063,2.374159426690781,3096,94,1030,1545,162.4635382084349,93.14213038905164,0.001804443832306,False
0.4,0.9512256488494726,2.0,4040.0,63.40698,0.3,68900.0,0.33,276.0,2700.0,34.069080055054435,6.679774724457287,18035.391756034674,23.323886117780734,9.29049824810149,10.745193937273696,2.610723523644204,3100,94,1030,1549,166.3353603794375,95.54810224284876,0.0018514420963986,False
0.4100000000000001,0.8637271097406352,2.0,4041.0,63.40698,0.1,68900.0,0.33,276.0,2700.0,28.51745582775222,5.701730639837164,15394.672727560344,20.228735577657595,7.386505872563831,8.288720250094624,1.6847752327266674,45475,252,7632,28549,155.2399752630056,89.40083145866215,0.0016225553495761,False
0.42,0.834886759151616,2.0,4042.0,63.40698,0.3,68900.0,0.33,276.0,2700.0,26.62739090178204,5.436582545028193,14678.77287157612,19.25070789505881,6.817255618383223,7.37668300672323,1.3806730733550303,2744,84,886,1391,140.5779092386345,80.68175339076396,0.0014983497175599,False
0.43,0.9818161368751666,2.0,4043.0,63.40698,0.3,68900.0,0.33,276.0,2700.0,35.21217996574224,7.404099621228604,19991.06897731723,24.45138084564748,10.021172660131642,10.76079912009476,2.6170730389030377,3347,98,1118,1664,155.33941206788066,89.03533666446394,0.0018131946660501,False
0.44,0.8535040023397271,2.0,4044.0,63.40698,0.3,68900.0,0.33,276.0,2700.0,27.22457253985015,5.81099700636436,15689.691917183773,19.879660079879404,7.181491892050143,7.344912459970747,1.3704948856857824,2797,84,882,1434,136.9318553198179,78.52070698556174,0.0014743836027607,False
0.45,0.8770073661854989,2.0,4045.0,63.40698,0.3,68900.0,0.33,276.0,2700.0,28.34334767961345,6.186401474207323,16703.283980359774,20.686122021088057,7.658180867781795,7.657225658525395,1.4717793935744714,2814,86,894,1437,135.79053040050337,77.86630465831952,0.0015008141180998,False
0.46,1.0549892552813782,2.0,4046.0,63.40698,0.2,68900.0,0.33,276.0,2700.0,39.16928990917316,8.805076637423287,23773.706921042874,27.243785733864986,11.911700367110615,11.925504175308175,3.10662372968733,10303,154,2562,5798,161.7866822596036,92.59653482685611,0.0019110001111844,False
0.4700000000000001,0.9847191134392056,2.0,4047.0,63.40698,0.3,68900.0,0.33,276.0,2700.0,34.357031856835526,7.856456103640578,21212.431479829564,24.55959969378071,10.092311472837254,9.797432163054816,2.235855369196676,3309,96,1084,1661,146.75925952469578,83.80888427983827,0.0016755308689701,False
0.4800000000000001,0.7915990136368347,2.0,4048.0,63.40698,0.1,68900.0,0.33,276.0,2700.0,22.957766004277623,5.278240497862762,14251.249344229458,17.821978814805217,6.015028988866057,5.135787189472406,0.7367884910032947,40301,216,6072,25889,139.04268078000365,77.96561420629814,0.0012846909574894,False
0.49,0.8517863033351218,2.0,4049.0,63.40698,0.2,68900.0,0.33,276.0,2700.0,26.012410325266988,6.126637040288955,16541.92000878018,19.82126573315028,7.147394782288765,6.191144592116707,1.0207577419998095,6786,118,1678,3823,134.1632346305914,77.29625846558456,0.0013697253789063,False
0.5,0.8475573424038596,2.0,4050.0,63.40698,0.2,68900.0,0.33,276.0,2700.0,25.56331836397531,6.129030203194676,16548.381548625628,19.67781534956666,7.063874905330605,5.885503014408648,0.934844702135929,6742,116,1666,3801,133.50126553200155,76.68932105260424,0.0013383365575833,False
0.03,0.3444122426639061,2.0,4053.0,66.42636,0.1,68900.0,0.33,276.0,2700.0,11.011902232349376,0.1651219848174758,445.8293590071847,5.818632165176732,0.9164394310382,5.193270067172644,0.7513174462207242,9068,146,2972,4604,756.8941472086786,432.2343630351303,0.0055064322183883,True
0.04,0.3494663253651138,2.0,4054.0,66.42636,0.08,68900.0,0.33,276.0,2700.0,11.018555287009,0.2202370644536262,594.6400740247907,5.926212893771244,0.9461188697716978,5.0923423932377565,0.7258818053180716,14495,184,4754,7358,614.9555595612103,352.43134181427354,0.0042899124580027,True
0.05,0.496459724027361,2.0,4055.0,66.42636,0.1,68900.0,0.33,276.0,2700.0,17.451144951404913,0.4360168243973238,1177.2454258727744,9.335958622155005,2.061186102849429,8.11518632924991,1.6251692784521057,14390,194,4728,7292,716.4181031347198,409.88831665540056,0.0054194070034947,True
0.06,0.7575598336956432,2.0,4056.0,66.42636,0.2,68900.0,0.33,276.0,2700.0,31.61204096756518,0.947908839684836,2559.353867149057,16.731578793073822,5.4270242093658645,14.880462174491356,4.479115369681028,6133,136,2016,3103,815.9623085450038,465.9632274795571,0.0087716441981022,True
0.0699999999999999,0.6988328031315892,2.0,4057.0,66.42636,0.2,68900.0,0.33,276.0,2700.0,27.790071038049703,0.9719341088116206,2624.222093791376,14.91879632263586,4.49808213800109,12.871274715413843,3.526148029189469,5457,126,1798,2754,668.0643068626168,381.61594025083,0.0065013899619235,True
0.08,0.4327289046065963,2.0,4058.0,66.42636,0.2,68900.0,0.33,276.0,2700.0,13.786939606477803,0.5504052539666877,1486.0941857100568,7.790938785113893,1.5159726344934157,5.996000821363911,0.9655673805267276,3078,86,1004,1566,367.84997916144016,212.29918556305876,0.0029458029802454,True
0.09,0.4505021077420449,2.0,4059.0,66.42636,0.2,68900.0,0.33,276.0,2700.0,14.374899227480435,0.6453436512069721,1742.4278582588247,8.211548370757564,1.6581686033375322,6.163350856722873,1.01282495213056,3211,88,1050,1630,345.60069846122093,199.5314789605352,0.0027806441375832,True
0.0999999999999999,0.507179809412295,2.0,4060.0,66.42636,0.2,68900.0,0.33,276.0,2700.0,16.806092844014454,0.83821024709833,2263.167667165491,9.605874044972884,2.1627125544189423,7.20021879904157,1.3245023073206124,3615,94,1180,1839,339.70056321067904,196.05986624624524,0.0029383960150477,True
0.11,0.4862377555780982,2.0,4061.0,66.42636,0.2,68900.0,0.33,276.0,2700.0,15.588048862698953,0.8545550475671564,2307.2986284313224,9.0812750956841,1.9670581488368264,6.506773767014851,1.11250310126967,3380,90,1110,1709,301.2286625895569,173.82993813807013,0.0025466717025703,True
0.12,0.4608124302065648,2.0,4062.0,66.42636,0.2,68900.0,0.33,276.0,2700.0,14.20158302185795,0.8484758665745409,2290.88483975126,8.459184653168645,1.744106624445812,5.7423983686893045,0.8956307578712712,3092,86,1012,1568,263.43556333649343,152.0928182839918,0.0021979930723511,False
0.13,0.8234658657621261,2.0,4063.0,66.42636,0.3,68900.0,0.33,276.0,2700.0,33.62663601383426,2.18112995485927,5889.050878120031,18.86918330862647,6.599577131685029,14.757452705207786,4.418447176825758,3362,98,1100,1706,416.6915770516917,240.57527569124605,0.0045885292317273,True
0.14,0.4747371969032296,2.0,4064.0,66.42636,0.2,68900.0,0.33,276.0,2700.0,14.412355263869024,1.0031178483098648,2708.418190436635,8.79787444141805,1.8642512304601355,5.6144808224509735,0.8611333821502707,3054,86,1004,1542,235.1470810365493,135.47952876714888,0.0019831108793053,False
0.15,0.8128956501345583,2.0,4065.0,66.42636,0.3,68900.0,0.33,276.0,2700.0,32.371238130589994,2.420774276323669,6536.090546073908,18.518997393519086,6.401979039202927,13.852240737070908,3.9812047628792575,3256,96,1066,1651,362.724750712082,209.41061877709268,0.0038497396079994,True
0.16,0.6487266561882334,2.0,4066.0,66.42636,0.3,68900.0,0.33,276.0,2700.0,22.583694811877717,1.7981169426108152,4854.915745049201,13.44064984547584,3.7878543198175705,9.143044966401872,1.9897373772067557,2314,78,758,1171,278.07144451572145,160.54192463155331,0.0026301972251065,True
0.17,0.79388465390181,2.0,4067.0,66.42636,0.3,68900.0,0.33,276.0,2700.0,30.627439720440705,2.5930426130994,7001.21505536838,17.8962396006804,6.055848462959674,12.731200119760306,3.4628058498602745,3006,94,988,1518,314.1569600388592,181.3675893406512,0.0032891152960984,True
0.18,0.8184753148697346,2.0,4068.0,66.42636,0.3,68900.0,0.33,276.0,2700.0,31.84950651548801,2.854241074156709,7706.450900223115,18.703498955248055,6.505823200502681,13.146007560239948,3.6515821263459713,3271,96,1072,1657,306.4335656456471,176.89290073515417,0.0032583161807249,True
0.19,0.8339259843204256,2.0,4069.0,66.42636,0.3,68900.0,0.33,276.0,2700.0,32.52082705033439,3.075113113774456,8302.805407191032,19.21848611088594,6.79877550355153,13.302340939448449,3.723662389777074,3263,96,1068,1655,295.73938409298887,170.7186918518358,0.0031815781455492,True
0.2,0.5106910098279829,2.0,4070.0,66.42636,0.2,68900.0,0.33,276.0,2700.0,14.812185004928647,1.46446333967372,3954.051017119045,9.694908651397016,2.1965969218702037,5.117276353531633,0.7321335821964832,3266,90,1078,1643,181.73189245927324,104.83556441353672,0.0015864116642268,False
0.21,0.6871024302507511,2.0,4071.0,66.42636,0.3,68900.0,0.33,276.0,2700.0,23.42297767067068,2.440016462377157,6588.044448418324,14.567089873393572,4.32514529870257,8.855887797277104,1.8851288363254133,2375,78,780,1199,227.41324713434528,131.1979820397282,0.0022136761772121,False
0.22,0.5972576276163546,2.0,4072.0,66.42636,0.3,68900.0,0.33,276.0,2700.0,18.517241349174075,2.0145954293588657,5439.407659268937,11.987994627492665,3.1337460648000626,6.529246721681412,1.1191506354411969,1958,68,644,986,193.45342121596155,111.69017331317248,0.0017721152549152,False
0.23,0.7590662755636473,2.0,4073.0,66.42636,0.3,68900.0,0.33,276.0,2700.0,26.94512962159252,3.0732074012723194,8297.659983435262,16.7792198008044,5.452265237221854,10.16590982078812,2.379057835949535,2617,84,860,1321,230.6069658320324,133.10245132384455,0.0023315811259162,False
0.24,0.6194246831245055,2.0,4074.0,66.42636,0.3,68900.0,0.33,276.0,2700.0,19.1825571335933,2.272953938135713,6136.975632966425,12.605472399424093,3.406305626149251,6.577084734169208,1.133351688013538,1906,68,630,955,187.8848752101656,108.23857037293332,0.0017171709404879,False
0.25,0.8737618134984972,2.0,4075.0,66.42636,0.3,68900.0,0.33,276.0,2700.0,33.301662923205306,4.129982941925769,11150.953943199578,20.573932400973,7.591225099135937,12.727730522232306,3.461242157210168,3231,98,1066,1626,240.8938634028456,138.87125854017853,0.0026309246960065,False
0.26,0.6734792003437049,2.0,4076.0,66.42636,0.3,68900.0,0.33,276.0,2700.0,21.507314191450085,2.759139756568848,7449.677342735888,14.16297114929752,4.1294524808259965,7.344343042152566,1.3703127242571491,2274,76,744,1152,185.5898545804729,107.13012307385551,0.0017829134353621,False
0.04,0.4244924157126298,2.0,4104.0,69.44574,0.1,68900.0,0.33,276.0,2700.0,14.288127507379162,0.2856285088610302,771.1969739247816,7.598711230238457,1.4525954640436922,6.689416277140705,1.166966955182662,11761,172,3860,5965,775.0066298299965,443.26068551156993,0.0057059946616286,True
0.06,0.7406621181481109,2.0,4106.0,69.44574,0.2,68900.0,0.33,276.0,2700.0,30.576562453769583,0.9168444842709692,2475.480107531617,16.201098958809645,5.14879080407707,14.375463494959938,4.2319463198061005,6174,136,2028,3126,841.363398315538,480.177296788486,0.0088164479005209,True
0.0699999999999999,0.533440576887708,2.0,4107.0,69.44574,0.2,68900.0,0.33,276.0,2700.0,18.80201949226056,0.6573523047089994,1774.8512227142985,10.279283948921265,2.423774379737167,8.522735543339294,1.7664220750281676,4018,102,1316,2038,525.2934773388354,303.21141867555576,0.0048551488929593,True
0.08,0.4661969546865928,2.0,4108.0,69.44574,0.2,68900.0,0.33,276.0,2700.0,15.316917892241149,0.6116043853972203,1651.331840572495,8.589573681679177,1.790006025785287,6.727344210561972,1.1784016403880666,3439,92,1120,1753,408.0578567307831,235.1655045799128,0.0033889815802637,True
0.09,0.4602285099249012,2.0,4109.0,69.44574,0.2,68900.0,0.33,276.0,2700.0,14.8199789192569,0.6653722373369142,1796.5050408096683,8.44508851835741,1.7391712508869783,6.37489040089949,1.073799013550064,3196,88,1046,1621,360.9114299956215,208.355065017086,0.0029884232654127,True
0.0999999999999999,0.6685747252609497,2.0,4110.0,69.44574,0.2,68900.0,0.33,276.0,2700.0,25.225969020970265,1.2592040559461193,3399.8509510545223,14.01862696623354,4.0603447550302905,11.207342054736724,2.801140699084171,5204,120,1710,2633,484.3801626255559,278.4971810525848,0.0044466319382699,True
0.11,0.696723857282072,2.0,4111.0,69.44574,0.3,68900.0,0.33,276.0,2700.0,26.554208012929923,1.45769380082986,3935.7732622406224,14.855309770749804,4.4666861689118535,11.69889824218012,3.008992368081993,2719,86,888,1381,444.2401675952511,256.45805748302496,0.0043093117089137,True
0.12,0.4586333627483695,2.0,4112.0,69.44574,0.2,68900.0,0.33,276.0,2700.0,14.103034684142782,0.8425629663116317,2274.9200090414056,8.406624527998257,1.7257307781449909,5.696410156144525,0.8831678118333591,3087,86,1012,1563,274.2287805816135,158.08503411038197,0.0022843925442401,False
0.13,0.5961223494351369,2.0,4113.0,69.44574,0.3,68900.0,0.33,276.0,2700.0,20.544465251893588,1.3307888553331255,3593.1299093994394,11.956703152874384,3.1201541213916504,8.587762099019203,1.7893652660585246,2203,74,722,1114,330.5132928011361,190.8168922400816,0.0029808205457217,True
0.14,0.7855907619972576,2.0,4114.0,69.44574,0.3,68900.0,0.33,276.0,2700.0,30.977634164749716,2.162687371371512,5839.255902703082,17.62739604666569,5.908535060807737,13.350238118084022,3.745847689436226,3042,94,1000,1536,390.6954723383941,225.54408124633423,0.0040784334174042,True
0.15,0.7761217894613273,2.0,4115.0,69.44574,0.3,68900.0,0.33,276.0,2700.0,30.1170301051066,2.2517086744123853,6079.613420913441,17.322576286456272,5.743066674875864,12.794453818650323,3.491358000463479,3077,94,1010,1556,362.401350383858,209.23206790075855,0.0037494776839415,True
0.16,0.5642330506171259,2.0,4116.0,69.44574,0.3,68900.0,0.33,276.0,2700.0,18.224120064141918,1.4493509627919516,3913.247599538269,11.09097799766394,2.752734845106226,7.133142066477973,1.3033838823142745,1890,68,614,963,263.15329265284055,151.92834561969252,0.002290842240434,False
0.17,0.5403236853887554,2.0,4117.0,69.44574,0.3,68900.0,0.33,276.0,2700.0,16.83562774366511,1.4207385950731313,3835.9942066974554,10.458655624668111,2.495144440836995,6.3769721189969975,1.074405845763864,1709,64,560,863,233.3376846220826,134.17225085667107,0.0020513132456452,False
0.18,0.6382447933387931,2.0,4118.0,69.44574,0.3,68900.0,0.33,276.0,2700.0,21.53667690401821,1.9260864091244847,5200.433304636109,13.13941231418928,3.648552448755799,8.397264589828932,1.722466039631314,2294,76,746,1169,259.3264589353876,149.7174335200281,0.0024144150476582,False
0.19,0.8410027273377756,2.0,4119.0,69.44574,0.3,68900.0,0.33,276.0,2700.0,32.96279137936403,3.1170997250322685,8416.169257587126,19.45636478074549,6.935620751783891,13.506426598618535,3.818521026751623,3191,96,1048,1613,312.74352862549256,180.5305717206691,0.003367264025742,True
0.2,0.8683650460844891,2.0,4120.0,69.44574,0.3,68900.0,0.33,276.0,2700.0,34.400436795448314,3.4232885187252537,9242.879000558183,20.387967446403103,7.480694505180105,14.012469349045208,4.057405986454851,3276,98,1076,1656,306.64098322440583,176.84204456909103,0.0033574628444199,True
0.21,0.8539739419832098,2.0,4121.0,69.44574,0.3,68900.0,0.33,276.0,2700.0,33.199368667810994,3.466537517076893,9359.651296107611,19.89564891685951,7.19083788909704,13.303719750951483,3.724300372020146,3224,96,1060,1628,288.08329682856623,166.26489145201546,0.00313196846942,True
0.22,0.5523129948385529,2.0,4122.0,69.44574,0.3,68900.0,0.33,276.0,2700.0,16.337633443562336,1.7748385597415748,4792.064111302252,10.773936673912122,2.6224228911304786,5.563696769650214,0.8475843313889038,1609,62,532,805,188.1280991411234,108.57710326147765,0.001674018665544,False
0.23,0.9040587838561108,2.0,4123.0,69.44574,0.3,68900.0,0.33,276.0,2700.0,35.81158135726555,4.092849350874723,11050.693247361753,21.63151247560791,8.230515410639658,14.180068881657643,4.137666059764935,3371,100,1108,1703,279.14455390730893,160.92251990013202,0.0031174562355401,True
0.24,0.8930184053932502,2.0,4124.0,69.44574,0.3,68900.0,0.33,276.0,2700.0,34.808239909213526,4.148035871210065,11199.696852267176,21.24345301406401,7.993840306296692,13.564786895149515,3.8458044350866274,3239,98,1066,1634,265.7526382468703,153.1249923853281,0.0029456489899485,False
0.25,0.883896385062411,2.0,4125.0,69.44574,0.3,68900.0,0.33,276.0,2700.0,33.94038745107569,4.209823507909547,11366.523471355778,20.925133360480647,7.801510544941579,13.015254090595048,3.591687037032032,3278,98,1076,1658,254.08821533998704,146.42206837152904,0.0027946553909204,False
0.26,0.8180593111983657,2.0,4126.0,69.44574,0.3,68900.0,0.33,276.0,2700.0,29.616043436231596,3.813274558390446,10295.841307654204,18.68971605836912,6.498045343288006,10.92632737786247,2.68477078489756,2956,90,978,1483,231.5170846204558,133.5265984161081,0.002422881642986,False
0.27,0.712925949732973,2.0,4127.0,69.44574,0.3,68900.0,0.33,276.0,2700.0,23.377202995716395,3.114698425621305,8409.685749177524,15.3459180822367,4.7113388039840265,8.031284913479697,1.5966403783627214,2303,78,756,1163,198.18144654092305,114.33294508536004,0.0019407396199055,False
0.28,0.6477275909115117,2.0,4128.0,69.44574,0.3,68900.0,0.33,276.0,2700.0,19.732089553285117,2.716516376172184,7334.594215664895,13.411818724641185,3.7744406374347648,6.320270828643929,1.0579242612625812,1987,70,658,994,174.92528786029234,100.91355295866748,0.0016634900709805,False
0.29,0.8055868728994938,2.0,4129.0,69.44574,0.3,68900.0,0.33,276.0,2700.0,28.09807519207505,4.023140700698619,10862.47989188627,18.27850338079194,6.267507488917376,9.819571811283115,2.244366788218757,2629,86,868,1321,206.5999778345494,119.0599186971762,0.0021420922070594,False
0.3,0.9902281832766224,2.0,4130.0,69.44574,0.3,68900.0,0.33,276.0,2700.0,39.426022284289054,5.857354674878747,15814.857622172616,24.765552359803525,10.22817897635776,14.660469924485527,4.370824301479012,3751,106,1238,1888,237.40273687074492,136.30702653459656,0.0027719400731866,False
0.31,0.8714390300164838,2.0,4131.0,69.44574,0.3,68900.0,0.33,276.0,2700.0,31.5101470150013,4.821678662829813,13018.532389640495,20.49380284859787,7.543529396842578,11.016344166403432,2.721850734012765,2957,92,980,1481,206.65196513218856,118.86930331115748,0.0022489883877345,False
0.32,0.7946715477322113,2.0,4132.0,69.44574,0.3,68900.0,0.33,276.0,2700.0,26.71810251269908,4.206267263316631,11356.921610954903,17.921836278548415,6.069940973402296,8.79626623415066,1.8636737100856644,2560,84,846,1285,183.5638871724992,105.72820588943551,0.0019327913916632,False
0.33,1.0188106663102046,2.0,4133.0,69.44574,0.3,68900.0,0.33,276.0,2700.0,40.46442514287871,6.6013638717802845,17823.682453806767,25.84633314103312,10.951436750083309,14.61809200184559,4.350072878303022,3899,108,1286,1964,221.69195765837105,127.21086983384572,0.0026477867143,False
0.34,0.9307925891237584,2.0,4134.0,69.44574,0.3,68900.0,0.33,276.0,2700.0,34.39410491948656,5.7646797312082505,15564.635274262277,22.583872020283927,8.821498133442532,11.810232899202632,3.0568184022342813,3313,98,1096,1663,201.9029564768318,115.90387315635704,0.0022712100223414,False
0.3500000000000001,0.986242368317546,2.0,4135.0,69.44574,0.2,68900.0,0.33,276.0,2700.0,37.69864810557405,6.507466228460352,17570.15881684295,24.61646920072194,10.129765308855369,13.082178904852103,3.622299080395017,7509,148,2348,3871,212.1912422774585,121.68778869139264,0.0024019975696662,False
0.36,0.8514926820936557,2.0,4136.0,69.44574,0.3,68900.0,0.33,276.0,2700.0,29.023166526023985,5.126453876787058,13841.425467325056,19.81129130048346,7.141576302042435,9.211875225540524,2.015122425255377,2807,88,928,1409,176.60707753113516,101.47050854164716,0.001904674861988,False
0.37,0.916543983784635,2.0,4137.0,69.44574,0.3,68900.0,0.33,276.0,2700.0,32.695826060394005,5.942640426051369,16045.129150338696,22.074047137602168,8.503347659416445,10.621778922791837,2.560707233365076,3102,94,1030,1551,183.3258377835964,104.93919919683016,0.0020616041230134,False
0.38,0.6818571408090437,2.0,4138.0,69.44574,0.2,68900.0,0.33,276.0,2700.0,19.349209589534787,3.561426173953091,9615.850669673346,14.410941677371325,4.249146519485697,4.9382679121634645,0.6877203455326057,5109,102,1330,2826,155.51424951172885,89.67272965416,0.0014040037307497,False
0.39,0.8660811474864258,2.0,4139.0,69.44574,0.3,68900.0,0.33,276.0,2700.0,29.14030897120574,5.558122826306254,15006.931631026884,20.30948797593621,7.434220099438918,8.83082099526953,1.8760972731326648,2800,88,930,1399,166.32932762268655,95.4909835000523,0.0018230235648012,False
0.4,0.7207339509209632,2.0,4140.0,69.44574,0.3,68900.0,0.33,276.0,2700.0,20.907872100017283,4.047533133450291,10928.339460315789,15.584704500381411,4.832090975958077,5.32316759963587,0.7845578425077857,2130,72,712,1056,134.56538104008737,76.97553187698573,0.0014028150879471,False
0.4100000000000001,0.8561415830710322,2.0,4141.0,69.44574,0.2,68900.0,0.33,276.0,2700.0,28.07709072863024,5.611455794517158,15150.930645196328,19.96947078692812,7.234044503486015,8.107619941702122,1.622588708968857,7521,126,1864,4239,169.0021197779628,97.29521224411582,0.0017481946501372,False
0.42,0.7933423290534254,2.0,4142.0,69.44574,0.3,68900.0,0.33,276.0,2700.0,24.32172279713956,4.952392243053202,13371.459056243646,17.8786075063953,6.046147669027081,6.443115290744256,1.093755425973879,2301,78,766,1144,144.71268154242787,83.15363924020096,0.0015266915195851,False
0.43,0.7771839023523182,2.0,4143.0,69.44574,0.2,68900.0,0.33,276.0,2700.0,23.234204969244686,4.828834996981708,13037.85449185061,17.356655012975597,5.7614833016728415,5.877549956269089,0.932648304691134,6354,112,1598,3553,152.21484189811414,87.70401417354313,0.001487146509075,False
0.44,0.8033168907244461,2.0,4144.0,69.44574,0.2,68900.0,0.33,276.0,2700.0,24.428408363481797,5.195840887563734,14028.770396422082,18.204083260061893,6.226100102727927,6.2243251034199005,1.0302592151641932,6622,116,1656,3716,152.72232209999157,88.08147980678186,0.0015221138437033,False
0.45,0.7958563659615253,2.0,4145.0,69.44574,0.2,68900.0,0.33,276.0,2700.0,23.809712425289213,5.166333541984489,13949.10056335812,17.960406298882862,6.091197937476015,5.849306126406351,0.924864395491526,6329,112,1568,3567,150.86491922315835,86.94375911138665,0.0014779707185738,False
0.46,1.1557137517554237,2.0,4146.0,69.44574,0.3,68900.0,0.33,276.0,2700.0,46.13264699883511,10.406648768045535,28097.951673722942,31.307705300909237,14.858344846095504,14.82494169792588,4.45169607804997,4483,116,1476,2245,182.2509480998771,103.4581928254449,0.0023478293518434,False
0.4700000000000001,0.9587379446632458,2.0,4147.0,69.44574,0.3,68900.0,0.33,276.0,2700.0,32.74191883456407,7.476904543406788,20187.642267198327,23.598593354603512,9.466745133231466,9.143325479960556,1.989840589824678,3384,96,1084,1718,156.11707757307494,89.88583816080609,0.0017861038127412,False
0.4800000000000001,0.8493103486938014,2.0,4148.0,69.44574,0.3,68900.0,0.33,276.0,2700.0,26.09204413135265,6.030467248360767,16282.261570574072,19.737224450330874,7.098422300391772,6.35481968102178,1.0679550520310048,2597,80,826,1322,141.87396301756252,81.91001695299336,0.0015044393032266,False
0.49,0.7997949506578879,2.0,4149.0,69.44574,0.2,68900.0,0.33,276.0,2700.0,23.187904064048304,5.434633006289971,14673.50911698292,18.088874725363603,6.162189382793682,5.099029338684701,0.7275563765037107,6492,112,1596,3670,138.96785286446104,79.97422326889682,0.0013956025086318,False
0.5,0.998304327889033,2.0,4150.0,69.44574,0.3,68900.0,0.33,276.0,2700.0,34.45104923282256,8.350962920406497,22547.59988509754,25.068852028292344,10.429412801371342,9.382197204530218,2.078449880964845,3723,96,1084,1979,163.71603544548248,93.89853156143931,0.00180014487658,False
0.05,0.487686329202458,2.0,4155.0,72.46512,0.1,68900.0,0.33,276.0,2700.0,17.0246667875639,0.4253548703012988,1148.458149813507,9.117207053688702,1.980239063093108,7.907459733875196,1.5548841927918091,13523,188,4436,6863,749.4660815906728,428.4257091017207,0.0057777304514132,True
0.06,0.7595573174275908,2.0,4156.0,72.46512,0.2,68900.0,0.33,276.0,2700.0,31.73539375677825,0.9516094233612308,2569.3454430753227,16.794761254932666,5.460508352092683,14.940632501845585,4.508898928731452,6092,136,2004,3080,892.6306879297354,509.7356683318392,0.0096128397652202,True
0.0699999999999999,0.5238912539252779,2.0,4157.0,72.46512,0.1,68900.0,0.33,276.0,2700.0,18.32505853541505,0.6406586712194073,1729.7784122923997,10.032403447296163,2.326794772104385,8.292655088118885,1.6861361008849776,14894,198,4884,7562,576.4352419045081,330.20334407305126,0.0046480015420149,True
0.08,0.5008902262421504,2.0,4158.0,72.46512,0.1,68900.0,0.33,276.0,2700.0,16.962339058435674,0.6774212320450023,1829.0373265215064,9.447161745431782,2.102795248898956,7.515177313003893,1.425374016853954,13627,188,4478,6904,463.532253883422,266.0671469173336,0.0038763857529698,True
0.09,0.6920099083809113,2.0,4159.0,72.46512,0.2,68900.0,0.33,276.0,2700.0,26.833140314279184,1.2059645001129191,3256.1041503048823,14.713807801774696,4.396992733655386,12.119332512504489,3.191028233542467,5338,124,1760,2692,557.3068897005139,319.45316823377726,0.0053966873985714,True
0.0999999999999999,0.4896580853794083,2.0,4160.0,72.46512,0.1,68900.0,0.33,276.0,2700.0,15.970784320584633,0.7964448209268375,2150.401016502461,9.166201335457997,1.9982642587513169,6.804582985126638,1.2018194378244793,12915,182,4242,6546,348.92341967536413,201.4401528675159,0.0030589470171781,True
0.11,0.7819345304171594,2.0,4161.0,72.46512,0.3,68900.0,0.33,276.0,2700.0,31.62687422666816,1.736690442585464,4689.064194980753,17.509429656499524,5.8443009772945125,14.117444570168637,4.107610534709048,3161,96,1034,1604,515.4786010922635,297.1950551917179,0.0054365770695447,True
0.12,0.7331912429427964,2.0,4162.0,72.46512,0.3,68900.0,0.33,276.0,2700.0,28.39943694027235,1.7003471016789165,4590.9371745330745,15.968849185376484,5.028622843423233,12.430587754895864,3.3282757417443163,2905,88,946,1480,442.6152230623293,255.03280422572556,0.0044519619948567,True
0.13,0.6729017359057011,2.0,4163.0,72.46512,0.2,68900.0,0.33,276.0,2700.0,24.672089659346703,1.5990844418175774,4317.527992907459,14.145944325972131,4.121278785246592,10.526145333374572,2.522194343429014,5502,122,1808,2784,373.676274131005,214.95771898466143,0.0036628016458768,True
0.14,0.6573323420200997,2.0,4164.0,72.46512,0.3,68900.0,0.33,276.0,2700.0,23.55419451752209,1.6430465960655825,4436.225809377072,13.690032225473573,3.904592048174445,9.864162292048524,2.2615454521088623,2313,78,758,1170,351.9191138542317,203.14832662543088,0.0033090433531109,True
0.15,0.7995997453544637,2.0,4165.0,72.46512,0.3,68900.0,0.33,276.0,2700.0,31.548364428679545,2.3590587486803893,6369.458621437051,18.08249835249588,6.158658960880151,13.465866076183666,3.799600212199762,3010,94,988,1522,482.7279439486879,278.50950574725704,0.0055108274029042,True
0.16,0.7970390384977581,2.0,4166.0,72.46512,0.3,68900.0,0.33,276.0,2700.0,31.103878954308627,2.4797316740052904,6695.275519814284,17.998941654739305,6.112462000634219,13.104937299569322,3.632730326628928,3026,94,994,1529,363.2186157662394,209.5796925334408,0.0038231980740714,True
0.17,0.5123339331384283,2.0,4167.0,72.46512,0.2,68900.0,0.33,276.0,2700.0,15.51125492077576,1.3081669051278817,3532.050643845281,9.736675181192986,2.212559213601172,5.774579739582773,0.90439230847329,3387,92,1116,1707,228.47275656104415,131.85470347395497,0.0019977830888694,False
0.18,0.6386355996195741,2.0,4168.0,72.46512,0.3,68900.0,0.33,276.0,2700.0,21.557272532697908,1.9279400157056543,5205.438042405267,13.15059411151041,3.6536895984472553,8.406678421187499,1.7257495827416007,2287,76,744,1165,268.3585850440021,154.91912721044386,0.0025209580925592,False
0.19,0.6940775061591439,2.0,4169.0,72.46512,0.3,68900.0,0.33,276.0,2700.0,24.303269399220945,2.294445136918676,6195.001869680424,14.775803602107745,4.427479042653043,9.5274657971132,2.1330339057343672,2440,80,800,1234,274.97361424299874,158.7558649270347,0.0026845028710272,False
0.2,0.8889866263080373,2.0,4170.0,72.46512,0.3,68900.0,0.33,276.0,2700.0,35.725852937667554,3.555830132947611,9600.74135895855,21.102503201461637,7.908475673251648,14.62334973620592,4.352645540304037,3369,100,1106,1704,326.1693637908314,188.1460460863665,0.0036363997721543,True
0.21,0.8176828747674206,2.0,4171.0,72.46512,0.3,68900.0,0.33,276.0,2700.0,30.954106252120383,3.230784963429379,8723.119401259322,18.677247838883115,6.491012200137359,12.276858413237267,3.26022723670798,3157,94,1036,1597,287.6940347244829,165.9456405061867,0.0030713416449938,True
0.22,0.9070921058532114,2.0,4172.0,72.46512,0.3,68900.0,0.33,276.0,2700.0,36.30544934398029,3.971298308787552,10722.505433726392,21.73866749907458,8.296293212653378,14.566781844905712,4.324994903865825,3419,100,1126,1724,304.4052039505352,175.57011544603571,0.0034079753330826,True
0.23,0.9053319906531712,2.0,4173.0,72.46512,0.3,68900.0,0.33,276.0,2700.0,35.89411973911108,4.102341264786957,11076.321414924783,21.676461571881205,8.258085409779044,14.217658167229873,4.155744144992087,3398,100,1116,1718,290.5406616269634,167.5526091116381,0.0032588033167173,True
0.24,0.7200418473262967,2.0,4174.0,72.46512,0.3,68900.0,0.33,276.0,2700.0,24.491656920926022,2.9100459126156397,7857.123964062226,15.563476511216583,4.821312092629693,8.928180409709443,1.9112661800140536,2519,82,830,1268,230.02284164496749,132.73233003468584,0.0022764726664646,False
0.25,0.7379039732985184,2.0,4175.0,72.46512,0.3,68900.0,0.33,276.0,2700.0,25.23780246533277,3.122000384691701,8429.401038667595,16.115192179331903,5.104224342041835,9.122610286000867,1.9822239573501337,2548,82,838,1285,228.91969155184265,132.1118291922047,0.0022680411863909,False
0.26,0.639341997531148,2.0,4176.0,72.46512,0.3,68900.0,0.33,276.0,2700.0,19.74607266898459,2.530178358648332,6831.481568350497,13.170815395071932,3.6629862920615657,6.575257273912657,1.1328079334132335,2023,70,666,1018,190.20489310799573,109.73620539077476,0.00181762986223,False
0.27,0.7841181348371312,2.0,4177.0,72.46512,0.3,68900.0,0.33,276.0,2700.0,27.36195223752385,3.652639573265317,9862.126847816357,17.579842096513957,5.882611499935019,9.782110141009898,2.2299719266697022,2666,86,880,1340,223.3394605856801,128.74336081819007,0.0022950746395934,False
0.28,0.6882590097372709,2.0,4178.0,72.46512,0.2,68900.0,0.33,276.0,2700.0,21.826452502802287,3.009727189104588,8126.263410582387,14.601613391937056,4.342013257384805,7.224839110865231,1.332286068280217,4490,110,1492,2246,192.76315156453896,111.08673577854084,0.0018806429811993,False
0.29,0.6205253385122897,2.0,4179.0,72.46512,0.3,68900.0,0.33,276.0,2700.0,18.16279587778177,2.582525200126091,6972.818040340447,12.636453693649536,3.420196954332822,5.526342184132238,0.8376717542067307,1794,66,596,894,172.2663261783265,99.31182953731056,0.0015979967343166,False
0.3,0.6589475693175249,2.0,4180.0,72.46512,0.3,68900.0,0.33,276.0,2700.0,19.86680858979864,2.9234726207051707,7893.376075903961,13.73704702084957,3.9267425228921984,6.129761568949071,1.0032699021870275,1941,70,640,975,176.07071495499255,101.53432023116112,0.001667856060766,False
0.31,0.8482237616218959,2.0,4181.0,72.46512,0.3,68900.0,0.33,276.0,2700.0,30.10419713090528,4.603756430794922,12430.14236314629,19.7003910899168,7.07699610148227,10.40380604098848,2.473239670687348,2898,90,960,1452,209.4932760982644,120.6001748360338,0.0022673614730792,False
0.32,0.665898560011438,2.0,4182.0,72.46512,0.2,68900.0,0.33,276.0,2700.0,19.79032250549516,3.0978224621640065,8364.120647842818,13.940119366524842,4.022933682494321,5.850203138970317,0.9251112203303142,4023,102,1320,2021,167.25798033156386,96.19766471818107,0.0016162247346494,False
0.33,0.9143966252174816,2.0,4183.0,72.46512,0.3,68900.0,0.33,276.0,2700.0,33.63305973681639,5.474188579779995,14780.309165405988,21.99765561055631,8.456028805922056,11.63540412626008,2.9818402261420607,3325,98,1100,1669,210.56385757270783,120.98684037356914,0.0023750568898642,False
0.34,0.6604376483525485,2.0,4184.0,72.46512,0.3,68900.0,0.33,276.0,2700.0,19.09753402595564,3.164262679307998,8543.509234131596,13.780477243246056,3.947244158963767,5.317056782709582,0.7829814796557688,1898,68,628,950,151.61750270493428,87.2083223111782,0.0015151378756921,False
0.3500000000000001,0.9152060959284936,2.0,4185.0,72.46512,0.3,68900.0,0.33,276.0,2700.0,33.14345466773881,5.710307376839187,15417.829917465804,22.02643863773813,8.473846912247604,11.117016030000674,2.763539535408417,3087,94,1026,1542,201.60166661699063,115.8304642968128,0.0022559690086845,False
0.36,0.6970498517577852,2.0,4186.0,72.46512,0.3,68900.0,0.33,276.0,2700.0,20.528181785442168,3.5973566234823355,9712.862883402306,14.865116026089346,4.471530516152101,5.663065759352822,0.8741738926697655,2032,72,670,1021,155.31141552333332,88.9960514507317,0.0015428383445351,False
0.37,0.7559168175663527,2.0,4187.0,72.46512,0.2,68900.0,0.33,276.0,2700.0,23.40078949627945,4.223058661690177,11402.25838656348,16.679683670014605,5.39957659709178,6.721105826264846,1.1765179354016029,6046,114,1588,3338,175.3767439506712,100.86441633566363,0.0016935020043572,False
0.38,0.8439797367080659,2.0,4188.0,72.46512,0.3,68900.0,0.33,276.0,2700.0,28.092604879696957,5.222671279083899,14101.212453526528,19.55681051996346,6.993691990742869,8.535794359733494,1.77102071165897,2726,86,906,1361,176.2480848346469,101.26497562494896,0.001883030260618,False
0.39,0.7818706927075397,2.0,4189.0,72.46512,0.05,68900.0,0.33,276.0,2700.0,24.36149035237668,4.626253195634591,12490.883628213394,17.507372950623147,5.843183281056734,6.854117401753534,1.2169300854221436,261012,454,25976,178040,237.0255611943151,132.74095430508774,0.0017054801584168,False
0.4,0.8407571104975559,2.0,4190.0,72.46512,0.3,68900.0,0.33,276.0,2700.0,27.42803368716247,5.351565450879329,14449.22671737419,19.44808749617234,6.930842957495555,7.979946190990127,1.5792775066162257,2712,86,898,1359,166.62507505242974,95.67747236653554,0.0017910970146381,False
0.4100000000000001,0.8168606541112415,2.0,4191.0,72.46512,0.2,68900.0,0.33,276.0,2700.0,25.842970232271657,5.153461092763693,13914.344950461971,18.650026867081035,6.475666573150591,7.192943365190622,1.3222054803868977,7054,120,1736,3986,171.67657886911098,98.90719044252654,0.00171527795891,False
0.42,0.9202426925941176,2.0,4192.0,72.46512,0.3,68900.0,0.33,276.0,2700.0,31.636777357286128,6.488553700683983,17519.094991846756,22.205899126195277,8.585236867104733,9.430878231090857,2.0966831664207497,3033,92,1008,1515,171.58519260921878,98.31489620233404,0.0019263710476892,False
0.43,0.8739646447483975,2.0,4193.0,72.46512,0.3,68900.0,0.33,276.0,2700.0,28.636849742553625,5.990403623242771,16174.089782755482,20.58093595086101,7.595398845812284,8.055913791692607,1.6049952225695128,2813,88,916,1421,158.97357074462897,91.16469978100795,0.0017709998277505,False
0.44,0.8623513868885506,2.0,4194.0,72.46512,0.3,68900.0,0.33,276.0,2700.0,27.73062952846186,5.9223295438593455,15990.289768420233,20.18160755999717,7.358709161759507,7.5490219684646895,1.4363796179001618,2840,86,908,1444,154.8646867212064,88.48328604440366,0.0017113861913384,False
0.45,0.8304687501251666,2.0,4195.0,72.46512,0.3,68900.0,0.33,276.0,2700.0,25.70290655472268,5.592302221107023,15099.215996988962,19.102731784860705,6.732532877640558,6.600174769861972,1.1402306565335358,2490,80,832,1232,151.5246692436509,86.86304284884973,0.0015868719608104,False
0.46,0.9967769200463428,2.0,4196.0,72.46512,0.2,68900.0,0.33,276.0,2700.0,35.37744383721322,7.932952040872497,21418.970510355743,25.01136451959525,10.391166351075086,10.36607931761797,2.458214310202589,9314,144,2308,5248,178.81249787924065,102.77598527749454,0.0020235649197783,False
0.4700000000000001,0.924314106803696,2.0,4197.0,72.46512,0.3,68900.0,0.33,276.0,2700.0,30.654229669461863,6.986297589607769,18863.003491940977,22.351434900931903,8.675942407204658,8.30279476852996,1.6896448175968892,3048,90,968,1558,171.08673797417933,98.0937867293934,0.0017725795413968,False
0.4800000000000001,1.1021409673628575,2.0,4198.0,72.46512,0.3,68900.0,0.33,276.0,2700.0,41.796452756305456,9.799525318349447,26458.718359543516,29.11446712609676,13.240174864361263,12.681985630208697,3.440649546011816,4250,110,1340,2176,179.95177033305842,103.54883445758875,0.0022093820493147,False
0.49,0.8138813220806409,2.0,4199.0,72.46512,0.2,68900.0,0.33,276.0,2700.0,23.93974732265452,5.618834604648902,15170.853432552036,18.55153349098272,6.420248728356896,5.388213831671802,0.8014141237079935,6532,114,1608,3686,557.3673253570576,319.0394363334906,0.0014792924811283,True
0.5,0.8584911174102869,2.0,4200.0,72.46512,0.3,68900.0,0.33,276.0,2700.0,26.16953107831034,6.280583381778371,16957.5751308016,20.04962064120652,7.281057591089513,6.119910437103819,1.0004742093111425,2720,80,814,1427,165.02682468529625,95.1203734361476,0.0015346431426077,False
0.06,0.6327926630569891,2.0,4206.0,75.4845,0.1,68900.0,0.33,276.0,2700.0,24.30465906758435,0.7286873826854122,1967.455933250613,12.983815612678386,3.5773391671720485,11.320843454905964,2.8486517844866364,19008,230,6248,9630,919.4326231739032,525.4578119508143,0.0072772173133966,True
0.0699999999999999,0.554853549448811,2.0,4207.0,75.4845,0.2,68900.0,0.33,276.0,2700.0,19.888198178461348,0.6953685587260271,1877.495108560273,10.841209126462717,2.649880085944277,9.046989051998631,1.95451152721825,4414,106,1446,2239,587.5373449321169,338.8531189857202,0.0052302739006194,True
0.08,0.5098540828612232,2.0,4208.0,75.4845,0.2,68900.0,0.33,276.0,2700.0,17.39730927849341,0.6948200408467117,1876.0141102861212,9.673658307012577,2.1884918851006585,7.723650971480835,1.4936718442539467,3828,98,1252,1944,486.076248817251,280.47678731530766,0.0041360232855206,True
0.09,0.3996060731796361,2.0,4209.0,75.4845,0.2,68900.0,0.33,276.0,2700.0,12.123444762555517,0.5440282002852895,1468.8761407702818,7.028259079314863,1.2706218479898466,5.095185683240654,0.726593647704557,2727,80,892,1383,358.270867292932,206.84750537478732,0.0027194614909178,True
0.0999999999999999,0.4251795771658233,2.0,4210.0,75.4845,0.2,68900.0,0.33,276.0,2700.0,13.029800575877934,0.6493956336915021,1753.3682109670556,7.614683380017355,1.457822492538316,5.415117195860579,0.8084268588468138,2895,84,946,1470,336.44616125663106,193.99062329640435,0.0026662245534188,True
0.11,0.5897327728127817,2.0,4211.0,75.4845,0.2,68900.0,0.33,276.0,2700.0,20.70176131839597,1.1358092326304914,3066.684928102327,11.781192565296768,3.0443171159742093,8.920568753099207,1.908507883343718,4423,108,1444,2251,406.595156576274,234.1648063008508,0.00372978859903,True
0.12,0.4656868627645579,2.0,4212.0,75.4845,0.2,68900.0,0.33,276.0,2700.0,14.422893370092352,0.8617544874683285,2326.737116164487,8.577190298412441,1.7856277122466018,5.845703071679912,0.9238732247782732,3058,86,1004,1546,300.7766212237088,173.64785222334382,0.0025313507778982,True
0.13,0.5446967000539874,2.0,4213.0,75.4845,0.3,68900.0,0.33,276.0,2700.0,17.945546904801933,1.161859162772167,3137.019739484851,10.573233589331563,2.541130645675415,7.372313315470368,1.3792714829032475,1882,68,612,958,333.98644069757364,191.76664851856933,0.0028808841211156,True
0.14,0.4540134485087597,2.0,4214.0,75.4845,0.2,68900.0,0.33,276.0,2700.0,13.480694139286552,0.9379015695890912,2532.334237890547,8.295584756728706,1.6871495974104262,5.185109382557846,0.7492480278213349,2898,84,956,1458,257.3097474190782,148.48304055119377,0.0021311322507326,False
0.15,0.7547308616656538,2.0,4215.0,75.4845,0.3,68900.0,0.33,276.0,2700.0,28.83705359509667,2.155710436161669,5820.418177636507,16.642267082481517,5.379817418526451,12.194786512615153,3.224106982364782,2825,88,920,1439,379.5628839945573,218.6748897406934,0.0039171141380624,True
0.16,0.5805605815907476,2.0,4216.0,75.4845,0.3,68900.0,0.33,276.0,2700.0,19.0385912675254,1.5145086590626295,4089.1733794691,11.531042048224796,2.937406595266176,7.507549219300602,1.4228979362035463,2070,72,678,1047,288.72811660061063,166.69328712078914,0.0025752485106197,True
0.17,0.5365533728562542,2.0,4217.0,75.4845,0.3,68900.0,0.33,276.0,2700.0,16.654935335853434,1.4053797404092467,3794.525299104966,10.360254966177948,2.455897653331536,6.294680369675486,1.050517912922289,1743,64,570,882,305.9379145877804,176.54592956675955,0.0022075465171125,True
0.18,0.8703298420544245,2.0,4218.0,75.4845,0.3,68900.0,0.33,276.0,2700.0,35.11909783784188,3.1485042931686147,8500.96159155526,20.45558679361931,7.520819114678213,14.663511044222568,4.372314821509598,3372,100,1108,1704,367.34799783792863,212.06610003392876,0.0040769983191191,True
0.19,0.5216904613074109,2.0,4219.0,75.4845,0.2,68900.0,0.33,276.0,2700.0,15.526510181249945,1.4606530112114295,3943.76313027086,9.975830889125248,2.3047778072175427,5.550679292124697,0.8441247960061131,3469,92,1144,1747,220.51578015040357,127.00963154596558,0.0019301539352899,False
0.2,0.7438314367588598,2.0,4220.0,75.4845,0.3,68900.0,0.33,276.0,2700.0,26.8505730318656,2.6683021423674136,7204.415784392017,16.30004846686615,5.200293983106542,10.55052456499945,2.5319918407391286,2592,84,852,1308,289.7133002334124,167.2220623917682,0.0029309809400079,True
0.21,0.8676429851855729,2.0,4221.0,75.4845,0.3,68900.0,0.33,276.0,2700.0,34.0622108671999,3.557135948012727,9604.267059634363,20.363141771747124,7.465982114691283,13.699069095452778,3.908846166678555,3282,98,1078,1659,318.4248498994993,183.6090194253562,0.0034835952262867,True
0.22,0.7461331196762515,2.0,4222.0,75.4845,0.1,68900.0,0.33,276.0,2700.0,26.46222467667762,2.888543595384132,7799.067707537155,16.37206770514078,5.237894383402793,10.090156971536842,2.3493507880186613,28504,244,6980,16170,266.4135874472862,153.77350213632062,0.0027128532663456,False
0.23,0.6989426001281076,2.0,4223.0,75.4845,0.3,68900.0,0.33,276.0,2700.0,23.57844606386969,2.686038792133948,7252.304738761659,14.92210465265222,4.499720358649407,8.656341411217474,1.8136815665154595,2293,78,754,1156,245.15654986602271,141.53666462664629,0.0023669830088598,False
0.24,0.5593448700371523,2.0,4224.0,75.4845,0.3,68900.0,0.33,276.0,2700.0,16.25507250482753,1.92165578268382,5188.470613246313,10.960533637593905,2.6988392042636797,5.294538867233628,0.7771834215798594,1635,62,538,822,193.6479114944778,111.48620938135151,0.0017178067243988,False
0.25,0.6242352868739407,2.0,4225.0,75.4845,0.3,68900.0,0.33,276.0,2700.0,19.203831026293944,2.367753954811848,6392.93567799199,12.741105749597834,3.467271564926986,6.46272527669611,1.0995176101151376,1955,70,646,980,202.0788150234957,116.37361387035772,0.0019034136401971,False
0.26,0.777032226750406,2.0,4226.0,75.4845,0.3,68900.0,0.33,276.0,2700.0,27.20827661831191,3.5002648720608844,9450.715154564388,17.351786646825364,5.758851089790055,9.856489971486546,2.258586217729171,2679,86,884,1347,238.321499371514,137.4427580469082,0.0024437103715508,False
0.27,0.6813804665022334,2.0,4227.0,75.4845,0.3,68900.0,0.33,276.0,2700.0,21.69300089357728,2.8873311418325285,7795.794082947827,14.396785728125778,4.242280567966641,7.296215165451503,1.3549494261341124,2289,76,754,1152,205.4777486058687,118.5366356961482,0.0019919210969654,False
0.28,0.7744722689108259,2.0,4228.0,75.4845,0.3,68900.0,0.33,276.0,2700.0,26.55594123313117,3.67185561135063,9914.010150646702,17.26970633176257,5.714536343742187,9.286234901368598,2.042680732391557,2706,86,890,1365,223.46989549581923,128.7304322040051,0.002279822828863,False
0.29,0.6387525312164377,2.0,4229.0,75.4845,0.2,68900.0,0.33,276.0,2700.0,19.064920725989204,2.7133333031161686,7325.999918413655,13.153940518799356,3.6552275140634456,5.910980207189848,0.941894210947277,4149,102,1382,2068,183.7076355913724,105.9022695105773,0.0017248471069705,False
0.3,0.6443147573936925,2.0,4230.0,75.4845,0.3,68900.0,0.33,276.0,2700.0,19.130083476738413,2.812963853746147,7595.002405114596,13.31352006298994,3.728836154693788,5.816563413748474,0.9158723009476408,1974,70,650,993,174.61995208827597,100.24594229409335,0.0016915924632508,False
0.31,0.7467937161681304,2.0,4231.0,75.4845,0.2,68900.0,0.33,276.0,2700.0,24.279196106562136,3.700881272021733,9992.37943445868,16.392762239538197,5.248716548657598,7.886433867023939,1.547835276635865,5027,116,1640,2541,201.129904651088,115.94870372461746,0.0019908719726466,False
0.32,0.7251103910443364,2.0,4232.0,75.4845,0.3,68900.0,0.33,276.0,2700.0,22.87230612963537,3.590939842026385,9695.53757347124,15.719216078919452,4.900590667420818,7.153090050715914,1.3096508253944332,2400,78,788,1212,184.8907366869845,106.48400880440158,0.0018542260542612,False
0.33,0.9823779360037146,2.0,4233.0,75.4845,0.3,68900.0,0.33,276.0,2700.0,38.01853959122024,6.197792755756639,16734.040440542925,24.47230739200085,10.03491530246891,13.546232199219386,3.837122546712271,3632,104,1202,1823,234.8657910423628,134.88881206550303,0.0027333860457182,False
0.34,0.7768698392715573,2.0,4234.0,75.4845,0.3,68900.0,0.33,276.0,2700.0,25.23480129698021,4.207598115382174,11360.514911531867,17.346575100018576,5.7560338000569,7.888226196961636,1.5484356846747265,2591,84,856,1301,187.02382165224373,107.64659786044204,0.0019367167203559,False
0.3500000000000001,0.7864798447929082,2.0,4235.0,75.4845,0.2,68900.0,0.33,276.0,2700.0,25.53517787491487,4.378858938094939,11822.919132856334,17.65613261847772,5.924220048488853,7.8790452564371485,1.5453611103939142,6155,120,1756,3301,196.0218795970368,112.91469296841136,0.0019372017846382,False
0.36,1.0332920454228762,2.0,4236.0,75.4845,0.3,68900.0,0.33,276.0,2700.0,40.55920171509926,7.202940210820614,19447.938569215657,26.40174983875893,11.329742538395744,14.157451876340332,4.126802327575129,3863,108,1276,1943,275.12867503669315,143.6768223332065,0.0072532967591709,False
0.37,0.951413029366142,2.0,4237.0,75.4845,0.3,68900.0,0.33,276.0,2700.0,34.88492242799869,6.34762325405824,17138.58278595725,23.330720940810604,9.29486933027515,11.554201487188084,2.94724607621691,3293,98,1090,1652,204.49552572503927,117.26354071029888,0.0023618271320109,False
0.38,0.7329073543784574,2.0,4238.0,75.4845,0.3,68900.0,0.33,276.0,2700.0,21.959877157247217,4.057453011818452,10955.12313190982,15.960051504616606,5.024090718582064,5.99982565263061,0.9666377067636124,2217,74,736,1107,157.74388900292732,90.19075553475788,0.0016266985500842,False
0.39,1.0011165129398514,2.0,4239.0,75.4845,0.3,68900.0,0.33,276.0,2700.0,37.54744442996152,7.197514240763639,19433.288450061827,25.174848440164045,10.500060046469926,12.372595989797478,3.302545805706287,3547,102,1176,1777,206.404892116051,118.301590658105,0.0024197798031014,False
0.4,0.9334167348569044,2.0,4240.0,75.4845,0.2,68900.0,0.33,276.0,2700.0,32.9569868544496,6.457356084336756,17434.861427709242,22.67832215209066,8.880885392451452,10.278664702358942,2.423529308114696,8839,140,2206,4966,197.203027833494,113.42351850678278,0.0021738648104028,False
0.4100000000000001,0.7991971959163294,2.0,4241.0,75.4845,0.08,68900.0,0.33,276.0,2700.0,24.863632491262184,4.952696855856709,13372.281510813113,18.06935211615273,6.151382507469941,6.794280375109452,1.198685651613232,72523,286,10238,47166,186.95796645647783,106.00171508815502,0.0017509991331765,False
0.42,0.9911110362505496,2.0,4242.0,75.4845,0.3,68900.0,0.33,276.0,2700.0,36.07416670368057,7.420405463426818,20035.09475125241,24.798628105301745,10.2500579169785,11.275538598378825,2.829652453551682,3288,98,1100,1632,192.97164055648636,110.59293523835144,0.0022329024895453,False
0.43,0.8376209441164169,2.0,4243.0,75.4845,0.3,68900.0,0.33,276.0,2700.0,26.552811081935804,5.542335311210221,14964.305340267596,19.34253200354764,6.870016103709746,7.210279078388165,1.3276807924995255,2774,84,876,1422,158.06910030981228,90.65093017076708,0.0017471017239733,False
0.44,0.8299594777734343,2.0,4244.0,75.4845,0.1,68900.0,0.33,276.0,2700.0,25.897028952575383,5.51893741716432,14901.131026343664,19.085705828721164,6.722808720200971,6.811323123854219,1.2038713030366512,44129,238,6988,28083,190.4430124396272,107.13939098400736,0.0017324207864399,False
0.45,0.9529295929692904,2.0,4245.0,75.4845,0.3,68900.0,0.33,276.0,2700.0,32.88458554590395,7.208179994122811,19462.08598413159,23.386071032068067,9.330293816150768,9.498514513835886,2.1221138220279565,3016,92,1000,1508,171.96713991705124,99.05269769799584,0.0019791094680479,False
0.46,1.013161535090897,2.0,4246.0,75.4845,0.3,68900.0,0.33,276.0,2700.0,36.42748373325605,8.174461216962344,22071.04528579833,25.63109623432746,10.806035750971605,10.796387498928592,2.6315745340092587,3491,100,1158,1740,179.14788139649852,102.29856517379405,0.0021225329446903,False
0.4700000000000001,0.8181267372034271,2.0,4247.0,75.4845,0.2,68900.0,0.33,276.0,2700.0,24.589585716606354,5.561106260686725,15014.986903854158,18.69194969925252,6.4993055914796525,5.897636017353836,0.9381993307929272,6541,114,1624,3683,162.12551876243546,93.1108165718965,0.001606899133002,False
0.4800000000000001,0.9440619667527012,2.0,4248.0,75.4845,0.3,68900.0,0.33,276.0,2700.0,31.601034698730924,7.352624984531555,19852.0874582352,23.063248029462414,9.124347676854407,8.537786669268506,1.771722692322852,3014,90,968,1530,177.03542100120274,101.7667928932159,0.0018640986440873,False
0.49,0.8653986242246616,2.0,4249.0,75.4845,0.2,68900.0,0.33,276.0,2700.0,26.774363559651544,6.313315582713172,17045.952073325563,20.286060510260132,7.42036639702187,6.4883030493914085,1.107050814308698,7072,120,1746,3985,163.64678019997723,94.16873397329827,0.0016633705767975,False
0.5,0.9782346367260498,2.0,4250.0,75.4845,0.3,68900.0,0.33,276.0,2700.0,33.20186724180612,8.038667422652376,21704.40204116141,24.31815944414925,9.933838698438963,8.883707797656871,1.895171275786588,3767,96,1078,2014,173.91891557967193,99.94658993926728,0.0019003646369684,False
0.05,0.4310022541186492,2.0,4255.0,78.50388,0.1,68900.0,0.33,276.0,2700.0,14.362484089183756,0.3588003028417954,968.7608176728476,7.750500049726867,1.502555328800946,6.611984039456889,1.1437550259591505,11353,170,3720,5767,700.8698720088549,401.4126998353457,0.0053502367119637,True
0.06,0.7551649706269915,2.0,4256.0,78.50388,0.2,68900.0,0.33,276.0,2700.0,31.464412752259378,0.9434799932256644,2547.395981709294,16.655959001207442,5.387044947524901,14.808453751051935,4.443564954299236,6134,136,2016,3104,955.4538377734114,545.4804850506235,0.0103068689737572,True
0.0699999999999999,0.6266982627166757,2.0,4257.0,78.50388,0.1,68900.0,0.33,276.0,2700.0,23.70093139423528,0.8288142212781152,2237.798397450911,12.810773644902122,3.498738364477137,10.890157749333154,2.669924143199021,18605,228,6120,9419,755.819087855821,432.1856236588556,0.0063837340999704,True
0.08,0.7627720597319969,2.0,4258.0,78.50388,0.2,68900.0,0.33,276.0,2700.0,31.334785733707307,1.252319099055867,3381.261567450841,16.8966574172117,5.5146628969610525,14.438128316495607,4.262343797905185,6151,136,2020,3115,754.5665151389686,432.0559473146294,0.007816209549238,True
0.09,0.5727500322356187,2.0,4259.0,78.50388,0.2,68900.0,0.33,276.0,2700.0,20.31467230756658,0.9126334398108518,2464.1102874893,11.319694056142602,2.848169192131616,8.994978251423976,1.935535752320764,4437,106,1456,2247,545.7971203870899,314.8535609749578,0.0046463505993521,True
0.0999999999999999,0.4793504756788501,2.0,4260.0,78.50388,0.2,68900.0,0.33,276.0,2700.0,15.486601790023409,0.7722356943987779,2085.0363748767004,8.911157145812846,1.9050993746086329,6.575444644210561,1.1328636802098546,3319,90,1090,1678,382.4657586673316,220.7856027723552,0.0032263613363958,True
0.11,0.4804118726273382,2.0,4261.0,78.50388,0.2,68900.0,0.33,276.0,2700.0,15.316197465454009,0.8396032207186598,2266.928695940381,8.937296274586926,1.914571519102128,6.378901190867083,1.074968298383468,3370,90,1102,1711,352.9120167883467,203.66906913287883,0.0029633302035301,True
0.12,0.4664517330052285,2.0,4262.0,78.50388,0.2,68900.0,0.33,276.0,2700.0,14.457728628284771,0.8638446029601505,2332.3804279924066,8.595761324659009,1.792195251129704,5.8619673036257645,0.9283506481695534,3060,86,1004,1548,313.3345359826215,180.8976920978294,0.0026380111837876,True
0.13,0.4641874857499181,2.0,4263.0,78.50388,0.2,68900.0,0.33,276.0,2700.0,14.14378023318629,0.9147443291171544,2469.809688616317,8.540828132297696,1.7727945376205891,5.602952100888594,0.8580502085034346,3095,86,1016,1565,287.9294728393492,166.1212951181866,0.0024363613153934,True
0.14,0.6110264911683823,2.0,4264.0,78.50388,0.3,68900.0,0.33,276.0,2700.0,21.07722547656289,1.4696587631984372,3968.0786606357806,12.37008219731574,3.301432115847168,8.707143279247155,1.8317733526487303,2132,74,700,1076,362.3324480187015,209.13706093271932,0.0032495323753653,True
0.15,0.4654260042169731,2.0,4265.0,78.50388,0.2,68900.0,0.33,276.0,2700.0,13.784893094250004,1.0267983985981737,2772.3556762150683,8.570860023173015,1.783391104533177,5.214033071076988,0.7565927059350035,2870,84,948,1442,255.67754751630332,147.44011090354593,0.0021494675599515,False
0.16,0.4788348843553993,2.0,4266.0,78.50388,0.2,68900.0,0.33,276.0,2700.0,14.182510159508086,1.1260221704212434,3040.259860137357,8.89846984422198,1.9005081303207163,5.284040315286106,0.7744859598994731,3146,88,1036,1586,248.533796715434,143.44832769885596,0.0021020982982635,False
0.17,0.5104766046286924,2.0,4267.0,78.50388,0.2,68900.0,0.33,276.0,2700.0,15.42476617545424,1.3008153617755525,3512.201476793992,9.689463029203214,2.194518866854195,5.7353031462510256,0.8937035050786426,3362,90,1106,1697,247.1124109424328,142.6147571028024,0.0021543332502017,False
0.18,0.6499143212315799,2.0,4268.0,78.50388,0.3,68900.0,0.33,276.0,2700.0,22.15497304014782,1.981733061376148,5350.679265715599,13.474956232485248,3.8038376785385535,8.680016807662572,1.8221046171624065,2243,76,732,1139,294.71156518005006,170.15143077185945,0.002791924671316,True
0.19,0.8735734156473027,2.0,4269.0,78.50388,0.3,68900.0,0.33,276.0,2700.0,35.02938588329615,3.313426202905819,8946.250747845712,20.567428147399383,7.587349627188678,14.461957735896767,4.2739234242828585,3358,100,1104,1696,364.9424990748332,210.4754544057176,0.0040336246677484,True
0.2,0.8825098141241592,2.0,4270.0,78.50388,0.3,68900.0,0.33,276.0,2700.0,35.30726463239394,3.513971302420233,9487.72251653463,20.87693104436437,7.772529786693459,14.43033358802957,4.258558484273227,3354,100,1104,1692,351.0936020645913,202.64756432414632,0.0038945600420329,True
0.21,0.8339111712266666,2.0,4271.0,78.50388,0.3,68900.0,0.33,276.0,2700.0,31.949938646436827,3.335347364832252,9005.437885047078,19.21798950146789,6.798490821993631,12.731949144968937,3.463143457161379,3220,96,1054,1633,322.77966459814377,186.20479220347917,0.0034232414883112,True
0.22,0.5478590109083326,2.0,4272.0,78.50388,0.3,68900.0,0.33,276.0,2700.0,16.12716543705345,1.7516870790255965,4729.55511336911,10.656389179846618,2.5746979127010534,5.470776257206831,0.8230108336754571,1632,62,538,819,211.93792512191467,122.3288683329568,0.0018770806755913,False
0.23,0.8252036003908862,2.0,4273.0,78.50388,0.3,68900.0,0.33,276.0,2700.0,30.858425897337725,3.52323647298302,9512.738477054154,18.927022349777918,6.632417008398918,11.93140354755981,3.109180535415898,3228,94,1062,1629,292.0514713380631,168.2712237381538,0.0030972241764577,True
0.24,0.6936128286513312,2.0,4274.0,78.50388,0.3,68900.0,0.33,276.0,2700.0,23.04784226061305,2.7367881533780825,7389.328014120822,14.761861138585672,4.420616298644032,8.285981122027376,1.6838281452659496,2301,78,754,1164,242.0285030475767,139.444818870185,0.0023462340810957,False
0.25,0.7704428597011507,2.0,4275.0,78.50388,0.3,68900.0,0.33,276.0,2700.0,27.084659110288804,3.352857465311209,9052.715156340264,17.14084442828842,5.645209385690528,9.943814682000385,2.292351920379319,2707,86,888,1369,255.7844220685328,147.63779987797295,0.002599548621389,False
0.26,0.934705503127848,2.0,4276.0,78.50388,0.3,68900.0,0.33,276.0,2700.0,36.92392887964043,4.763299666033594,12860.909098290706,22.724771792493826,8.910142421407524,14.199157087146606,4.14684275537393,3490,102,1148,1762,290.8477315059526,167.5151201870559,0.0032964101266256,True
0.27,0.6399777566379328,2.0,4277.0,78.50388,0.3,68900.0,0.33,276.0,2700.0,19.558432209992493,2.5991643695485807,7017.743797781168,13.189025301253118,3.671365545911418,6.369406908739375,1.0722011763628374,2034,70,672,1020,201.0417452036604,115.91292877598217,0.0019124508120815,False
0.28,0.8444870132874476,2.0,4278.0,78.50388,0.3,68900.0,0.33,276.0,2700.0,30.671720060204944,4.248064647140959,11469.77454728059,19.57394848866521,7.003617049258725,11.097771571539738,2.7555524021177664,2896,90,962,1447,248.14496877741976,143.06301104490677,0.002667767503813,False
0.29,0.6210256636901417,2.0,4279.0,78.50388,0.3,68900.0,0.33,276.0,2700.0,18.187335740215087,2.58608348017892,6982.425396483084,12.650546933633844,3.426522815613606,5.536788806581242,0.8404393354346857,1794,66,596,894,186.75794762578056,107.66577408173156,0.0017330828540609,False
0.3,0.714662276309108,2.0,4280.0,78.50388,0.3,68900.0,0.33,276.0,2700.0,22.77040838304514,3.3590125896921537,9069.333992168817,15.398886414490825,4.738030303583305,7.371521968554317,1.3790177138911517,2221,76,734,1114,203.3234599261204,117.24555944104904,0.0020107745321079,False
0.31,0.6270466156171561,2.0,4281.0,78.50388,0.2,68900.0,0.33,276.0,2700.0,18.06791819259243,2.738133195356432,7392.959627462366,12.820639484442616,3.5032027529421117,5.247278708149812,0.7650695575856794,3569,96,1178,1788,172.9012940185749,99.7565062721838,0.0016652621869719,False
0.32,0.8421310019232713,2.0,4282.0,78.50388,0.3,68900.0,0.33,276.0,2700.0,29.481552578126653,4.648419273785044,12550.73203921962,19.494407100228624,6.957594331775087,9.987145477898029,2.3091750579900427,2789,88,924,1397,220.1593998007948,126.646300156042,0.0023558836375283,False
0.33,1.0125421566919826,2.0,4283.0,78.50388,0.3,68900.0,0.33,276.0,2700.0,40.038840971272464,6.531142483465258,17634.084705356196,25.607546158259456,10.790167697325424,14.431294813013007,4.2590252138601645,3867,108,1280,1941,250.6302916456131,143.52671624735655,0.002968048491872,False
0.34,0.7698851668985962,2.0,4284.0,78.50388,0.3,68900.0,0.33,276.0,2700.0,24.84741877712745,4.141743087007203,11182.706334919449,17.1230413663283,5.635655024806207,7.724377410799153,1.4939119377990036,2513,82,834,1256,191.7926103200816,110.398690140831,0.0019906620453365,False
0.3500000000000001,0.6954485662335851,2.0,4285.0,78.50388,0.2,68900.0,0.33,276.0,2700.0,20.657612270417392,3.525284957307934,9518.269384731422,14.816973341872632,4.447765774734973,5.84063892854476,0.9224808174270388,4522,104,1372,2360,194.8249025453327,112.4041382837709,0.0017243122845158,False
0.36,0.90084419144256,2.0,4286.0,78.50388,0.3,68900.0,0.33,276.0,2700.0,31.99047456651332,5.660569324075144,15283.53717500289,21.518206289196417,8.161161100917866,10.4722682773169,2.5005917768427217,2950,92,978,1477,209.32731935873844,120.34052794117866,0.0023353647166053,False
0.37,1.0620763725004745,2.0,4287.0,78.50388,0.3,68900.0,0.33,276.0,2700.0,42.237188567337554,7.707792489835929,20811.03972255701,27.521389546282546,12.105763229943982,14.715799021055007,4.397970740108053,4005,110,1330,2004,235.0877430627252,134.3427166111978,0.0028609008598267,False
0.38,1.0065602928239208,2.0,4288.0,78.50388,0.3,68900.0,0.33,276.0,2700.0,38.18746625452395,7.140694940301032,19279.876338812785,25.38059926605633,10.63766607321826,12.806866988467618,3.496971132917228,3753,106,1246,1878,219.4487336855109,125.57841391819922,0.0025926715511788,False
0.39,0.7289974970644042,2.0,4289.0,78.50388,0.3,68900.0,0.33,276.0,2700.0,21.54317817048317,4.076682320165356,11007.042264446462,15.8390914325897,4.961925787967077,5.704086737893471,0.8852434678017209,2221,74,734,1114,160.82533259444736,92.1052865371185,0.00165447948957,False
0.4,0.8647585258163245,2.0,4290.0,78.50388,0.3,68900.0,0.33,276.0,2700.0,28.818769965560904,5.629712706559019,15200.224307709352,20.26409990743748,7.407388351000562,8.554670058123424,1.7776756444415431,2801,88,928,1403,183.5002723227421,105.01891883657116,0.002012736458864,False
0.4100000000000001,0.8450778746678589,2.0,4291.0,78.50388,0.2,68900.0,0.33,276.0,2700.0,27.439991221052523,5.480850395463767,14798.29606775217,19.593918462472278,7.015188438793967,7.846072758580249,1.5343380433302,7348,124,1832,4126,189.00190608158863,108.83314957490664,0.0019462787320106,False
0.42,0.8905120323098311,2.0,4292.0,78.50388,0.3,68900.0,0.33,276.0,2700.0,29.85037436738728,6.113409072804963,16506.2044965734,21.155782903034037,7.9407061874425935,8.694591464353245,1.827297114637631,2783,88,924,1391,181.50900319067432,104.02510585729256,0.0020050138985811,False
0.43,1.0217465013756053,2.0,4293.0,78.50388,0.3,68900.0,0.33,276.0,2700.0,37.79490324693442,7.959385126684928,21490.339842049307,25.95850778264753,11.027481931356652,11.836395464286888,3.068096804671724,3648,104,1216,1816,200.20491781600836,114.61405529139525,0.0023750606019824,False
0.44,0.8669742355900956,2.0,4294.0,78.50388,0.3,68900.0,0.33,276.0,2700.0,27.99661450575982,5.9808462388649,16148.28484493523,20.34016071788035,7.452371956780413,7.656453787879467,1.4715257179155137,2803,86,900,1423,170.55070244409634,97.67852379010829,0.001897171819442,False
0.45,1.071215880126578,2.0,4295.0,78.50388,0.1,68900.0,0.33,276.0,2700.0,40.53715617173592,8.930008384935007,24111.02263932452,27.8812495403408,12.35893805224218,12.655906631395126,3.428929667307173,69770,310,10724,44690,238.85425581634507,132.77276564553924,0.0024750753637579,False
0.46,1.0572919901863829,2.0,4296.0,78.50388,0.3,68900.0,0.33,276.0,2700.0,39.32278814135315,8.84038123082468,23869.029323226638,27.333845879266708,11.974539250211125,11.988942262086445,3.134158019386444,4022,106,1290,2045,196.826731402702,113.32685954112029,0.0023402175155569,False
0.4700000000000001,0.8837602073665285,2.0,4297.0,78.50388,0.3,68900.0,0.33,276.0,2700.0,28.27119264223648,6.426283888209807,17350.96649816648,20.92039718213231,7.798661330980731,7.35079546010417,1.372377442770924,2909,86,904,1503,160.10071620350772,91.70675259233836,0.0018155878585034,False
0.4800000000000001,0.8078390425602875,2.0,4298.0,78.50388,0.2,68900.0,0.33,276.0,2700.0,23.82282830559072,5.485855450177906,14811.809715480347,18.35246751213697,6.30875704563706,5.470360793453747,0.8229015954591539,6626,114,1640,3732,165.04903898380732,95.2015126803168,0.0016150260058449,False
0.49,1.1305536352984422,2.0,4299.0,78.50388,0.3,68900.0,0.33,276.0,2700.0,43.47421054437397,10.404778093970169,28092.900853719457,30.26868171093109,14.083743669721509,13.205528833442877,3.67896557575134,4373,110,1358,2260,202.02254666281428,115.45422306786814,0.0024338691615008,False
0.5,1.0353031292927937,2.0,4300.0,78.50388,0.3,68900.0,0.33,276.0,2700.0,36.807003432479,8.939951470320603,24137.868969865627,26.479299453483925,11.382916633988438,10.327703978995077,2.442965163667836,3792,100,1154,1979,190.8928765998637,109.47024141157802,0.002125199362579,False
0.04,0.3527264164068402,2.0,4304.0,81.52326,0.08,68900.0,0.33,276.0,2700.0,11.15474709008594,0.2229609005151654,601.9944313909466,5.995947495800391,0.9655524613452896,5.158799594285548,0.7425915608301241,14385,184,4720,7299,761.0597412705256,436.1943111380919,0.0053245824750753,True
0.06,0.3619345556917585,2.0,4306.0,81.52326,0.1,68900.0,0.33,276.0,2700.0,11.134183993223475,0.3335731304545876,900.6474522273865,6.194355873834629,1.021675831809086,4.939828119388846,0.6881027013544984,9143,146,3000,4637,485.0010531500627,278.57412010600734,0.0037793065199089,True
0.0699999999999999,0.58138330732955,2.0,4307.0,81.52326,0.2,68900.0,0.33,276.0,2700.0,21.26589371137202,0.7435879023779016,2007.6873364203343,11.553393686806755,2.9469026738223096,9.712500024565262,2.203314771444408,4692,112,1534,2385,667.7318681201591,384.6574349277035,0.0060046824202963,True
0.08,0.7689511730407192,2.0,4308.0,81.52326,0.2,68900.0,0.33,276.0,2700.0,31.71553358514369,1.2675490131133214,3422.382335405968,17.093243265162336,5.619676126670055,14.622290319981351,4.352127113556733,6564,140,2162,3315,792.6377809081279,453.16741427211866,0.0082351892136732,True
0.09,0.6089773476921821,2.0,4309.0,81.52326,0.1,68900.0,0.33,276.0,2700.0,22.219172819323138,0.998335962839898,2695.507099667725,12.312916440536023,3.2761426310521315,9.906256378787113,2.277806668212233,18104,222,5960,9158,573.8598078543394,329.46520001897034,0.0050634619835715,True
0.0999999999999999,0.4396091687813558,2.0,4310.0,81.52326,0.2,68900.0,0.33,276.0,2700.0,13.669810377571668,0.6813961237761909,1839.7695341957156,7.952821040469687,1.5701325657047185,5.716989337101981,0.8887364419285274,2972,84,974,1505,368.0339176170657,212.4230195217447,0.0030035810271268,True
0.11,0.4517411350409464,2.0,4311.0,81.52326,0.2,68900.0,0.33,276.0,2700.0,14.00320096757077,0.7673884133351061,2071.9487160047865,8.241166443072604,1.6683612807511254,5.762034524498166,0.9009728674160192,3099,86,1016,1569,345.5598391124533,199.2746171595544,0.0028477095593307,True
0.12,0.4587930788566321,2.0,4312.0,81.52326,0.2,68900.0,0.33,276.0,2700.0,14.110249740127053,0.8429958696706588,2276.0888481107786,8.41047290220749,1.727073758813373,5.699776837919563,0.8840778891427143,3087,86,1012,1563,322.02691635063053,185.6397200578324,0.0026828447274309,True
0.13,0.7155156353804905,2.0,4313.0,81.52326,0.3,68900.0,0.33,276.0,2700.0,27.09086394212947,1.7563047701984558,4742.022879535831,15.424946734399535,4.75118220109797,11.665917207729931,2.9948774308995145,2698,86,882,1369,452.2426249235796,261.0104841819475,0.0044940169482701,True
0.14,0.7533531058145786,2.0,4314.0,81.52326,0.3,68900.0,0.33,276.0,2700.0,29.03396025529633,2.0266301977097765,5471.901533816396,16.59884364499282,5.356918356603358,12.435116610303512,3.3302881588935813,2807,88,916,1427,441.00422146111146,254.58458245570657,0.00450141342395,True
0.15,0.7902814121330608,2.0,4315.0,81.52326,0.3,68900.0,0.33,276.0,2700.0,30.976955832643338,2.3162031039776747,6253.748380739722,17.779229410162536,5.991574890910196,13.197726422480802,3.6753717869325215,3084,94,1012,1560,430.61075914148256,248.6053836232876,0.0045123785235746,True
0.16,0.779247255380185,2.0,4316.0,81.52326,0.3,68900.0,0.33,276.0,2700.0,30.02342136108626,2.3932950665474,6461.8966796779805,17.422940355640712,5.797364574980423,12.600481005445548,3.404069508433023,2999,92,984,1517,401.3616479297357,231.7205590754702,0.0041614577658361,True
0.17,0.7261146204769335,2.0,4317.0,81.52326,0.3,68900.0,0.33,276.0,2700.0,26.624811180499545,2.252819187204401,6082.611805451883,15.750149360093854,4.9163918967991815,10.874661820405692,2.6635727095947805,2683,84,874,1366,355.0663623929371,204.86154229343023,0.0035647636630592,True
0.18,0.7218308616910971,2.0,4318.0,81.52326,0.3,68900.0,0.33,276.0,2700.0,26.116464353266508,2.3382672795568307,6313.3216548034425,15.618373271173626,4.84920446922833,10.498091082092882,2.5109371896715,2623,84,864,1321,335.56468683152445,193.23399083527192,0.003351935756367,True
0.19,0.8645790037076235,2.0,4319.0,81.52326,0.3,68900.0,0.33,276.0,2700.0,34.4533652558618,3.258704243299555,8798.501456908798,20.25794268204268,7.403751049745415,14.19542257381912,4.14504680644586,3373,100,1110,1702,374.37316298765495,216.11314311534767,0.0041117031306382,True
0.2,0.714517551018881,2.0,4320.0,81.52326,0.3,68900.0,0.33,276.0,2700.0,25.186760827164196,2.5019209218972733,6755.186489122638,15.39446853404434,4.735802014973661,9.792292293119852,2.233881093076388,2380,80,782,1201,305.0272694807924,176.0815020407215,0.0029947514607483,True
0.21,0.5448848475127406,2.0,4321.0,81.52326,0.3,68900.0,0.33,276.0,2700.0,16.195752744216534,1.6811578450994733,4539.126181768578,10.578174051128032,2.543120437459768,5.617578693088502,0.8619625923602943,1650,64,544,828,228.8031039867215,131.97645190980023,0.002016998302764,False
0.22,0.7436353358000365,2.0,4322.0,81.52326,0.3,68900.0,0.33,276.0,2700.0,26.319737338470127,2.872869988181432,7756.748968089866,16.293918658898356,5.19709812901973,10.02581867957177,2.3242281408382977,2524,82,830,1273,285.551510057399,164.70396758018944,0.0028966609446394,True
0.23,0.6133843523086315,2.0,4323.0,81.52326,0.3,68900.0,0.33,276.0,2700.0,19.100790718033988,2.17110842736309,5861.992753880343,12.43599094995505,3.3306767263507493,6.664799768078938,1.1595682989876592,1943,70,636,983,232.1785511220762,133.9989766038164,0.0021603393863584,False
0.24,0.90206911700543,2.0,4324.0,81.52326,0.3,68900.0,0.33,276.0,2700.0,35.38944360568308,4.217780314786492,11388.00684992353,21.56135116544501,8.187545722650169,13.828092440238064,3.969765407863677,3238,98,1064,1636,314.3500641520453,181.015616748486,0.0035072459263673,True
0.25,0.8077164579654634,2.0,4325.0,81.52326,0.3,68900.0,0.33,276.0,2700.0,29.265650122347196,3.625481341818504,9788.799622909964,18.348438396797636,6.306507562800659,10.91721172554956,2.681026220982155,2730,88,900,1374,277.93970168849387,160.31597646373385,0.0028870746712148,True
0.26,0.7097074530676601,2.0,4326.0,81.52326,0.3,68900.0,0.33,276.0,2700.0,23.440508126004858,3.0104549680609707,8128.228413764621,15.247935105689276,4.662105766577925,8.192573020315582,1.6516507985169544,2320,78,762,1171,237.8941489797297,137.29124627854026,0.002338801977222,False
0.27,0.7524246492306559,2.0,4327.0,81.52326,0.3,68900.0,0.33,276.0,2700.0,25.55655079141749,3.4089103780408245,9204.058020710228,16.569607910188896,5.3415206246673845,8.98694288122859,1.93261024662656,2467,82,812,1243,242.5589449608672,139.8827194982478,0.0024479122229109,False
0.28,0.5962365688832681,2.0,4328.0,81.52326,0.2,68900.0,0.33,276.0,2700.0,17.190502849156584,2.3606942375941853,6373.8744415043,11.959849898063586,3.1215199891338696,5.230652951092997,0.7608257515396843,3463,94,1148,1733,186.8821054482024,107.4540324022183,0.0017708644859854,False
0.29,0.6083379672041698,2.0,4329.0,81.52326,0.3,68900.0,0.33,276.0,2700.0,17.56891807384045,2.496412918554598,6740.314880097415,12.295100994523809,3.2682756885012494,5.273817079316643,0.7718627699466514,1812,66,600,906,183.87571211889667,106.06358491884018,0.0017563745702048,False
0.3,0.6785238137782106,2.0,4330.0,81.52326,0.3,68900.0,0.33,276.0,2700.0,20.86925405840341,3.0738394409958936,8299.366490688913,14.312070458091045,4.201275000676402,6.557183600312367,1.1274355596805083,2088,72,690,1047,200.7026988842646,115.6963359597288,0.0019449106428381,False
0.31,0.8883074587236499,2.0,4331.0,81.52326,0.3,68900.0,0.33,276.0,2700.0,32.54871668033882,4.982656960957123,13453.173794584232,21.078799908579622,7.894151587038,11.469916771759198,2.911494626080877,3196,96,1052,1612,247.72051135368304,142.57212647393578,0.0027124271106712,False
0.32,0.8055215103439586,2.0,4332.0,81.52326,0.3,68900.0,0.33,276.0,2700.0,27.33988676764131,4.30575274410739,11625.532409089952,18.276358694445506,6.266312829316723,9.063528073195805,1.960560085209333,2611,86,860,1315,219.90860293651855,126.62490676047358,0.0023090175419716,False
0.33,0.8346037289535184,2.0,4333.0,81.52326,0.3,68900.0,0.33,276.0,2700.0,28.781962043637087,4.6737574604050645,12619.145143093674,19.241213418707197,6.811808430373093,9.540748624929892,2.1380509699680283,2868,88,950,1437,222.94643727322315,128.2276547248974,0.0023510080690916,False
0.34,0.9135867641265818,2.0,4334.0,81.52326,0.3,68900.0,0.33,276.0,2700.0,33.311137289541506,5.580575234117591,15067.553132117497,21.96887518227369,8.438225415739053,11.342262107267818,2.8576501816214623,3194,96,1058,1601,230.43728705122808,132.4701006522775,0.0025918780649036,False
0.3500000000000001,0.8614576152064573,2.0,4335.0,81.52326,0.3,68900.0,0.33,276.0,2700.0,29.865404104860783,5.136648528335529,13868.951026505929,20.151015191249968,7.340685085215033,9.714388913610817,2.204036556879504,2912,90,966,1457,215.70779027759437,123.97985632619572,0.002327416081549,False
0.36,0.8649309452796996,2.0,4336.0,81.52326,0.3,68900.0,0.33,276.0,2700.0,29.819025963808997,5.269708575588368,14228.213154088591,20.270014289795256,7.410882786098968,9.549011674013736,2.1411742105106004,2914,90,966,1459,210.16622938245783,120.63049159044908,0.00228162661149,False
0.37,0.6782842294263318,2.0,4337.0,81.52326,0.2,68900.0,0.33,276.0,2700.0,19.37328606833111,3.4779705275197323,9390.520424303277,14.304974802542253,4.197846902584479,5.068311265788861,0.7198763750647461,4984,102,1350,2717,190.98036877271213,110.17501840349684,0.0016718831459151,False
0.38,1.0359482570513727,2.0,4338.0,81.52326,0.3,68900.0,0.33,276.0,2700.0,40.15399533615834,7.514335465811562,20288.705757691216,26.50419782590533,11.400007195846865,13.64979751025301,3.885671730035301,3731,106,1238,1868,233.9911892112671,133.83975593674924,0.002802853509531,False
0.39,0.8535398637211408,2.0,4339.0,81.52326,0.3,68900.0,0.33,276.0,2700.0,28.40601979112653,5.414936436190811,14620.32837771519,19.880880002184583,7.18220482599618,8.525139788941946,1.767268389805369,2724,86,904,1362,194.5888730414285,111.71375087660032,0.0021022761482763,False
0.4,0.7536855383466907,2.0,4340.0,81.52326,0.2,68900.0,0.33,276.0,2700.0,22.62583106077084,4.391124925601006,11856.037299122716,16.609316724727456,5.3624380929456565,6.016514336043382,0.9713131673446505,6022,110,1514,3373,184.85115294572648,106.6458776494226,0.0017822389881588,False
0.4100000000000001,0.8995940500261599,2.0,4341.0,81.52326,0.3,68900.0,0.33,276.0,2700.0,30.63882077866754,6.1366104547748055,16568.848227891976,21.47421213153196,8.13428780358039,9.16460864713558,1.9976773488055848,2868,90,950,1437,192.990900290742,110.27049743744944,0.0021480465953765,False
0.42,0.8686785041243084,2.0,4342.0,81.52326,0.3,68900.0,0.33,276.0,2700.0,28.566775340770025,5.8438532772153176,15778.403848481355,20.398748742786136,7.487086967169264,8.168026597983886,1.6432336899539468,2802,88,924,1406,181.48046722280063,104.00723784535072,0.0020177997255921,False
0.43,1.031523306928254,2.0,4343.0,81.52326,0.3,68900.0,0.33,276.0,2700.0,38.43948765831805,8.097970775132403,21864.52109285749,26.33362934199896,11.283105002392084,12.105858316319091,3.185134227259681,3648,104,1218,1815,210.39880449581105,119.93011058907778,0.0024962279534371,False
0.44,1.091409026885236,2.0,4344.0,81.52326,0.3,68900.0,0.33,276.0,2700.0,42.2019620980988,9.10602270917947,24586.26131478457,28.68378005116512,12.93003377892211,13.518182046933685,3.8240110697426406,3865,108,1286,1928,213.5167706182704,121.54361875621709,0.0026450246434506,False
0.45,0.9831953470010706,2.0,4345.0,81.52326,0.2,68900.0,0.33,276.0,2700.0,34.77568473424576,7.633677311499718,20610.92874104924,24.502769433177843,10.05493168452166,10.272915301067917,2.4212543730219407,9088,142,2236,5134,200.41526066531327,115.13909642151634,0.0022788571173349,False
0.46,0.8560986721092725,2.0,4346.0,81.52326,0.2,68900.0,0.33,276.0,2700.0,26.917121102746755,5.987077811944886,16165.110092251192,19.968008251922083,7.233187625668614,6.949112850824672,1.246109813723728,7204,122,1786,4057,181.6443009609502,104.61668479731196,0.0018697426705199,False
0.4700000000000001,0.8358761680299445,2.0,4347.0,81.52326,0.3,68900.0,0.33,276.0,2700.0,25.56385161720048,5.7900587473263645,15633.158617781184,19.28391423475076,6.836318864983218,6.279937382449717,1.0462601176568531,2609,80,828,1331,177.89465331250233,102.19623095787443,0.0017457582513759,False
0.4800000000000001,1.1783046258958636,2.0,4348.0,81.52326,0.3,68900.0,0.33,276.0,2700.0,47.157069970238034,11.086073449693265,29932.398314171816,32.25418409808925,15.57628002116979,14.902885872148786,4.490206571476525,4613,116,1476,2347,212.69982848486103,122.19268412701182,0.0027292417278738,False
0.49,0.7964191859792863,2.0,4349.0,81.52326,0.2,68900.0,0.33,276.0,2700.0,23.009208180652863,5.390852514858496,14555.30179011794,17.978740439737564,6.101311572705493,5.030467740915299,0.7104590578469967,6472,112,1600,3650,163.83577443827295,94.13565862067954,0.0016326020473426,False
0.5,0.9658843011620654,2.0,4350.0,81.52326,0.3,68900.0,0.33,276.0,2700.0,32.4432181303227,7.849005144781526,21192.31389091012,23.86123544145316,9.636326796820386,8.581982688869541,1.7873216520388595,3635,94,1060,1927,186.69062299181155,106.83342431581552,0.0020211882797477,False
0.05,0.359007331264107,2.0,4355.0,84.54263999999999,0.08,68900.0,0.33,276.0,2700.0,11.214058952467418,0.2800896744238863,756.2421209444931,6.131051737221578,1.003636267221495,5.08300721524584,0.7235465927976084,15110,188,4962,7661,637.3725333426812,365.2598752932154,0.0045906394219415,True
0.06,0.4773819875091968,2.0,4356.0,84.54263999999999,0.1,68900.0,0.33,276.0,2700.0,16.296889500503262,0.4884542956729826,1318.826598317053,8.862753940356159,1.8876055237334315,7.434135560147103,1.3991512280604486,13120,184,4316,6640,701.8560262478697,402.2697134015359,0.0055433724738656,True
0.0699999999999999,0.7274101164403971,2.0,4357.0,84.54263999999999,0.2,68900.0,0.33,276.0,2700.0,29.482386484523527,1.031165149438204,2784.1459034831505,15.790091963586846,4.936822019906207,13.69229452093668,3.905656870468003,5952,132,1954,3015,869.4186426492475,497.31302966754026,0.0088785577922207,True
0.08,0.4560733768953817,2.0,4358.0,84.54263999999999,0.2,68900.0,0.33,276.0,2700.0,14.848183044252377,0.5928549914776694,1600.7084769897074,8.345028927247379,1.7042888153527354,6.503154117004998,1.1114338238750658,3177,88,1042,1608,490.5321571526449,283.20060876813454,0.0040113311693426,True
0.09,0.7828327625596267,2.0,4359.0,84.54263999999999,0.3,68900.0,0.33,276.0,2700.0,32.276847281443835,1.450931313635325,3917.514546815377,17.538379513484745,5.860041510136448,14.73846776795909,4.409110196501123,3149,96,1036,1589,727.7863586087652,419.729410604066,0.0078139595229691,True
0.0999999999999999,0.6777206705608063,2.0,4360.0,84.54263999999999,0.1,68900.0,0.33,276.0,2700.0,25.74230849289338,1.285021029542273,3469.556779764137,14.28828983602076,4.189789909068656,11.45401865687262,2.904768879526383,20483,242,6758,10340,604.1203285342002,346.54244343917264,0.0055057305281155,True
0.11,0.7861239571023642,2.0,4361.0,84.54263999999999,0.3,68900.0,0.33,276.0,2700.0,31.885687572238464,1.7509251765918172,4727.497976797907,17.644627377007343,5.917938495608659,14.24106019523112,4.167013319016842,3172,96,1038,1609,596.0578978550141,344.1167708394085,0.0064013659079137,True
0.12,0.6805186619511127,2.0,4362.0,84.54263999999999,0.3,68900.0,0.33,276.0,2700.0,25.363009207901925,1.5181614377371793,4099.035881890384,14.371206938316982,4.229884375803923,10.991802269584944,2.711722938066744,2527,82,824,1285,485.24498256048975,279.0910463179925,0.0046828439731851,True
0.13,0.6883222041882248,2.0,4363.0,84.54263999999999,0.3,68900.0,0.33,276.0,2700.0,25.536819772807533,1.6552918991925205,4469.288127819805,14.603500694235606,4.342936057959136,10.933319078571929,2.687644158766616,2537,82,832,1283,455.5332411363664,262.97271291749826,0.0044157850104444,True
0.14,0.815955286954835,2.0,4364.0,84.54263999999999,0.3,68900.0,0.33,276.0,2700.0,32.856147643139764,2.2941833148588144,6194.294950118799,18.62007284824114,6.458795012605659,14.236074794898624,4.164611697746844,3367,98,1106,1702,494.0214859911976,285.07822870822304,0.0053144576159943,True
0.15,0.5195314022737445,2.0,4365.0,84.54263999999999,0.2,68900.0,0.33,276.0,2700.0,16.280099311956388,1.213938864926153,3277.634935300613,9.920449404659031,2.28329920644432,6.359649907297355,1.0693603415181667,3512,94,1158,1769,301.8414282679218,174.20230331050146,0.0026563525623987,True
0.16,0.6183135450347199,2.0,4366.0,84.54263999999999,0.3,68900.0,0.33,276.0,2700.0,20.97314733908663,1.6692731447875295,4507.03749092633,12.574226920873784,3.392316567520365,8.398920418212846,1.723043422732836,2209,74,720,1123,342.3602910579775,197.5945688029304,0.003138031146105,True
0.17,0.4734474555734675,2.0,4367.0,84.54263999999999,0.2,68900.0,0.33,276.0,2700.0,13.736648594053031,1.1573253673564494,3124.7784918624134,8.766299496707019,1.8529246144278808,4.970349097346015,0.6955992470714314,2905,84,954,1468,251.52082166001185,145.0955971465453,0.0021175834314609,False
0.18,0.548732966132703,2.0,4368.0,84.54263999999999,0.3,68900.0,0.33,276.0,2700.0,17.02162401474539,1.5197316490899282,4103.275452542806,10.67941488644563,2.584021180017932,6.342209128299762,1.0642895309280038,1727,64,568,869,311.4788896809381,179.6858236977475,0.0024179826378979,True
0.19,0.5794893638452507,2.0,4369.0,84.54263999999999,0.3,68900.0,0.33,276.0,2700.0,18.302775732298592,1.7243982385610517,4655.87524411484,11.501964926424378,2.925069914938972,6.800810805874214,1.2006716763779202,2064,72,678,1041,275.57900281300755,159.1040950715544,0.0024651971628742,False
0.2,0.5033391125719772,2.0,4370.0,84.54263999999999,0.2,68900.0,0.33,276.0,2700.0,14.47700061617904,1.4309449007987587,3863.551232156648,9.508839123894676,2.126005763839041,4.968161492284363,0.6950608630402828,3103,86,1022,1564,228.4457573459248,131.74228394432032,0.0019833924442909,False
0.21,0.7380322369009686,2.0,4371.0,84.54263999999999,0.3,68900.0,0.33,276.0,2700.0,26.258362563167324,2.737731876089307,7391.876065441129,16.119182913035598,5.106291590573428,10.139179650131728,2.368559714484121,2611,84,858,1318,306.0018780435285,176.66023999398038,0.0031040865157844,True
0.22,0.6898512707450788,2.0,4372.0,84.54263999999999,0.3,68900.0,0.33,276.0,2700.0,23.32767676323657,2.5437433249057406,6868.106977245499,14.64919686246355,4.365300711237476,8.678479900773025,1.821557386331735,2350,78,770,1189,283.0987898912866,163.44495233043284,0.0027136652572793,True
0.23,0.5943966203506188,2.0,4373.0,84.54263999999999,0.3,68900.0,0.33,276.0,2700.0,18.15696643583553,2.0625686349102663,5568.935314257719,11.909199227166402,3.0995610912229683,6.247767208669126,1.036992456312702,1938,68,636,978,234.92792546798623,135.60367802594487,0.0021551761282682,False
0.24,0.5784008833548935,2.0,4374.0,84.54263999999999,0.3,68900.0,0.33,276.0,2700.0,17.163959596809274,2.030722233721624,5482.950031048385,11.472448765772668,2.912566317099282,5.691510831036608,0.8818440833776577,1884,68,620,948,223.4688422812847,128.74851396396588,0.0020098367136521,False
0.25,0.7017656189310117,2.0,4375.0,84.54263999999999,0.3,68900.0,0.33,276.0,2700.0,23.24902211997941,2.873402841522533,7758.187672110839,15.00727001806144,4.541965905256434,8.241752101917974,1.6685630637339006,2279,78,748,1151,253.50881355740665,146.28336485575633,0.0024748590071932,False
0.26,0.8274886741676499,2.0,4376.0,84.54263999999999,0.3,68900.0,0.33,276.0,2700.0,30.18138428955772,3.886768869322843,10494.275947171676,19.00319463116181,6.67575365549437,11.178189658395905,2.788984786171527,2932,90,970,1471,281.81161749087545,162.4631255536886,0.0029980429070596,True
0.27,0.6344831853507704,2.0,4377.0,84.54263999999999,0.3,68900.0,0.33,276.0,2700.0,19.28162890563693,2.561795923460581,6916.8489933435685,13.03198100790173,3.599329299142213,6.249647897735201,1.0375333756816325,2016,70,664,1014,214.5980615229218,123.78785451557025,0.0020371627998313,False
0.28,0.8296575742345007,2.0,4378.0,84.54263999999999,0.2,68900.0,0.33,276.0,2700.0,29.779411708233763,4.123141477864992,11132.481990235476,19.075615689079747,6.717048201250298,10.703796019154016,2.593906723385307,6251,134,2068,3143,263.9097654317151,152.07557169562145,0.0028050807092447,False
0.29,0.6005429683814374,2.0,4379.0,84.54263999999999,0.2,68900.0,0.33,276.0,2700.0,17.192990707884448,2.441903450490977,6593.139316325638,12.078730406743771,3.173279686950886,5.114260301140675,0.731376236459909,3513,94,1162,1760,189.24243961648955,109.04188171290065,0.0017992195937187,False
0.3,0.9922070953966816,2.0,4380.0,84.54263999999999,0.3,68900.0,0.33,276.0,2700.0,39.55943450714854,5.877366508307668,15868.889572430704,24.83971879416744,10.277261196279731,14.719715712981095,4.399894687972065,3754,106,1238,1891,289.48549431522434,166.20252382372354,0.0033847232161039,True
0.31,0.9390447737484132,2.0,4381.0,84.54263999999999,0.3,68900.0,0.33,276.0,2700.0,35.75876321149756,5.480214173286726,14796.578267874162,22.881474184578373,9.009091171925643,12.877289026919186,3.5288769986389186,3381,100,1114,1704,267.5924763604482,153.85838175457383,0.0030419704218458,False
0.32,0.742531050537916,2.0,4382.0,84.54263999999999,0.3,68900.0,0.33,276.0,2700.0,23.81260567776792,3.7413877697276474,10101.746978264646,16.259418481319486,5.179124046621686,7.55318719644843,1.4377362768940394,2347,78,774,1180,218.77325125066932,126.1412154760411,0.0021451946184865,False
0.33,0.8473891857852516,2.0,4383.0,84.54263999999999,0.3,68900.0,0.33,276.0,2700.0,29.53773634246006,4.798460219711206,12955.842593220255,19.67212060849602,7.060566429253987,9.865615733964042,2.2621062095427806,2796,88,928,1398,234.69614861969367,135.0418704393569,0.0024894390182926,False
0.34,0.7844293687424123,2.0,4384.0,84.54263999999999,0.2,68900.0,0.33,276.0,2700.0,25.656829705280987,4.279342944793308,11554.225950941933,17.58988789282928,5.888084506078012,8.066941812451706,1.6087415612847034,5631,120,1750,2908,223.8916293195212,129.02752618852506,0.0022080274105625,False
0.3500000000000001,0.9399733105708056,2.0,4385.0,84.54263999999999,0.3,68900.0,0.33,276.0,2700.0,34.70284867392917,5.983201327922498,16154.643585390746,22.915067540231547,9.030353057913798,11.78778113369762,3.0471517299913,3314,98,1094,1667,241.1794856445382,138.39249122055108,0.0027308363164825,False
0.36,1.0115068627755202,2.0,4386.0,84.54263999999999,0.3,68900.0,0.33,276.0,2700.0,39.08921697066685,6.938342956822777,18733.5259834215,25.568203622085377,10.7636767284405,13.52101334858147,3.825333771617722,3758,106,1244,1886,249.2159432196388,142.6808950460148,0.0029499472908751,False
0.37,0.8036946222186591,2.0,4387.0,84.54263999999999,0.3,68900.0,0.33,276.0,2700.0,26.0300468879044,4.709471279140793,12715.57245368014,18.21645799797557,6.232978695349769,7.813588889928827,1.523507416208976,2549,84,840,1283,199.7004700447986,114.74395338643284,0.0021057819783434,False
0.38,0.7800234708840559,2.0,4388.0,84.54263999999999,0.2,68900.0,0.33,276.0,2700.0,24.485602473952248,4.537340821992317,12250.820219379257,17.447904024098182,5.81089821902142,7.037698449854066,1.2735573970291023,6597,118,1720,3655,204.27199654768577,117.77039567788732,0.0020097581951104,False
0.39,0.9645779943044348,2.0,4389.0,84.54263999999999,0.3,68900.0,0.33,276.0,2700.0,35.18215033544519,6.736281892332949,18187.96110929896,23.81313033182568,9.605188126017657,11.369020003619518,2.868906233684708,3418,100,1140,1702,225.77962808392184,129.46745867475173,0.0025673784233563,False
0.4,1.0905928748148672,2.0,4390.0,84.54263999999999,0.3,68900.0,0.33,276.0,2700.0,43.32252608681532,8.530463930809486,23032.25261318561,28.65114521885196,12.906636771080594,14.67138086796336,4.376172840271108,3986,110,1324,1994,238.98160833378796,136.6694333960489,0.002983342878819,False
0.4100000000000001,0.8390015292491906,2.0,4391.0,84.54263999999999,0.3,68900.0,0.33,276.0,2700.0,27.092704691354243,5.409656656875582,14606.072973564073,19.38896857813324,6.896752165135061,7.703736113221005,1.487095508259479,2658,84,870,1337,187.7809812994218,107.75280026688914,0.0020390009909277,False
0.42,0.7758205689506373,2.0,4392.0,84.54263999999999,0.2,68900.0,0.33,276.0,2700.0,23.37529622718007,4.75364266336171,12834.835191076616,17.3129165502832,5.737850214512955,6.062379676896867,0.9842075511512453,6493,114,1636,3635,193.4662781528218,111.52740077033428,0.0018448358658144,False
0.43,0.8238676331158665,2.0,4393.0,84.54263999999999,0.1,68900.0,0.33,276.0,2700.0,25.78147829639994,5.376498762319585,14516.54665826288,18.882549053400343,6.607160838355158,6.898929242999596,1.230662076035573,41869,234,6740,26531,196.3053922847127,113.18431229399872,0.0019585688741363,False
0.44,0.8541202821492605,2.0,4394.0,84.54263999999999,0.3,68900.0,0.33,276.0,2700.0,27.259695321082383,5.818724018235862,15710.554849236829,19.90062900671084,7.193749786050243,7.359066314371546,1.375025767814381,2790,84,880,1430,183.0416586368188,104.95972085957608,0.0019681453455867,False
0.45,0.970121317054616,2.0,4395.0,84.54263999999999,0.3,68900.0,0.33,276.0,2700.0,33.95312939551822,7.448602360285964,20111.226372772104,24.017559866235448,9.73775824582972,9.93556952928277,2.2891558855437566,3263,96,1084,1625,195.546671677151,111.88476807056644,0.0023139153842604,False
0.46,1.0962539326417815,2.0,4396.0,84.54263999999999,0.1,68900.0,0.33,276.0,2700.0,41.96036330446334,9.447023518339009,25506.963499515325,28.877854156846197,13.069473887203197,13.082509147617149,3.622450368864186,72363,314,10902,46550,270.6246047217553,153.38624533838055,0.0027007060048749,False
0.4700000000000001,1.0361674826086693,2.0,4397.0,84.54263999999999,0.3,68900.0,0.33,276.0,2700.0,37.65542655959086,8.631578858788087,23305.26291872784,26.51266110416768,11.405818521047332,11.14276545542318,2.7742396622592445,3474,100,1152,1732,200.384215930432,114.17866535755454,0.0024051100195203,False
0.4800000000000001,0.986930697227936,2.0,4398.0,84.54263999999999,0.3,68900.0,0.33,276.0,2700.0,34.2417555426541,7.986397987072847,21563.274565096686,24.642186541784994,10.146718386590203,9.599569000869105,2.1603203995173583,3406,96,1086,1735,204.56083472901923,117.17681487245306,0.0022210061234908,False
0.49,0.9685823797691364,2.0,4399.0,84.54263999999999,0.3,68900.0,0.33,276.0,2700.0,32.85298752742465,7.802578454817577,21066.961828007457,23.960728697787804,9.700840464880462,8.892258829636848,1.8982620100628853,3607,96,1080,1893,202.8964873569244,116.76434960438256,0.0021453274253363,False
0.5,1.0888651315757232,2.0,4400.0,84.54263999999999,0.3,68900.0,0.33,276.0,2700.0,40.33955362913463,9.823089019484378,26522.340352607825,28.582114537579,12.8571945930822,11.757439091555629,3.034105573597822,4433,106,1276,2371,209.8574393289433,119.99030512165764,0.0024617275162294,False
0.04,0.4268687804987709,2.0,4404.0,87.56201999999999,0.1,68900.0,0.33,276.0,2700.0,14.396310260061211,0.2877921639146716,777.0388425696135,7.653997097804188,1.4707184354197849,6.742313162257025,1.1829262715051132,11830,172,3882,6001,985.3821421606503,563.7423174664199,0.0072386830126933,True
0.06,0.5121270226785596,2.0,4406.0,87.56201999999999,0.1,68900.0,0.33,276.0,2700.0,17.98181004688848,0.5390019120645363,1455.305162574248,9.731411352885594,2.2105451382509598,8.250398694002886,1.6715432261864231,15036,198,4926,7641,801.1447705935514,459.1419227093606,0.0062845129332927,True
0.0699999999999999,0.4182991882308072,2.0,4407.0,87.56201999999999,0.08,68900.0,0.33,276.0,2700.0,13.35660572282321,0.4667628227786919,1260.2596215024682,7.455293408798569,1.405979523941753,5.90131231402464,0.939216701163061,17157,204,5644,8685,520.457818915049,299.37034720761574,0.0042099203159079,True
0.08,0.7470152532459712,2.0,4408.0,87.56201999999999,0.2,68900.0,0.33,276.0,2700.0,30.372561432054592,1.213830126989758,3277.3413428723466,16.399704796785173,5.2523489222960364,13.97285663526942,4.038518795306278,6036,134,1988,3048,809.1397773695619,463.1943153679284,0.0084043435335128,True
0.09,0.4687548621613221,2.0,4409.0,87.56201999999999,0.1,68900.0,0.33,276.0,2700.0,15.214055777511302,0.6831056959583649,1844.3853790875853,8.651770024681841,1.8120568717037016,6.56228575282946,1.1289511757453368,12269,176,4028,6221,448.0591872819061,258.43000107859376,0.0038531627079766,True
0.0999999999999999,0.4812157885434718,2.0,4410.0,87.56201999999999,0.2,68900.0,0.33,276.0,2700.0,15.573825928230193,0.7765969013091154,2096.811633534612,8.957113236193093,1.9217643183217317,6.616712692037099,1.145167417012616,3315,90,1090,1674,427.9297355101011,247.03047727900224,0.0036162314059123,True
0.11,0.4293090721542538,2.0,4411.0,87.56201999999999,0.2,68900.0,0.33,276.0,2700.0,13.00471964235415,0.7124719404481931,1923.6742392101207,7.710917922717629,1.4894658419399394,5.293801719636521,0.7769939014917463,2878,84,942,1459,473.0610341649627,269.55515850728614,0.0038428377311304,True
0.12,0.7033543225312509,2.0,4412.0,87.56201999999999,0.3,68900.0,0.33,276.0,2700.0,26.66229741261283,1.5961187300198336,4309.520571053551,15.055286405561285,4.565846142669514,11.607011007051549,2.9697274126496804,2711,86,888,1373,519.2564736977977,299.52215838887724,0.0050765344701561,True
0.13,0.7744194889402488,2.0,4413.0,87.56201999999999,0.3,68900.0,0.33,276.0,2700.0,30.584548028165187,1.9833942357907777,5355.164436635099,17.268015772495357,5.713624893764265,13.31653225566983,3.730230657973487,3101,94,1014,1574,527.4842455453432,303.0640601237708,0.0054101386726959,True
0.14,0.5398810128683553,2.0,4414.0,87.56201999999999,0.3,68900.0,0.33,276.0,2700.0,17.48156018555901,1.2179621928281634,3288.4979206360413,10.44708388911424,2.490517242817703,7.0344762964447725,1.2725550499895395,1875,68,612,951,360.3472093274364,208.036452993806,0.0030847714072225,True
0.15,0.5407463709425331,2.0,4415.0,87.56201999999999,0.3,68900.0,0.33,276.0,2700.0,17.298640924806406,1.290329485889907,3483.889611902749,10.469709484913652,2.499567499476566,6.828931439892754,1.2092380135866592,1855,68,606,940,341.0551849920765,196.8727623082664,0.00289918380401,True
0.16,0.653393948301805,2.0,4416.0,87.56201999999999,0.3,68900.0,0.33,276.0,2700.0,22.834969510845305,1.8182189185282256,4909.191080026209,13.575671342553978,3.850900638288681,9.259298168291329,2.032681719760455,2297,78,752,1163,370.0312930873373,213.5713455934596,0.0034772956243174,True
0.17,0.5477335058419427,2.0,4417.0,87.56201999999999,0.3,68900.0,0.33,276.0,2700.0,17.19282580813674,1.4511004305535642,3917.971162494624,10.653084130404467,2.5733606892739265,6.539741677732271,1.1222602587203625,1732,64,568,874,301.80883845329794,174.2480826949955,0.0026305217447417,True
0.18,0.5239513113090803,2.0,4418.0,87.56201999999999,0.3,68900.0,0.33,276.0,2700.0,15.842801728931708,1.4136376433666915,3816.821637090068,10.033948960927829,2.327397338418644,5.808852768003879,0.9137596950519524,1608,62,522,819,273.93079909110435,158.1502316436447,0.0023653477572396,False
0.19,0.7320501348618884,2.0,4419.0,87.56201999999999,0.3,68900.0,0.33,276.0,2700.0,26.43733179137444,2.4971810641732586,6742.388873267798,15.933498642025716,5.010420833082151,10.50383314934872,2.513239768908892,2678,84,880,1352,347.6094230581386,200.43124375202305,0.0034866523880567,True
0.2,0.7242301485287863,2.0,4420.0,87.56201999999999,0.3,68900.0,0.33,276.0,2700.0,25.73324854308462,2.5565696934893074,6902.73817242113,15.692122811992055,4.886765870868145,10.041125731092563,2.3301961773788378,2549,82,834,1292,328.9332774256047,189.86746177699587,0.0032749567871014,True
0.21,0.5210437191055732,2.0,4421.0,87.56201999999999,0.2,68900.0,0.33,276.0,2700.0,15.083693504040024,1.5643916248809384,4223.857387178534,9.959229175399688,2.2983313854641625,5.124464328640336,0.7339397605832241,3274,90,1082,1645,232.5419185504128,134.03848693449896,0.002054494113948,False
0.22,0.8920092242688731,2.0,4422.0,87.56201999999999,0.3,68900.0,0.33,276.0,2700.0,35.32777867411539,3.8637545351024105,10432.137244776508,21.208134006559444,7.972419638288762,14.11964466755595,4.108665103186351,3346,100,1102,1687,361.5266160453128,208.4429522367639,0.0040188113843049,True
0.23,0.8679106463780908,2.0,4423.0,87.56201999999999,0.3,68900.0,0.33,276.0,2700.0,33.50219759213942,3.8272702178851934,10333.629588290023,20.372342887754304,7.471433768852232,13.129854704385114,3.6441635509670376,3276,98,1078,1653,340.0473554604316,196.11791958293543,0.0037129817988129,True
0.24,0.7170199216172077,2.0,4424.0,87.56201999999999,0.3,68900.0,0.33,276.0,2700.0,24.324791668360334,2.890022082307756,7803.0596222309405,15.470929971710664,4.774420315018776,8.85386169664967,1.88439823271102,2483,80,814,1256,278.1482617669726,160.53111151351334,0.002737978584738,True
0.25,0.6105489822097252,2.0,4425.0,87.56201999999999,0.1,68900.0,0.33,276.0,2700.0,18.521116140492715,2.282414594086694,6162.519404034073,12.356751512509325,3.295528473767373,6.164364627983392,1.0131138796806791,20324,196,4970,11529,237.6320761386802,137.0757755729888,0.0021743321904332,False
0.26,0.802622406987612,2.0,4426.0,87.56201999999999,0.3,68900.0,0.33,276.0,2700.0,28.70016569224791,3.6942104516725647,9974.368219515924,18.181340862920106,6.213465560773842,10.518824829327809,2.519255109101277,2723,88,898,1370,284.17417461533944,163.84773780834186,0.0029660446878469,True
0.27,0.6910818443477211,2.0,4427.0,87.56201999999999,0.3,68900.0,0.33,276.0,2700.0,22.205627919473063,2.956535790328457,7982.646633886835,14.68601524063228,4.383350276155623,7.519612678840787,1.4268144858271654,2227,76,734,1120,238.47523073803055,137.4682001188965,0.0023508267266995,False
0.28,0.9746385199804536,2.0,4428.0,87.56201999999999,0.3,68900.0,0.33,276.0,2700.0,38.977362534575015,5.410854593552768,14609.307402592474,24.18471870520428,9.846627789677862,14.792643829370736,4.435773196125094,3735,106,1234,1878,312.02226773783747,179.51801920939286,0.0036441940245663,True
0.29,0.8666833868272918,2.0,4429.0,87.56201999999999,0.3,68900.0,0.33,276.0,2700.0,31.75610566918409,4.553555119879428,12294.598823674454,20.330169436152453,7.446457499227886,11.425936233031642,2.8929023793484587,3202,96,1054,1615,274.1055771591804,157.71269103014467,0.0029884040120719,False
0.3,0.8391755554899007,2.0,4430.0,87.56201999999999,0.3,68900.0,0.33,276.0,2700.0,29.82347839713924,4.416973091806227,11925.827347876811,19.394825425316423,6.900126864059876,10.428652971822816,2.483153772253649,2892,90,958,1449,258.5547736265256,148.8050695924185,0.0027787507181877,False
0.31,0.7446141873482106,2.0,4431.0,87.56201999999999,0.3,68900.0,0.33,276.0,2700.0,24.1597039613268,3.682359989510261,9942.371971677703,16.324525649176636,5.213062434410419,7.835178312150163,1.5307024449001578,2431,80,800,1225,231.50594726177488,133.43398518644088,0.0022967190235368,False
0.32,0.9915695515905734,2.0,4432.0,87.56201999999999,0.3,68900.0,0.33,276.0,2700.0,38.92251011843022,6.158972480233618,16629.22569663077,24.81581393412173,10.261432408157503,14.106696184308486,4.102459927923888,3733,106,1234,1876,282.3078449313236,162.20255851468883,0.0033032958726099,True
0.33,0.8891054813681569,2.0,4433.0,87.56201999999999,0.3,68900.0,0.33,276.0,2700.0,32.06081331144097,5.214767919593058,14079.873382901256,21.10665249520095,7.910984059117094,10.954160816240016,2.6962161395240365,2953,92,978,1480,250.3979152669137,143.88311157781726,0.0027576822481114,False
0.34,0.8430980177663915,2.0,4434.0,87.56201999999999,0.3,68900.0,0.33,276.0,2700.0,29.029797927685134,4.852747542601647,13102.418365024449,19.527037679637942,6.976461507543162,9.502760248047192,2.1237139649415147,2821,88,934,1414,235.5010107784985,135.3953177202126,0.0024935267802064,False
0.3500000000000001,1.0252020867353815,2.0,4435.0,87.56201999999999,0.3,68900.0,0.33,276.0,2700.0,40.30464009147683,6.96351482599334,18801.49003018202,26.09081898490769,11.117412290716908,14.21382110656914,4.153897464723568,3874,108,1278,1951,266.2536443108676,152.71249822476477,0.0031948811246036,False
0.36,0.754868856402656,2.0,4436.0,87.56201999999999,0.2,68900.0,0.33,276.0,2700.0,23.56805362741149,4.144533555036813,11190.240598599396,16.646618961805498,5.382114264058335,6.921434665605993,1.2375807090215218,5745,114,1598,3112,221.1526169022084,127.52310790974646,0.0020844851470392,False
0.37,0.9726777504351134,2.0,4437.0,87.56201999999999,0.3,68900.0,0.33,276.0,2700.0,36.24993257376452,6.600150131024917,17820.405353767277,24.11209754910008,9.799278342242106,12.13783502466444,3.1991282112171886,3560,102,1182,1781,246.12675449316768,140.9407059323186,0.0028253260948855,False
0.38,0.6936402867267748,2.0,4438.0,87.56201999999999,0.2,68900.0,0.33,276.0,2700.0,19.940161699731835,3.6737070748905287,9919.009102204427,14.762684856339853,4.421021642249669,5.177476843391982,0.7473145673591404,5089,102,1336,2807,198.08460801506843,113.93832414802256,0.0018086192165454,False
0.39,0.8064425811767342,2.0,4439.0,87.56201999999999,0.3,68900.0,0.33,276.0,2700.0,25.71907831130157,4.890982847625228,13205.653688588116,18.30659091839337,6.283160571612964,7.412487392908194,1.3921777239877358,2462,82,818,1229,199.0316556442233,114.23083483379624,0.0020940986442987,False
0.4,1.0423102801253086,2.0,4440.0,87.56201999999999,0.2,68900.0,0.33,276.0,2700.0,40.00621927805253,7.867202569057341,21241.44693645482,26.750297022833827,11.569409819038825,13.255922255218708,3.702207249981483,10755,158,2674,6056,247.69349973913864,142.1210932010414,0.0029358693245187,False
0.4100000000000001,0.8563451956081523,2.0,4441.0,87.56201999999999,0.2,68900.0,0.33,276.0,2700.0,28.088873339099877,5.613871229663435,15157.452320091275,19.97641114711024,7.238111244652381,8.112462191989636,1.6242400149889455,7504,126,1864,4226,213.12740139751256,122.69943638791948,0.0022047741013178,False
0.42,0.8193623390449867,2.0,4442.0,87.56201999999999,0.3,68900.0,0.33,276.0,2700.0,25.75565117571392,5.253517202553817,14184.496446895306,18.732902073038662,6.522426695413738,7.022749102675256,1.2689094928599216,2815,84,892,1439,187.6822127819206,107.7517820350892,0.0020090255602166,False
0.43,0.9284681802479976,2.0,4443.0,87.56201999999999,0.2,68900.0,0.33,276.0,2700.0,31.88666339422033,6.689113558351405,18060.606607548794,22.500354776253367,8.769101071283679,9.386308617966968,2.0799875129322736,8566,136,2144,4810,218.4994894869841,125.60205924083591,0.0023557924205365,False
0.44,1.0524313062818589,2.0,4444.0,87.56201999999999,0.3,68900.0,0.33,276.0,2700.0,39.55323423543204,8.523302579392425,23012.91696435955,27.14390038739757,11.842139938515803,12.409333848034464,3.3188373591233784,3808,106,1266,1899,221.3110733389828,126.48246621418414,0.0027025434323321,False
0.45,0.780308246436098,2.0,4445.0,87.56201999999999,0.1,68900.0,0.33,276.0,2700.0,22.97887774602437,4.979395739149902,13444.368495704735,17.457066414709654,5.815868260085687,5.521811331314716,0.8364725209357848,39440,220,6214,25133,190.33120525407125,109.7886973710767,0.0018296962719348,False
0.46,0.9966260688165068,2.0,4446.0,87.56201999999999,0.2,68900.0,0.33,276.0,2700.0,35.36783893398833,7.93074291313077,21413.00586545308,25.0056900678504,10.387393783983628,10.362148866137932,2.456650870852857,9298,144,2308,5236,216.03444441180037,124.17116007037264,0.002444570953213,False
0.4700000000000001,1.10015013088839,2.0,4447.0,87.56201999999999,0.3,68900.0,0.33,276.0,2700.0,41.94302350762669,9.639164141576495,26025.74318225654,29.034353523636028,13.18229248433878,12.908669983990665,3.543128342762284,4171,110,1346,2112,223.2811618990897,128.36722234686013,0.0027078335895742,False
0.4800000000000001,0.9209624251432612,2.0,4448.0,87.56201999999999,0.2,68900.0,0.33,276.0,2700.0,30.21639733567221,7.020312017397468,18954.842446973165,22.23159619550777,8.601228422216598,7.984801140164446,1.5809164048191304,8283,130,2030,4688,198.3557119027054,113.97149281902452,0.0021261536904412,False
0.49,0.9046058040892454,2.0,4449.0,87.56201999999999,0.3,68900.0,0.33,276.0,2700.0,29.02104322856605,6.863752101597216,18532.130674312484,21.65081940164925,8.242353565933891,7.370223826916796,1.3786014643366755,3084,86,906,1635,195.12313446465285,112.16420855239042,0.0020244462354505,False
0.5,0.8369559545784715,2.0,4450.0,87.56201999999999,0.3,68900.0,0.33,276.0,2700.0,24.981272409985547,5.983518714697238,16155.500529682544,19.320181888351588,6.857160954202293,5.661090521633959,0.8736422395050543,2805,80,808,1495,185.85800713398237,107.19037545602036,0.0018146383368622,False
0.05,0.4541348993824934,2.0,4455.0,90.5814,0.1,68900.0,0.33,276.0,2700.0,15.429408583207964,0.3854734151923992,1040.778221019478,8.298496966422768,1.6881572802687177,7.1309116167851965,1.3026838650763182,12745,180,4186,6460,871.8812467300074,499.2559861323575,0.0065910469702964,True
0.06,0.4250823894227472,2.0,4456.0,90.5814,0.08,68900.0,0.33,276.0,2700.0,13.875094876216831,0.4158004569443877,1122.6612337498468,7.612423660260759,1.4570825484568273,6.262671215956073,1.0412820915124397,17941,210,5900,9085,671.4013049534802,384.99217068316,0.0051247917697791,True
0.0699999999999999,0.6995816948268454,2.0,4457.0,90.5814,0.2,68900.0,0.33,276.0,2700.0,27.83389575996559,0.9734679740786748,2628.363530012422,14.94136744313528,4.509263151453014,12.892528316830308,3.5357951773743395,5458,126,1798,2755,912.0271758157376,520.9705616433974,0.0088820012420287,True
0.08,0.4338350740316972,2.0,4458.0,90.5814,0.2,68900.0,0.33,276.0,2700.0,13.836607996557664,0.5523919895698802,1491.4583718386766,7.816885022950467,1.5246050804030291,6.019722973607196,0.9722130908331492,3078,86,1008,1560,502.71471364737874,290.13778590415046,0.0040291155750479,True
0.09,0.6892279332472953,2.0,4459.0,90.5814,0.2,68900.0,0.33,276.0,2700.0,26.67294003204405,1.1987554874123385,3236.639816013313,14.63056132090592,4.35617512614387,12.042378711138126,3.157419638731532,5364,124,1768,2706,693.3203930926812,397.4356138591644,0.0066999089793966,True
0.0999999999999999,0.5528989579975486,2.0,4460.0,90.5814,0.1,68900.0,0.33,276.0,2700.0,19.05831651146961,0.9508214304710878,2567.217862271937,10.789438255229983,2.6287405623551474,8.26887825623962,1.6779191318840596,15239,202,5012,7715,510.62406629835806,293.6381747701412,0.0044819454436455,True
0.11,0.5695993842686606,2.0,4461.0,90.5814,0.2,68900.0,0.33,276.0,2700.0,19.66478440086083,1.07877550216605,2912.6938558483357,11.234873708090667,2.8126385060981893,8.429910692770163,1.7338630039321392,4271,104,1396,2171,470.5618786548051,271.0958489570193,0.0042700950872092,True
0.12,0.473745939759736,2.0,4462.0,90.5814,0.2,68900.0,0.33,276.0,2700.0,14.791413474040516,0.8838656937054952,2386.437373004837,8.773603152186668,1.8555423061568772,6.017810321853849,0.9716766124513824,3187,88,1038,1624,368.4257142105373,212.1043652037304,0.0031023391811369,True
0.13,0.6031854555987524,2.0,4463.0,90.5814,0.2,68900.0,0.33,276.0,2700.0,20.911798881078163,1.3546655412301238,3657.596961321334,12.151908456732944,3.2052942250375875,8.759890424345217,1.850628683807464,4239,106,1386,2154,421.4717737128552,243.28505045916503,0.0039435575666229,True
0.14,0.4997938567269734,2.0,4464.0,90.5814,0.2,68900.0,0.33,276.0,2700.0,15.567637522877844,1.0839876064404828,2926.7665373893037,9.419597549240896,2.092452781788655,6.148039973636948,1.008465175348172,3338,90,1096,1688,513.5079510573723,296.42628630143736,0.0105566773242625,True
0.15,0.6774595763562063,2.0,4465.0,90.5814,0.3,68900.0,0.33,276.0,2700.0,24.4049502613018,1.8233026861270567,4922.917252543054,14.280562474227118,4.186060328220795,10.124387787074678,2.362757642093737,2505,82,822,1266,426.8395457344033,246.11786568057693,0.0040443788092715,True
0.16,0.5352239214447052,2.0,4466.0,90.5814,0.3,68900.0,0.33,276.0,2700.0,16.81010283705754,1.3362295846252012,3607.8198784880433,10.325643069180876,2.44214721008112,6.484459767876661,1.1059176254559189,1704,64,558,861,320.325524148388,184.67463286202528,0.0027869825237753,True
0.17,0.5050506048319197,2.0,4467.0,90.5814,0.2,68900.0,0.33,276.0,2700.0,15.173091170734097,1.2794229863743396,3454.4420632107167,9.552034055695197,2.14231702179649,5.6210571150389,0.8628940354221506,3250,88,1072,1636,281.2264487289594,162.2141624688067,0.002455022595823,True
0.18,0.7933134087447483,2.0,4468.0,90.5814,0.3,68900.0,0.33,276.0,2700.0,30.311673297348488,2.715836084524205,7332.757428215353,17.877667455386828,6.045630627772612,12.43400584196166,3.329794543248407,2939,92,966,1484,406.2435143821572,234.4952481586844,0.0042475932714984,True
0.19,0.5165166150718622,2.0,4469.0,90.5814,0.2,68900.0,0.33,276.0,2700.0,15.286182383975856,1.4378218704703911,3882.119050270056,9.843313861321656,2.2535074935556576,5.4428685226542,0.8156856230852665,3426,92,1122,1737,258.8579532250905,148.9854767066177,0.0022867260807841,False
0.2,0.6697239534685244,2.0,4470.0,90.5814,0.3,68900.0,0.33,276.0,2700.0,22.727772548093228,2.256022093990179,6091.259653773484,14.052395804915212,4.076474757443425,8.675376743178015,1.8204526634532456,2330,78,762,1181,317.40738694088594,183.24766138254,0.0030500849109642,True
0.21,0.7365115406608047,2.0,4471.0,90.5814,0.3,68900.0,0.33,276.0,2700.0,26.17181336422132,2.728644210199978,7367.33936753994,16.071895290727987,5.081815172143011,10.099918073493336,2.3531709619430328,2614,84,858,1321,327.2464380013012,188.8517134945203,0.0033163869337809,True
0.22,0.6382953999087131,2.0,4472.0,90.5814,0.3,68900.0,0.33,276.0,2700.0,20.59606603610796,2.243266144921593,6056.818591288302,13.140860059238564,3.6492174259762176,7.455205976869392,1.4059512810546244,2149,74,706,1084,282.6872381354134,162.98903382019756,0.0026303449708812,True
0.23,0.7679603594878242,2.0,4473.0,90.5814,0.3,68900.0,0.33,276.0,2700.0,27.45859020965409,3.1322553688994006,8457.089496028382,17.06165635645446,5.602755559985824,10.39693385319963,2.4705001910864235,2797,88,920,1411,313.82389246110205,181.0752041342716,0.0032311693490146,True
0.24,0.6746897799312426,2.0,4474.0,90.5814,0.3,68900.0,0.33,276.0,2700.0,22.03564689499263,2.6153247095036307,7061.376715659803,14.19869288536661,4.146619502884797,7.836954009626021,1.5312947933811665,2325,78,766,1170,272.2461627832376,157.12413059142415,0.0026114013154098,False
0.25,0.796870049411099,2.0,4475.0,90.5814,0.3,68900.0,0.33,276.0,2700.0,28.62378988880473,3.545248812625698,9572.171794089383,17.993433282594182,6.109420841360648,10.630356606210544,2.56417202873495,2738,88,902,1379,302.39425371279856,174.38858359173565,0.0031467214697467,True
0.26,0.958696966791257,2.0,4476.0,90.5814,0.3,68900.0,0.33,276.0,2700.0,38.5117948532839,4.969722242607241,13418.25005503955,23.59709104154914,9.465778143874806,14.91470381173476,4.496055901267565,3733,106,1234,1876,342.0989511884629,196.94026815853024,0.0039532081289251,True
0.27,0.8009013551279031,2.0,4477.0,90.5814,0.3,68900.0,0.33,276.0,2700.0,28.33844674841265,3.784466332235301,10218.059097035311,18.125033476852945,6.182222994912249,10.213413271559707,2.397756662676948,2739,88,902,1380,284.45824995390234,164.0004501055048,0.0029563932297111,True
0.28,0.8633091203144899,2.0,4478.0,90.5814,0.3,68900.0,0.33,276.0,2700.0,31.820191801735728,4.408850690955266,11903.896865579218,20.21441151977118,7.378053468793403,11.605780281964549,2.969202777838137,3213,96,1060,1617,293.1709126194553,168.65150329386267,0.0031765157814277,True
0.29,0.6408054621796166,2.0,4479.0,90.5814,0.2,68900.0,0.33,276.0,2700.0,19.16757352780195,2.728217959379016,7366.188490323343,13.21274830819114,3.682291991887184,5.954825219610809,0.9540740325081676,4224,104,1410,2101,215.447187265687,124.05086172200272,0.0020856469958204,False
0.3,0.7095119192647283,2.0,4480.0,90.5814,0.3,68900.0,0.33,276.0,2700.0,22.4954497717918,3.317768798004153,8957.975754611214,15.24199072023937,4.659124861019657,7.2534590515524275,1.3413560630155033,2233,76,736,1123,231.2131354963622,133.36940011755,0.0022976235390829,False
0.31,0.7890886632666801,2.0,4481.0,90.5814,0.3,68900.0,0.33,276.0,2700.0,26.64528227785827,4.067624628572638,10982.58649714612,17.740568459096345,5.970391795142785,8.904713818761927,1.9027671665701469,2630,86,868,1322,248.43311816096968,142.75889974480927,0.0025662690535524,False
0.32,0.9868032666211014,2.0,4482.0,90.5814,0.3,68900.0,0.33,276.0,2700.0,38.604064152240426,6.108021125643246,16491.657039236765,24.637424581945226,10.143578521218886,13.9666395702952,4.0355573955756405,3633,104,1202,1824,291.759605813518,167.42767408905303,0.0033941983132226,True
0.33,0.8061231383771088,2.0,4483.0,90.5814,0.3,68900.0,0.33,276.0,2700.0,27.127954582381747,4.400846229298285,11882.284819105367,18.296103461435123,6.277314338097794,8.831851120946624,1.876468108799509,2550,84,844,1278,238.72588463333383,137.17492493541172,0.0025022511490822,False
0.34,0.9147793806166532,2.0,4484.0,90.5814,0.3,68900.0,0.33,276.0,2700.0,33.38572288367779,5.593254785120743,15101.787919826003,22.01126351201893,8.464451131507566,11.374459371658862,2.8711963463868235,3201,96,1060,1605,259.53418484557096,149.22752781705572,0.0028853051319465,False
0.3500000000000001,0.7552342511254919,2.0,4485.0,90.5814,0.2,68900.0,0.33,276.0,2700.0,23.814052366756897,4.07766197416735,11009.687330251843,16.658144565867133,5.388198956375315,7.155907800889764,1.3105369822079649,5451,114,1596,2895,231.1225012175874,133.13431467785335,0.0022036662796176,False
0.36,0.8752334152684436,2.0,4486.0,90.5814,0.3,68900.0,0.33,276.0,2700.0,30.435320284712784,5.380641553351042,14527.732194047814,20.62476872645102,7.621539133210575,9.810551558261764,2.240897579859533,2859,90,950,1428,239.39456590199097,137.64060015746395,0.0025764430430016,False
0.37,0.7358950673202984,2.0,4487.0,90.5814,0.3,68900.0,0.33,276.0,2700.0,22.33309064123903,4.025534373507698,10868.942808470783,16.052741970936573,5.071913181411068,6.280348670302455,1.0463788079033698,2221,74,736,1111,195.7333559635602,112.46044029822284,0.0020048105234506,False
0.38,0.9393068228423154,2.0,4488.0,90.5814,0.3,68900.0,0.33,276.0,2700.0,33.850473291870934,6.316666277396955,17054.998948971777,22.89095261375142,9.01508848337206,10.959520678119514,2.6984222059751044,3069,94,1020,1533,239.4145400397913,137.5206687172818,0.0027190901416784,False
0.39,0.8921882310411084,2.0,4489.0,90.5814,0.3,68900.0,0.33,276.0,2700.0,30.694231340040343,5.861137688228568,15825.071758217133,21.21439696252038,7.97621659844642,9.479834377519968,2.1150789102178527,2894,90,960,1448,223.83727664558333,128.3313113468711,0.0024668873221564,False
0.4,0.8378316454902331,2.0,4490.0,90.5814,0.3,68900.0,0.33,276.0,2700.0,27.260500551408786,5.31805882372859,14358.758824067192,19.349615937294956,6.874092348053673,7.910884614113829,1.5560335243250831,2727,86,900,1369,211.17137525406207,121.26755831782442,0.0022313216604167,False
0.4100000000000001,0.9737148888767344,2.0,4491.0,90.5814,0.3,68900.0,0.33,276.0,2700.0,35.227620129855254,7.077314321768282,19108.74866877436,24.15049807893565,9.824305836514714,11.077122050919602,2.7469915147464325,3323,98,1112,1649,235.93320509975683,135.9020114215425,0.0026826844379266,False
0.42,0.7838137659357618,2.0,4492.0,90.5814,0.3,68900.0,0.33,276.0,2700.0,23.80512940440054,4.843907630578006,13078.550602560616,17.570020238691065,5.877262237502952,6.235109165709474,1.033354606924946,2326,78,774,1157,185.0889681176196,106.22684781849064,0.0019607476281885,False
0.43,0.9814855561182702,2.0,4493.0,90.5814,0.3,68900.0,0.33,276.0,2700.0,35.1911322803899,7.399574368877853,19978.850795970204,24.43907069683839,10.013091538969343,10.752061583551512,2.61351717009149,3348,98,1118,1665,222.2264303681126,127.17785457456938,0.0025896384264664,False
0.44,1.108346598201532,2.0,4494.0,90.5814,0.3,68900.0,0.33,276.0,2700.0,43.3767558382748,9.364477332017136,25284.088796446267,29.364828192578337,13.421624823074737,14.011927645696469,4.057147491057599,4036,110,1342,2015,237.74422002014455,135.39288313681024,0.0030012501807281,False
0.45,1.108349540137354,2.0,4495.0,90.5814,0.3,68900.0,0.33,276.0,2700.0,43.08457951465348,9.50317863709145,25658.582320146917,29.36494711208293,13.421711212688678,13.719632402570548,3.918532575597228,4040,110,1342,2017,236.06586258743695,134.36364268157158,0.0029422407679748,False
0.46,0.920790525513858,2.0,4496.0,90.5814,0.3,68900.0,0.33,276.0,2700.0,30.68411327818169,6.853486012295249,18504.41223319717,22.22545757022119,8.597407346693892,8.458655707960503,1.7439213343986433,3049,90,988,1541,217.7630439936728,125.0482393896533,0.0022476250152748,False
0.4700000000000001,1.1468254184782265,2.0,4497.0,90.5814,0.3,68900.0,0.33,276.0,2700.0,45.2006322222185,10.404702189505578,28092.69591166506,30.93883119325321,14.58171233592465,14.26180102896529,4.177010146419072,4309,114,1406,2176,242.109196994755,138.9795555655789,0.0029688268570802,False
0.4800000000000001,0.9829386712131718,2.0,4498.0,90.5814,0.3,68900.0,0.33,276.0,2700.0,33.99194556253877,7.926443591845433,21401.39769798267,24.49320221809362,10.048643644743349,9.498743344445144,2.122200052897914,3407,96,1088,1733,211.30081682628065,121.72928281742996,0.0023652086187964,False
0.49,1.1825648563714668,2.0,4499.0,90.5814,0.3,68900.0,0.33,276.0,2700.0,47.16454744835076,11.308910635444478,30534.05871570009,32.43411038017289,15.714073381003924,14.73043706817787,4.405162745559444,4727,116,1484,2429,231.3163109846489,132.27633929460265,0.0029919248030121,False
0.5,0.9346528580418362,2.0,4500.0,90.5814,0.2,68900.0,0.33,276.0,2700.0,30.558960229457263,7.377940669565166,19920.439807825947,22.7228735464854,8.90894612380888,7.836086682971864,1.531005454243714,8318,132,2046,4699,201.5809954401741,116.123635953207,0.0021645028119533,False
0.01,0.3166610825569446,2.4000000000000004,4501.0,3.01938,0.05,68900.0,0.33,276.0,2700.0,11.841314389509664,0.059204477552447,159.85208939160705,6.035219905135823,0.889056411823843,5.806094484373841,0.8298519342713959,38633,294,12794,19436,96.01155688839653,54.71592686642814,0.0007397073893229,False
0.03,0.6122652137703632,2.4000000000000004,4503.0,3.01938,0.1,68900.0,0.33,276.0,2700.0,26.984244943865345,0.4047071254900987,1092.7092388232666,13.943480823930118,3.787850538850522,13.040764119935224,3.3831434133604232,22411,240,7378,11338,66.44579232156407,37.841491016443015,0.0005914421395614,False
0.04,0.5322878713943819,2.4000000000000004,4504.0,3.01938,0.1,68900.0,0.33,276.0,2700.0,22.05609934073696,0.4409879455281859,1190.6674529261018,11.587146535240418,2.767986095594549,10.46895280549654,2.3269981500663635,17954,212,5898,9101,44.368639359594845,25.31586499490115,0.0003725977175132,False
0.05,0.504907339007808,2.4000000000000004,4505.0,3.01938,0.1,68900.0,0.33,276.0,2700.0,20.277720444461927,0.5066812117237489,1368.039271654122,10.817386014787887,2.46130507271484,9.460334429674038,1.9546238609910915,16748,202,5498,8495,33.30657198107117,19.02660940210587,0.0002834021820747,False
0.06,0.6263857341094407,2.4000000000000004,4506.0,3.01938,0.2,68900.0,0.33,276.0,2700.0,26.94830091859552,0.8079966382157474,2181.590923182518,14.37620405125084,3.987788985265458,12.572096867344676,3.1797923470497107,5528,120,1816,2798,31.53836410362838,18.009109218428186,0.0003161102004547,False
0.0699999999999999,0.7582138228792542,2.4000000000000004,4507.0,3.01938,0.2,68900.0,0.33,276.0,2700.0,34.98778722203876,1.2238541752512389,3304.4062731783447,18.65785328204344,6.160399060866099,16.32993393999532,4.93654488561486,7183,140,2356,3643,32.411497483797845,18.520158878465157,0.0003594477188312,False
0.08,0.5150768072903035,2.4000000000000004,4508.0,3.01938,0.2,68900.0,0.33,276.0,2700.0,20.04060008649817,0.8005516731675039,2161.4895175522606,11.101085131194043,2.572752468584909,8.939514955304126,1.7722007954174055,4338,104,1422,2199,19.36707461849761,11.181300209084892,0.0001884043814154,False
0.09,0.6761548896199066,2.4000000000000004,4509.0,3.01938,0.2,68900.0,0.33,276.0,2700.0,29.09786751810817,1.307877224285224,3531.268505570105,15.941337135452066,4.741970006266884,13.156530382656108,3.43409278198166,6329,128,2086,3194,22.71674024759644,13.015788345710044,0.0002401056027949,False
0.0999999999999999,0.4132132211748868,2.4000000000000004,4510.0,3.01938,0.1,68900.0,0.33,276.0,2700.0,14.332692365497556,0.7145402231724848,1929.258602565709,8.376755614542212,1.5829247978595469,5.955936750955345,0.8683845746870619,11677,164,3840,5911,12.48771018353896,7.2041270640690325,0.0001169703820845,False
0.11,0.7077898294020695,2.4000000000000004,4511.0,3.01938,0.3,68900.0,0.33,276.0,2700.0,30.47363363268385,1.6732622099163257,4517.807966774079,16.968549159140206,5.262454834809158,13.50508447354364,3.5891926248928323,2980,88,982,1501,20.329427673885995,11.736303974814284,0.0002121052721054,False
0.12,0.4608269435720536,2.4000000000000004,4512.0,3.01938,0.2,68900.0,0.33,276.0,2700.0,16.217016159082448,0.9694018548080128,2617.3850079816348,9.61771955479276,2.011090694265877,6.599296604289689,1.0416888394578645,3385,90,1110,1714,12.09030407274225,6.980298323947937,0.0001130159446135,False
0.13,0.7543643887991804,2.4000000000000004,4513.0,3.01938,0.3,68900.0,0.33,276.0,2700.0,32.840589220003295,2.1300369132602577,5751.099665802696,18.52663660966059,6.088829559013819,14.313952610342708,3.958792645753561,3311,92,1076,1691,17.85947071408976,10.29544600686597,0.0001980122060109,False
0.14,0.530389039264408,2.4000000000000004,4514.0,3.01938,0.1,68900.0,0.33,276.0,2700.0,19.335243999248945,1.3477200597864605,3638.8441614234425,11.533155832416588,2.746035323438322,7.802088166832357,1.3983152636518617,15926,198,5262,8025,11.57085561833792,6.67127471047405,0.0001167220346023,False
0.15,0.6079953226212857,2.4000000000000004,4515.0,3.01938,0.3,68900.0,0.33,276.0,2700.0,23.35594190235451,1.7446270592060098,4710.493059856227,13.813616820436428,3.72859080911788,9.54232508191808,1.98396374991187,2382,76,780,1206,13.238176963609796,7.641811597444598,0.0001302145119165,False
0.16,0.7273540929998648,2.4000000000000004,4516.0,3.01938,0.3,68900.0,0.33,276.0,2700.0,30.216899581417778,2.4087733241740183,6503.68797526985,17.61640400190475,5.600753721167387,12.600495579513026,3.191980396993369,2903,86,950,1472,14.112724441116471,8.147251629609958,0.0001551105534655,False
0.17,0.5029047471809349,2.4000000000000004,4517.0,3.01938,0.2,68900.0,0.33,276.0,2700.0,17.174586250555016,1.4495500681591198,3913.785184029624,10.761825736820017,2.4396979129931577,6.412760513735002,0.990147844834038,3517,92,1156,1777,9.33886059934562,5.386085488610252,9.200998910999338e-05,False
0.18,0.8182170904870576,2.4000000000000004,4518.0,3.01938,0.3,68900.0,0.33,276.0,2700.0,35.49398119910035,3.182243795681877,8592.058248341069,20.751346878319687,7.342286989324288,14.74263432078066,4.1600431936424105,3645,98,1188,1857,14.033465576153644,8.098877338201612,0.0001631491826685,False
0.19,0.4907044251322364,2.4000000000000004,4519.0,3.01938,0.08,68900.0,0.33,276.0,2700.0,16.096321981231156,1.5147851322096468,4089.919856966047,10.425515248043716,2.310455524712036,5.67080673318744,0.7956703925023894,27707,218,6816,15689,8.52256534726359,4.919764057799076,8.20167007779405e-05,False
0.2,0.8985965884797442,2.4000000000000004,4520.0,3.01938,0.3,68900.0,0.33,276.0,2700.0,40.365002458763485,4.0197450850572,10853.31172965444,23.697557843544704,9.127589649940042,16.66744461521878,5.107844564882842,3689,102,1212,1865,13.806885426175464,7.971364650171931,0.0001683690309476,False
0.21,0.5213516934236274,2.4000000000000004,4521.0,3.01938,0.1,68900.0,0.33,276.0,2700.0,17.190688556374628,1.7856261053760736,4821.190484515399,11.277433209546816,2.642963278335976,5.913255346827812,0.8573371729599024,18709,182,4642,10558,8.352280443104744,4.819818318193146,8.096861029792734e-05,False
0.22,0.6530624004441379,2.4000000000000004,4522.0,3.01938,0.3,68900.0,0.33,276.0,2700.0,24.094549190484663,2.62809929190303,7095.868088138181,15.207386662292748,4.382345013856727,8.887162528191915,1.754245721953697,2454,78,802,1245,9.50681924768069,5.488710943043007,0.0001007273531402,False
0.23,0.8970842431411938,2.4000000000000004,4523.0,3.01938,0.3,68900.0,0.33,276.0,2700.0,39.2920716068863,4.4931057295811065,12131.385469868988,23.64062585194617,9.091793816460932,15.65144575494013,4.598688086879825,3605,100,1180,1829,11.971661510646836,6.897729674635412,0.0001474094227285,False
0.24,0.7809959155322536,2.4000000000000004,4524.0,3.01938,0.3,68900.0,0.33,276.0,2700.0,31.277965354062783,3.724402924592049,10055.887896398532,19.442056761296552,6.594372136141296,11.83590859276623,2.8699692115492463,3101,90,1024,1559,10.23841954646726,5.905995631247161,0.0001173186701851,False
0.25,0.6570675340908125,2.4000000000000004,4525.0,3.01938,0.3,68900.0,0.33,276.0,2700.0,23.55445287555578,2.911581685969582,7861.270552117871,15.333721486245102,4.443505489224905,8.220731389310677,1.531923803255323,2353,76,778,1180,8.394757681443595,4.837322285018368,9.104154973543947e-05,False
0.26,0.8297552725496828,2.4000000000000004,4526.0,3.01938,0.3,68900.0,0.33,276.0,2700.0,33.83529891982994,4.361777771258231,11776.799982397222,21.16428314024992,7.584098857390193,12.67101577958002,3.222321086131962,3196,92,1060,1600,10.033719241014037,5.784950809407763,0.0001186591539341,False
0.27,0.6266063824006884,2.4000000000000004,4527.0,3.01938,0.08,68900.0,0.33,276.0,2700.0,21.3585447636956,2.842179564298502,7673.884823605955,14.383005580734476,3.990961820474428,6.975539182961127,1.148782256175926,48009,256,8966,29524,7.895321092692405,4.55521568994749,8.162334980258814e-05,False
0.28,0.7746602736521045,2.4000000000000004,4528.0,3.01938,0.3,68900.0,0.33,276.0,2700.0,29.75681353864232,4.119977734122191,11123.939882129916,19.222662372151927,6.4718897618641495,10.534151166490387,2.3519120277419585,3004,88,992,1510,8.92974187378879,5.153647770634091,0.000101033044916,False
0.29,0.9190494855496332,2.4000000000000004,4529.0,3.01938,0.3,68900.0,0.33,276.0,2700.0,38.9315457916957,5.593993937643605,15103.783631637732,24.473149268434863,9.620186987727111,14.45839652326084,4.026193050083506,3750,102,1232,1896,10.009349850809311,5.775754519491962,0.0001233340180123,False
0.3,0.7774759196888059,2.4000000000000004,4530.0,3.01938,0.3,68900.0,0.33,276.0,2700.0,29.385128999500587,4.351220682160475,11748.295841833284,19.320039697853566,6.526151018276535,10.06508930164702,2.1749303361160592,2963,86,978,1490,8.45868197197873,4.867869037933721,0.0001798899047677,False
0.31,0.6256383227975596,2.4000000000000004,4531.0,3.01938,0.08,68900.0,0.33,276.0,2700.0,20.36484453454677,3.0941567783593538,8354.223301570255,14.353174034318496,3.977052655057684,6.011670500228268,0.8828958766983304,49729,250,8704,30941,7.398163220419714,4.1860867243046975,7.305612416668124e-05,False
0.32,0.6549293510988963,2.4000000000000004,4532.0,3.01938,0.2,68900.0,0.33,276.0,2700.0,21.726507945121345,3.4076121325041973,9200.552757761332,15.266226139744203,4.41079136591475,6.460281805377141,1.0031792334105525,4673,106,1516,2363,7.008385014991981,4.041264379897222,7.405873903307023e-05,False
0.33,1.0257154876342809,2.4000000000000004,4533.0,3.01938,0.3,68900.0,0.33,276.0,2700.0,45.26192403021537,7.392951188190835,19960.968208115257,28.68840643442412,12.452910520996626,16.57351759579125,5.059959332805791,4228,110,1398,2125,9.843931395940167,5.673011760415244,0.0001271749505428,False
0.34,0.9287459909334268,2.4000000000000004,4534.0,3.01938,0.3,68900.0,0.33,276.0,2700.0,38.07838169381529,6.391006782844135,17255.718313679165,24.84452278247465,9.859289614573376,13.233858911340633,3.4682828317292405,3632,100,1196,1832,8.737947001354414,5.04069336430309,0.0001082220527552,False
0.3500000000000001,0.9105690835015984,2.4000000000000004,4535.0,3.01938,0.3,68900.0,0.33,276.0,2700.0,36.55229925131646,6.306855178965279,17028.50898320625,24.150289255184628,9.41401511125222,12.402009996131834,3.107159932286942,3348,96,1110,1677,8.527546757857866,4.90743402241826,0.0001029322389585,False
0.36,1.0108011957830518,2.4000000000000004,4536.0,3.01938,0.3,68900.0,0.33,276.0,2700.0,43.21806230954013,7.681535117819963,20740.1448181139,28.08182327137418,12.02957358195728,15.13623903816595,4.348038464137317,4070,108,1346,2045,9.040115522619097,5.20963802277666,0.0001154198709414,False
0.37,0.9716929233761332,2.4000000000000004,4537.0,3.01938,0.3,68900.0,0.33,276.0,2700.0,40.14056322006321,7.319916800590167,19763.77536159345,26.51778957530945,10.962050590725053,13.622773644753751,3.642133790134886,3864,104,1282,1935,8.502131820308383,4.901546050381108,0.0001068692902897,False
0.38,0.9209617648161696,2.4000000000000004,4538.0,3.01938,0.3,68900.0,0.33,276.0,2700.0,36.38113127449567,6.797491294094958,18353.226494056387,24.546201985131734,9.667056317613456,11.834929289363927,2.869565023518498,3395,96,1122,1706,7.885322389390566,4.537651742620844,9.7307848164721e-05,False
0.39,0.8820126788974472,2.4000000000000004,4539.0,3.01938,0.3,68900.0,0.33,276.0,2700.0,33.53779932231931,6.415633444773402,17322.210300888186,23.076400201437437,8.739751656979244,10.461399120881875,2.3241182122058426,3155,92,1046,1580,7.498475302725697,4.326377487754462,8.974333399896952e-05,False
0.4,0.9848298998950644,2.4000000000000004,4540.0,3.01938,0.3,68900.0,0.33,276.0,2700.0,40.15593410054096,7.897145533555031,21322.292940598585,27.038881354241404,11.313832206568238,13.11705274629955,3.4166866730132064,3948,104,1308,1978,8.955990334774764,5.170678033791536,0.0002171074012259,False
0.4100000000000001,0.7611203215938201,2.4000000000000004,4541.0,3.01938,0.2,68900.0,0.33,276.0,2700.0,25.60119536881844,5.103897245755739,13780.522563540497,18.75717462314465,6.214772374697663,6.844020745673792,1.110875128941924,6834,114,1712,3834,6.77561591495669,3.9112176538054686,7.307818948963706e-05,False
0.42,1.0371299331174568,2.4000000000000004,4542.0,3.01938,0.3,68900.0,0.33,276.0,2700.0,43.24841723593229,8.926998075199673,24102.89480303912,29.15642295281397,12.783040732009658,14.09199428311832,3.8560426568099846,4039,106,1344,2017,8.088978883769215,4.652706991350186,0.0001044508185415,False
0.43,0.9853569653509096,2.4000000000000004,4543.0,3.01938,0.3,68900.0,0.33,276.0,2700.0,39.310201294415165,8.28517420689216,22369.970358608836,27.059878452451112,11.328089000011415,12.250322841964053,3.0429147931192557,3649,100,1218,1816,7.425931614667161,4.274131285204278,9.558769581214478e-05,False
0.44,0.8583907005776628,2.4000000000000004,4544.0,3.01938,0.3,68900.0,0.33,276.0,2700.0,30.712499493571087,6.578340936183048,17761.52052769423,22.20356341067263,8.204978103846411,8.508936082898458,1.6266371676633629,3017,86,960,1539,6.54122111970913,3.762526184099329,7.850934053444406e-05,False
0.45,1.1071829190575695,2.4000000000000004,4545.0,3.01938,0.3,68900.0,0.33,276.0,2700.0,47.4378280404697,10.4826595554001,28303.180799580277,32.10046096585242,14.927934535888788,15.337367074617283,4.445274980488687,4353,112,1442,2180,7.912398520972106,4.540392101380811,0.0001071799778456,False
0.46,1.0055316462325126,2.4000000000000004,4546.0,3.01938,0.2,68900.0,0.33,276.0,2700.0,39.835075907682274,8.958207417080379,24187.160026117024,27.868840564676315,11.8821564906862,11.96623534300596,2.9239490736058205,10825,150,2690,6100,7.551375190894807,4.353117992912947,9.377799440322448e-05,False
0.4700000000000001,0.9653785850286076,2.4000000000000004,4547.0,3.01938,0.3,68900.0,0.33,276.0,2700.0,36.82278793331,8.435908781612076,22776.953710352605,26.268868234386822,10.795394709183366,10.553919698923178,2.3594859275712903,3593,98,1162,1816,6.769397795804414,3.883909371608628,8.654356033304442e-05,False
0.4800000000000001,0.9671314184184264,2.4000000000000004,4548.0,3.01938,0.3,68900.0,0.33,276.0,2700.0,36.66559827578725,8.568120243025074,23133.9246561677,26.337867261640564,10.841500119157502,10.32773101414669,2.2733798761324278,3774,98,1174,1949,6.844379002834953,3.942073412298078,8.546162453543987e-05,False
0.49,1.1537378321383542,2.4000000000000004,4549.0,3.01938,0.3,68900.0,0.33,276.0,2700.0,49.67020961414753,11.922797866064691,32191.554238374665,34.1251905987659,16.46928793495273,15.545019015381634,4.5464900688880405,4908,116,1530,2531,7.641467832767013,4.3761793863368,0.0001056992295764,False
0.5,0.9792533984470831,2.4000000000000004,4550.0,3.01938,0.3,68900.0,0.33,276.0,2700.0,36.93041683121804,8.970804820005363,24221.17301401448,26.817153838250263,11.163668440650031,10.113262992967776,2.1928636206446708,4033,98,1176,2145,7.091333344121519,4.088867192878374,8.411074029171602e-05,False
0.01,0.4712719037190175,2.4000000000000004,4551.0,6.03876,0.05,68900.0,0.33,276.0,2700.0,19.52715404414337,0.0976336758256145,263.6109247291592,9.897568701249796,2.113006511714948,9.62958534289357,2.015372835889333,62038,392,20562,31189,289.75444359452297,164.84766029995168,0.0024137741285096,True
0.02,0.3387263088820731,2.4000000000000004,4552.0,6.03876,0.08,68900.0,0.33,276.0,2700.0,12.632533983427766,0.1263085846734584,341.0331786183379,6.549681371648241,1.0278782592346285,6.082852611779526,0.9015696745611698,16311,194,5372,8247,103.05140127164935,58.8463088851666,0.0008218778170443,False
0.03,0.4007373600012251,2.4000000000000004,4553.0,6.03876,0.1,68900.0,0.33,276.0,2700.0,15.37880334760008,0.2306255015462358,622.6888541748368,8.0610159036259,1.4803911870899598,7.317787443974179,1.2497656855437238,12993,174,4274,6576,80.7931470633051,46.13379004028998,0.0006858016845024,False
0.04,0.6146413007621297,2.4000000000000004,4554.0,6.03876,0.1,68900.0,0.33,276.0,2700.0,26.830906203654,0.5364840827865266,1448.507023523622,14.015945315290878,3.8210675251274377,12.81496088836312,3.284583442340911,22537,240,7386,11452,104.9319115702268,59.73969622412548,0.0008962550331163,False
0.05,0.5606138290090525,2.4000000000000004,4555.0,6.03876,0.1,68900.0,0.33,276.0,2700.0,23.379575916771444,0.5842275985314865,1577.4145160350135,12.403315170891688,3.1077148957178338,10.976260745879756,2.523487297186348,19574,222,6398,9971,75.05900221147536,42.90640135973331,0.0006469020916978,False
0.06,0.6241852350539061,2.4000000000000004,4556.0,6.03876,0.2,68900.0,0.33,276.0,2700.0,26.816091411114623,0.8040303529913237,2170.881953076574,14.308440160310294,3.956228741333817,12.50765125080433,3.152198388342493,5569,120,1832,2815,63.63606563170894,36.411104641827656,0.000629320122125,False
0.0699999999999999,0.7011295081439596,2.4000000000000004,4557.0,6.03876,0.2,68900.0,0.33,276.0,2700.0,31.27289438127992,1.093832925824677,2953.348899726628,16.75019287579789,5.150166626414372,14.522701505482033,4.056333700589694,6662,132,2184,3380,60.61965444543338,34.636644789158915,0.0006348838304703,False
0.08,0.3809770533751072,2.4000000000000004,4558.0,6.03876,0.08,68900.0,0.33,276.0,2700.0,13.24590502160377,0.5287638705717249,1427.662450543657,7.568925822187423,1.3259811265013166,5.676979199416347,0.7972172559295917,16930,196,5572,8566,38.64476630935682,22.08874118624813,0.00025888299882,False
0.09,0.6902818416547369,2.4000000000000004,4559.0,6.03876,0.2,68900.0,0.33,276.0,2700.0,29.977123977012116,1.3474437649359008,3638.098165326932,16.396942571246917,4.970384764635481,13.580181405765195,3.6229409996995807,6142,128,2018,3109,47.95499672548801,27.484604244468915,0.0004936570282182,False
0.0999999999999999,0.5691645912886993,2.4000000000000004,4560.0,6.03876,0.2,68900.0,0.33,276.0,2700.0,22.49454185981809,1.1226326978885122,3031.1082842989827,12.653654633169204,3.2148416824369024,9.840887226648883,2.09220898454839,4637,108,1518,2354,34.29600316607279,19.792300185208077,0.0003476926077764,False
0.11,0.7919060053674235,2.4000000000000004,4561.0,6.03876,0.3,68900.0,0.33,276.0,2700.0,35.948432122817785,1.974376126873691,5330.815542558966,19.822222258809937,6.808557822011023,16.126209864007848,4.834181695137332,3600,98,1182,1821,43.798085275716055,25.28623498948413,0.0004936205019731,False
0.12,0.5199620582254303,2.4000000000000004,4562.0,6.03876,0.1,68900.0,0.33,276.0,2700.0,19.279817515552978,1.153169936196243,3113.558827729856,11.238293885074851,2.627318960514452,8.041523630478125,1.4741490243182092,16222,198,5358,8179,26.000322449545692,14.99755425256558,0.0002619431424486,False
0.13,0.6586728554647897,2.4000000000000004,4563.0,6.03876,0.3,68900.0,0.33,276.0,2700.0,26.86890812448553,1.741877642051601,4703.069633539322,15.384471676471986,4.468161766587419,11.484436448013543,2.726284124535818,2653,82,872,1339,32.398660897647154,18.70335226638841,0.0003298424468672,False
0.14,0.460228728791026,2.4000000000000004,4564.0,6.03876,0.08,68900.0,0.33,276.0,2700.0,15.719346774217572,1.0946072540342635,2955.439585892512,9.601774754965115,2.0053420019242547,6.117572019252455,0.9107347478899912,23274,220,6832,12372,20.867028900600435,12.045977719400875,0.0001972745078681,False
0.15,0.7479183152477493,2.4000000000000004,4565.0,6.03876,0.3,68900.0,0.33,276.0,2700.0,31.81669416481064,2.37918347889022,6423.795393003594,18.30774157908665,5.970111564477003,13.508952585723986,3.590928085586784,3174,90,1040,1608,31.56770366420381,18.22493120079597,0.0003423613982763,False
0.16,0.6472048583466941,2.4000000000000004,4566.0,6.03876,0.3,68900.0,0.33,276.0,2700.0,25.35308452884605,2.019668119968279,5453.103923914354,15.02334687768145,4.293806537608368,10.329737651164605,2.2741384176400885,2589,80,848,1311,25.83673164064426,14.916538763030047,0.0002658891614341,False
0.17,0.5345998752042156,2.4000000000000004,4567.0,6.03876,0.2,68900.0,0.33,276.0,2700.0,18.82153035225074,1.5895403168032567,4291.758855368793,11.653007550987605,2.7948517321052533,7.168522801263135,1.2053114153019966,3914,98,1288,1976,19.996451175642235,11.5258806796561,0.0001979337521827,False
0.18,0.4835131693231874,2.4000000000000004,4568.0,6.03876,0.2,68900.0,0.33,276.0,2700.0,15.963523476662894,1.424502600662503,3846.157021788758,10.229035583604563,2.236190224270422,5.734487893058331,0.8116876236079189,3532,90,1164,1780,17.164894305954814,9.882863965130891,0.0001675089807186,False
0.19,0.7039085546045616,2.4000000000000004,4569.0,6.03876,0.3,68900.0,0.33,276.0,2700.0,27.90952946412481,2.6370398430845454,7120.007576328273,16.84116738990814,5.1968425568892895,11.068362074216672,2.559802713804744,2616,82,862,1317,23.81938900137552,13.750340008071465,0.0002536901917878,False
0.2,0.645006157350803,2.4000000000000004,4570.0,6.03876,0.3,68900.0,0.33,276.0,2700.0,24.15354702031096,2.398599541211949,6476.218761272262,14.954487855954168,4.2608504123282565,9.199059164356788,1.8622508711163075,2506,78,816,1276,20.74860992655367,11.96633999763598,0.0002159973732829,False
0.21,0.6150621392883346,2.4000000000000004,4571.0,6.03876,0.2,68900.0,0.33,276.0,2700.0,22.198819236708275,2.311479826811104,6240.99553238998,14.028794590279912,3.826968678476167,8.170024646428361,1.5154888516650633,4682,108,1548,2354,18.85014508605796,10.84301335621742,0.0002640168933894,False
0.22,0.8691296546728539,2.4000000000000004,4572.0,6.03876,0.3,68900.0,0.33,276.0,2700.0,37.6823588154706,4.122758350651486,11131.447546759013,22.59863133752402,8.44553986638015,15.083727477946582,4.322781515728664,3588,100,1176,1818,24.429079319158195,14.104090620578493,0.0002941089023228,False
0.23,0.7017899749233273,2.4000000000000004,4573.0,6.03876,0.3,68900.0,0.33,276.0,2700.0,26.68331687230081,3.043098935103777,8216.367124780198,16.771796249397696,5.161236705908721,9.91152062290312,2.1181377708049443,2570,80,844,1298,19.455010725416667,11.207501876939151,0.0002119845196993,False
0.24,0.7405727012011183,2.4000000000000004,4574.0,6.03876,0.3,68900.0,0.33,276.0,2700.0,28.75682518404076,3.421866104189399,9239.038481311378,18.05957313403543,5.836542265703465,10.697252050005332,2.414676161514066,2782,84,918,1399,19.50223773443407,11.25819810782797,0.0002189344390964,False
0.25,0.8672334307815812,2.4000000000000004,4575.0,6.03876,0.3,68900.0,0.33,276.0,2700.0,36.62382215464849,4.545252845856163,12272.18268381164,22.52866176287028,8.402754154997412,14.095160391778208,3.8575013091412487,3466,98,1142,1747,21.86188096049631,12.620783747005415,0.0002604982553828,False
0.26,0.9255057925130796,2.4000000000000004,4576.0,6.03876,0.3,68900.0,0.33,276.0,2700.0,40.321372010700834,5.204967273071451,14053.411637292917,24.72016118098356,9.778989980479798,15.601210829717278,4.574022707408347,3730,102,1220,1894,22.31257135732582,12.878828792038716,0.0002751809492476,False
0.27,0.963547902467627,2.4000000000000004,4577.0,6.03876,0.3,68900.0,0.33,276.0,2700.0,42.69987665199131,5.723259369218421,15452.800296889736,26.19688716934453,10.74737065030006,16.502989482646775,5.02411128108164,4085,108,1346,2060,22.415298667109013,12.935428715277787,0.0002803643974848,False
0.28,0.9218633280430406,2.4000000000000004,4578.0,6.03876,0.3,68900.0,0.33,276.0,2700.0,39.43694683699959,5.475196395892191,14783.030268908917,24.580675299702364,9.689201809082707,14.856271537297223,4.214005413190519,3736,102,1226,1891,20.73942854258067,11.969995565180197,0.0002556946070836,False
0.29,0.638643738309007,2.4000000000000004,4579.0,6.03876,0.1,68900.0,0.33,276.0,2700.0,21.540810726755108,3.072337353227224,8295.310853713505,14.755913798720176,4.166335939132684,6.784896928034932,1.0939985859054595,28928,208,5992,17336,15.320379415851692,8.843380538272084,0.0001573947217098,False
0.3,0.7395606488936773,2.4000000000000004,4580.0,6.03876,0.3,68900.0,0.33,276.0,2700.0,27.081899348213685,4.005736234467438,10815.487833062083,18.02548766878351,5.818282283349667,9.056411679430177,1.8125460488822287,2705,82,890,1364,16.03719341648149,9.254359424235297,0.0001797541503763,False
0.31,0.7202142203908877,2.4000000000000004,4581.0,6.03876,0.3,68900.0,0.33,276.0,2700.0,25.67935772654446,3.9179063231190017,10578.347072421304,17.378858122223832,5.475823626732594,8.300499604320628,1.5579173036135925,2650,80,878,1327,15.181955756232796,8.753215144041103,0.0001687173206012,False
0.32,0.6458688748913877,2.4000000000000004,4582.0,6.03876,0.05,68900.0,0.33,276.0,2700.0,21.229908340833763,3.328156195818185,8986.0217287091,14.981492000971253,4.273763558442014,6.248416339862512,0.945607362623829,193245,406,22636,129131,18.53769469246937,10.495230184747909,0.0001478890919096,False
0.33,0.9837848283711912,2.4000000000000004,4583.0,6.03876,0.3,68900.0,0.33,276.0,2700.0,42.22741327603366,6.892256913750847,18609.093667127287,26.99726870987981,11.285596388112909,15.230144566153848,4.393339474362062,4055,106,1338,2042,19.00768717576596,10.96211452767998,0.0002402882123045,False
0.34,0.8537370026242023,2.4000000000000004,4584.0,6.03876,0.3,68900.0,0.33,276.0,2700.0,33.09682165878727,5.544141576889235,14969.182257600934,22.03326191115015,8.102045903196414,11.063559747637122,2.5579043263071792,3056,90,1016,1526,16.904273106732163,9.755564070164649,0.0001935069493476,False
0.3500000000000001,1.001137704318806,2.4000000000000004,4585.0,6.03876,0.3,68900.0,0.33,276.0,2700.0,42.83860038693357,7.406957877698267,19998.78626978532,27.691781422320304,11.76009159550911,15.14681896461326,4.3531337178108425,3928,106,1300,1972,23.10560903670252,13.314103995444343,0.0002845682793232,False
0.36,0.9185615392732496,2.4000000000000004,4586.0,6.03876,0.3,68900.0,0.33,276.0,2700.0,36.79802753160306,6.525928857791298,17620.007916036506,24.454523507150043,9.608249950098948,12.34350402445302,3.08232109230765,3329,96,1102,1670,16.521299481427807,9.525966747450909,0.0002029212407551,False
0.37,1.0472234669320957,2.4000000000000004,4587.0,6.03876,0.3,68900.0,0.33,276.0,2700.0,45.54863159230914,8.320409449455674,22465.10551353032,29.57300733855287,13.079432323574313,15.975624253756273,4.759022874118637,4230,110,1400,2124,18.0204983987098,10.378830599834908,0.0002364799373785,False
0.38,0.7616100223715445,2.4000000000000004,4588.0,6.03876,0.2,68900.0,0.33,276.0,2700.0,26.358466137389044,4.893184918045398,13211.599278722571,18.773929656209532,6.223961879928936,7.584536481179509,1.3307769618835383,6678,114,1728,3712,14.559299899555633,8.403787402234785,0.0001551601690971,False
0.39,0.8339812568420069,2.4000000000000004,4589.0,6.03876,0.3,68900.0,0.33,276.0,2700.0,30.48851719560757,5.821023430064616,15716.763261174465,21.31636268431505,7.67385997031401,9.172154511292518,1.8528365402493936,3046,88,1008,1528,14.013093789273624,8.06386210719074,0.0001676632512274,False
0.4,0.8787211226260032,2.4000000000000004,4590.0,6.03876,0.3,68900.0,0.33,276.0,2700.0,33.05276440432243,6.476511594311059,17486.58130463986,22.95393561789212,8.663996011397993,10.09882878643031,2.1874844170869334,3169,92,1046,1594,14.471051711997594,8.32240077110141,0.0001748319556047,False
0.4100000000000001,0.8208333138008095,2.4000000000000004,4591.0,6.03876,0.3,68900.0,0.33,276.0,2700.0,29.16090758872428,5.833638250836436,15750.823277258376,20.844684725229367,7.396699205640199,8.316222863494914,1.5630609548037633,2954,86,970,1483,13.332047409506709,7.672418855992922,0.0001583622977679,False
0.42,1.1065154686967076,2.4000000000000004,4592.0,6.03876,0.3,68900.0,0.33,276.0,2700.0,48.34681250051566,9.997661080762189,26993.68491805791,32.071828814358824,14.906518627525973,16.274983686156837,4.908857546763784,4479,114,1488,2241,16.866976040972784,9.687136585017017,0.0002276548586841,False
0.43,0.8956456233826042,2.4000000000000004,4593.0,6.03876,0.3,68900.0,0.33,276.0,2700.0,33.3330071168002,7.000077458706065,18900.209138506376,23.58652259590572,9.057822868247335,9.746484520894477,2.05774540954127,3090,90,1022,1547,13.647488183931545,7.843365111979418,0.0001688541432859,False
0.44,0.8565323671209235,2.4000000000000004,4594.0,6.03876,0.3,68900.0,0.33,276.0,2700.0,30.596908177328736,6.552910846610055,17692.85928584715,22.135492649497007,8.163779741628614,8.46141552783173,1.6108688950185597,3002,86,958,1527,12.809687952387264,7.358055818770214,0.0001566357428069,False
0.45,1.0779105652212746,2.4000000000000004,4595.0,6.03876,0.3,68900.0,0.33,276.0,2700.0,45.278495924349215,9.996809829272983,26991.386539037056,30.855263646614475,14.006555945371842,14.42323227773474,4.009746116098858,4377,110,1438,2204,15.519642366255397,8.909656848668385,0.000206883783509,False
0.46,0.95777275061042,2.4000000000000004,4596.0,6.03876,0.1,68900.0,0.33,276.0,2700.0,36.59026729500804,8.211901436165311,22172.13387764634,25.97036450638013,10.596734153511868,10.619902788627908,2.3848327173465567,64756,282,9892,41554,15.6172001630387,8.860629241312424,0.0001771480018984,False
0.4700000000000001,1.0560428293926662,2.4000000000000004,4597.0,6.03876,0.2,68900.0,0.33,276.0,2700.0,43.09228955530008,9.909241662779742,26754.952489505304,29.93909967857217,13.341860308148908,13.153189876727907,3.432618645369166,11899,158,2950,6710,15.501253917470676,8.926966192172955,0.0001966126569869,False
0.4800000000000001,1.171538342022176,2.4000000000000004,4598.0,6.03876,0.3,68900.0,0.33,276.0,2700.0,51.35146049229034,12.092727174985743,32650.363372461507,34.91375188580202,17.08374031110132,16.43770860648832,4.991013136115576,5111,118,1632,2607,15.87633406731999,9.104550316280086,0.0002190400044375,False
0.49,1.0782036466236329,2.4000000000000004,4599.0,6.03876,0.3,68900.0,0.33,276.0,2700.0,44.08528340040236,10.554490943697129,28497.125547982243,30.86762411296976,14.015600860570206,13.2176592874326,3.4611099168730792,4692,108,1400,2470,14.8157677444057,8.528783973957049,0.0001934228869016,False
0.5,0.8578420000664186,2.4000000000000004,4600.0,6.03876,0.08,68900.0,0.33,276.0,2700.0,29.1887207412432,7.035380797511651,18995.52815328146,22.183455478833327,8.192800514213454,7.005265262409871,1.1574197167018028,101411,304,12008,67673,15.601674630138268,8.794608756853272,0.0001450609491803,False
0.01,0.3800587968385425,2.4000000000000004,4601.0,9.05814,0.05,68900.0,0.33,276.0,2700.0,14.847535258798002,0.0742355818988874,200.436071126996,7.546297131517643,1.3190413019835063,7.301238127280359,1.244805720084619,47680,334,15792,23986,356.5279208739016,202.98016354640143,0.0027683385017635,True
0.02,0.439692943522632,2.4000000000000004,4602.0,9.05814,0.08,68900.0,0.33,276.0,2700.0,17.60215659870302,0.1760048108262098,475.2129892307665,9.059868362297424,1.8137443921504584,8.542288236405595,1.6377395813242486,22642,232,7438,11479,204.4354516081631,116.66981997862078,0.0016944412384964,False
0.03,0.5007485338381799,2.4000000000000004,4603.0,9.05814,0.1,68900.0,0.33,276.0,2700.0,20.585596974109112,0.3087274059438726,833.563996048456,10.702116041160789,2.416557515164124,9.883480932948324,2.1078301092202514,16941,204,5570,8580,161.1111416415159,91.984914535429,0.0013558140871773,False
0.04,0.7099601798850562,2.4000000000000004,4604.0,9.05814,0.1,68900.0,0.33,276.0,2700.0,32.78307893801158,0.6555275374736801,1769.924351178936,17.039944176933837,5.2993599883664,15.74313476107774,4.64383245089272,27136,270,8922,13747,190.9909233830157,108.84926154358251,0.0016917703003354,False
0.05,0.3508580351881471,2.4000000000000004,4605.0,9.05814,0.1,68900.0,0.33,276.0,2700.0,12.512036174333762,0.3125391049705447,843.8555834204707,6.837751847489713,1.1090808575013664,5.674284326844049,0.7965417525308217,10466,154,3446,5291,63.72944836683075,36.56524957142758,0.0005458108047663,False
0.06,0.631470593764379,2.4000000000000004,4606.0,9.05814,0.2,68900.0,0.33,276.0,2700.0,27.254738473422936,0.8171897648605697,2206.412365123538,14.533256722521305,4.061288985276125,12.721481750901631,3.2440992204155554,5506,120,1808,2788,103.72805705610295,59.468988652575874,0.0009585987526737,False
0.0699999999999999,0.7581758286099682,2.4000000000000004,4607.0,9.05814,0.2,68900.0,0.33,276.0,2700.0,34.98526018419497,1.2237657289267043,3304.167468102102,18.65655634161671,6.159690194002468,16.32870384257826,4.935924465075764,7184,140,2356,3644,97.22908426305088,55.557413991539086,0.0010782461307554,False
0.08,0.4082296398979705,2.4000000000000004,4608.0,9.05814,0.1,68900.0,0.33,276.0,2700.0,14.553582171622589,0.5810709565724776,1568.8915827456897,8.250161685392527,1.541494260213952,6.30342048623006,0.9604233036414744,12267,168,4030,6216,45.7985610646994,26.36308158644757,0.0004239542438676,False
0.09,0.5296384119564752,2.4000000000000004,4609.0,9.05814,0.2,68900.0,0.33,276.0,2700.0,20.57028123138812,0.92413584138282,2495.1667717336136,11.511837759743411,2.737386223573409,9.058443471644708,1.813250382190589,4254,104,1392,2160,53.4394757105013,30.849308412592308,0.0005246708640189,False
0.0999999999999999,0.4181173434993004,2.4000000000000004,4610.0,9.05814,0.2,68900.0,0.33,276.0,2700.0,14.570736655019603,0.7264424376484996,1961.3945816509488,8.501940461169767,1.6243121459496177,6.068796193849838,0.8978697083011179,3191,86,1034,1634,42.36891332511491,24.09880909817861,0.0003842975117342,False
0.11,0.4136082471855387,2.4000000000000004,4611.0,9.05814,0.2,68900.0,0.33,276.0,2700.0,14.123463856165897,0.7740028722078389,2089.8077549611653,8.386816843975566,1.5862358213067251,5.73664701219033,0.8122329490988862,3043,84,998,1540,35.63601511845236,20.56322630774348,0.0003224254859839,False
0.12,0.5025888461590899,2.4000000000000004,4612.0,9.05814,0.2,68900.0,0.33,276.0,2700.0,18.36176716706819,1.098086915287157,2964.834671275324,10.753070524241965,2.436299624202304,7.608696642826228,1.338212708915147,3826,96,1254,1939,38.90439760175287,22.46122840261905,0.0003764252948604,False
0.13,0.6321197869583788,2.4000000000000004,4613.0,9.05814,0.3,68900.0,0.33,276.0,2700.0,25.293429850398915,1.6394715542359706,4426.573196437121,14.553354698454678,4.070730399788598,10.740075151944238,2.431258845552628,2581,80,844,1309,46.44352834289645,26.811201331217315,0.0004689979345881,False
0.14,0.5464239190767459,2.4000000000000004,4614.0,9.05814,0.2,68900.0,0.33,276.0,2700.0,20.19638065772302,1.4079996258796454,3801.598989875042,11.99193419560062,2.9346376841564115,8.204446462122398,1.526638058276766,4457,104,1460,2261,36.02660951766433,20.75817530150889,0.0003631483399231,False
0.15,0.543877748684021,2.4000000000000004,4615.0,9.05814,0.2,68900.0,0.33,276.0,2700.0,19.80773267410896,1.4785113670875984,3991.980691136516,11.918653426765278,2.904197503589776,7.889079247343684,1.4256861365021776,4486,104,1472,2272,33.91560036685316,19.58034633827954,0.0003391853641992,False
0.16,0.7492807165953725,2.4000000000000004,4616.0,9.05814,0.3,68900.0,0.33,276.0,2700.0,31.603757020472887,2.519721919298429,6803.249182105759,18.353918813979934,5.995085506943495,13.24983820649295,3.4753635876450653,3176,90,1038,1613,44.42650163730769,25.647569250974232,0.0004844658447499,False
0.17,0.7860069114467529,2.4000000000000004,4617.0,9.05814,0.3,68900.0,0.33,276.0,2700.0,33.67395212748372,2.851996167698058,7700.389652784756,19.61629501732591,6.692232493205692,14.057657110157804,3.840236325507634,3322,94,1090,1681,43.489035156754525,25.10285423264931,0.0004884518481991,False
0.18,0.8453446736458068,2.4000000000000004,4618.0,9.05814,0.2,68900.0,0.33,276.0,2700.0,37.323608190355536,3.3469102248948404,9036.65760721607,21.72752152143933,7.918419695694472,15.596086668916204,4.571509470799631,7564,146,2492,3820,41.99839123025113,24.213993384749735,0.0005117003213531,False
0.19,0.5040863245539782,2.4000000000000004,4619.0,9.05814,0.05,68900.0,0.33,276.0,2700.0,16.77058085507459,1.578839725224772,4262.867258106884,10.794595447420392,2.452433199295725,5.9759854076542,0.873593474070953,102558,356,17790,63997,29.073539901203414,16.41415687010014,0.0002542298974153,False
0.2,0.8056735510919538,2.4000000000000004,4620.0,9.05814,0.3,68900.0,0.33,276.0,2700.0,34.04942116661314,3.388186955842169,9148.104780773856,20.306226132184158,7.084787480571178,13.74319503442899,3.696600524729009,3352,94,1096,1702,37.67017595432267,21.731000076094475,0.000433828437424,False
0.21,0.7393042127194873,2.4000000000000004,4621.0,9.05814,0.3,68900.0,0.33,276.0,2700.0,29.51920604461288,3.080120441641086,8316.325192430932,18.016855101764992,5.813661003140521,11.502350942847883,2.7335405614994355,2927,86,960,1481,33.38604295605851,19.2640597310976,0.0003698323874075,False
0.22,0.6866148789862319,2.4000000000000004,4622.0,9.05814,0.3,68900.0,0.33,276.0,2700.0,26.05065361628892,2.8432707787414992,7676.831102602048,16.27819810888074,4.910475607375319,9.772455507408177,2.06720482863382,2614,80,858,1321,29.636306462486857,17.107631595004822,0.0003219142857327,False
0.23,0.540125332500534,2.4000000000000004,4623.0,9.05814,0.08,68900.0,0.33,276.0,2700.0,17.696137704696543,2.009573330829284,5425.847993239066,11.810952968853345,2.8596759347166656,5.885184735843199,0.8501026038873816,36133,232,7570,21586,23.921687992314222,13.80163666930116,0.0002348445711765,False
0.24,0.6387953634427174,2.4000000000000004,4624.0,9.05814,0.3,68900.0,0.33,276.0,2700.0,22.772853865751244,2.7037895459946664,7300.231774185599,14.76063425575111,4.168573664398099,8.012219610000134,1.4647841184034325,2374,76,780,1198,25.61912422539302,14.778486302325003,0.0002734115431121,False
0.25,0.7863479409099776,2.4000000000000004,4625.0,9.05814,0.3,68900.0,0.33,276.0,2700.0,31.33106905308108,3.883658708160241,10485.878512032652,19.628175951323936,6.698924253557111,11.70289310175714,2.81526554539687,3096,90,1024,1554,29.811959522134305,17.173844367220944,0.0003517975048519,False
0.26,0.690019177890842,2.4000000000000004,4626.0,9.05814,0.3,68900.0,0.33,276.0,2700.0,25.19669131471915,3.238758782593827,8744.648713003333,16.38842569373612,4.966079000558854,8.808265620983029,1.727320217965027,2494,78,820,1258,25.641658718579475,14.76926793291117,0.0002798526276694,False
0.27,0.8934459841553137,2.4000000000000004,4627.0,9.05814,0.3,68900.0,0.33,276.0,2700.0,37.78960207348451,5.060372301120003,13663.005213024007,23.503899674792816,9.006031920509335,14.285702398691694,3.945659619389332,3670,100,1204,1858,31.411083268311984,18.1306423006806,0.0003794432522225,False
0.28,0.8234139687291224,2.4000000000000004,4628.0,9.05814,0.3,68900.0,0.33,276.0,2700.0,32.84224516669959,4.551938162050209,12290.233037535563,20.936922146504603,7.450611124487868,11.905323020194988,2.89867296243766,3269,92,1082,1640,28.045826049760773,16.181921539530414,0.0003289243996269,False
0.29,0.7732718405937243,2.4000000000000004,4629.0,9.05814,0.3,68900.0,0.33,276.0,2700.0,29.39718218415948,4.211511214550854,11371.080279287306,19.17471764966347,6.445233671581156,10.222464534496003,2.233722457030302,3042,88,1000,1536,25.84681231999501,14.916920207429255,0.0002992430774037,False
0.3,0.883340255443267,2.4000000000000004,4630.0,9.05814,0.3,68900.0,0.33,276.0,2700.0,36.19859261182752,5.373240224009487,14507.748604825616,23.125870647397083,8.770420177650122,13.072721964430432,3.3971799536406344,3495,98,1150,1764,28.175769533731664,16.26472692947873,0.0003394948204301,False
0.31,0.860376952273017,2.4000000000000004,4631.0,9.05814,0.3,68900.0,0.33,276.0,2700.0,34.38244420057268,5.2668847265932985,14220.588761801906,22.276415778134947,8.249152304470707,12.106028422437731,2.9822675778774084,3213,94,1064,1611,26.974700427880084,15.554200685573097,0.0003182377622548,False
0.32,0.8209366020815946,2.4000000000000004,4632.0,9.05814,0.3,68900.0,0.33,276.0,2700.0,31.555692586792578,4.9802816751715815,13446.76052296327,20.848373225546062,7.398852407776101,10.707319361246515,2.418570732604519,3090,90,1026,1545,25.38528655266344,14.655195569254824,0.0002908210917906,False
0.33,0.9160959185114648,2.4000000000000004,4633.0,9.05814,0.3,68900.0,0.33,276.0,2700.0,37.51527039047652,6.114753337633915,16509.83401161157,24.36049797093408,9.548070316270616,13.154772419542446,3.433316978636701,3623,100,1194,1826,26.552144826195764,15.322437738837117,0.0003274390977259,False
0.34,0.7191605545562998,2.4000000000000004,4634.0,9.05814,0.1,68900.0,0.33,276.0,2700.0,24.868092964648344,4.145257698885756,11192.19578699154,17.343910806469545,5.457530531531314,7.524182158178799,1.3122728326455588,36066,224,6752,22168,22.24958949454144,12.837787799440402,0.0002389483205158,False
0.3500000000000001,0.9056226264465546,2.4000000000000004,4635.0,9.05814,0.3,68900.0,0.33,276.0,2700.0,36.22084356322871,6.248850433549918,16871.89617058478,23.962805756737147,9.29502068559998,12.258037806491563,3.0461702520500635,3153,94,1044,1581,24.748977779248094,14.243713642078196,0.0003064453047799,False
0.36,1.025950797179722,2.4000000000000004,4636.0,9.05814,0.3,68900.0,0.33,276.0,2700.0,44.31338854104514,7.878693839490661,21272.473366624785,28.69802156921841,12.4596623081142,15.615366971826733,4.58096846862354,4077,108,1346,2052,27.148321574744102,15.63230333921367,0.0003532471586738,False
0.37,0.7560074890749187,2.4000000000000004,4637.0,9.05814,0.3,68900.0,0.33,276.0,2700.0,26.27586725637264,4.754948047307419,12838.359727730032,18.582599845151385,6.119316648048735,7.693267411221253,1.364368600741316,2615,80,862,1314,20.6897112332289,11.929570576470956,0.0002320841309132,False
0.38,0.8301698460047342,2.4000000000000004,4638.0,9.05814,0.3,68900.0,0.33,276.0,2700.0,30.51419511961693,5.682773424668698,15343.488246605484,21.179182445474797,7.59287609565432,9.335012674142138,1.9101026709856228,3058,88,1016,1528,21.46641337533981,12.358124520953435,0.0002555375410112,False
0.39,0.7188341403085219,2.4000000000000004,4639.0,9.05814,0.1,68900.0,0.33,276.0,2700.0,23.65061760927272,4.487633010729327,12116.60912896918,17.33309016794915,5.451870998010027,6.31752744132357,0.9642379872807004,37338,218,6514,23231,20.402385940459904,11.766124397195062,0.0002145803596811,False
0.4,0.91370162331165,2.4000000000000004,4640.0,9.05814,0.3,68900.0,0.33,276.0,2700.0,35.331908083557416,6.932340330158318,18717.31889142746,24.269338631866493,9.489853252844629,11.062569451690925,2.5575129226863087,3224,94,1072,1610,23.55588637404985,13.584271289011852,0.0002761532631879,False
0.4100000000000001,1.023460638083101,2.4000000000000004,4641.0,9.05814,0.3,68900.0,0.33,276.0,2700.0,42.57626056422217,8.583785610813496,23176.22114919644,28.59634013492447,12.388326302462048,13.979920429297696,3.804540691648551,3946,106,1310,1975,24.252257266071027,13.95454378016765,0.000314229482786,False
0.42,0.9529659392264284,2.4000000000000004,4642.0,9.05814,0.3,68900.0,0.33,276.0,2700.0,37.38891133436819,7.696501835871217,20780.554956852287,25.782462907391803,10.472351346139511,11.606448426976383,2.7758495102682943,3320,96,1104,1658,22.249424004485004,12.805923587890884,0.0002800799539955,False
0.43,0.801931435672569,2.4000000000000004,4643.0,9.05814,0.2,68900.0,0.33,276.0,2700.0,27.5211366160454,5.750525301043788,15526.418312818229,20.17419904325552,7.009046378706466,7.34693757278988,1.258521077662678,7569,120,1914,4228,20.47340069919481,11.808310477093595,0.0002246491837798,False
0.44,0.7552304705737098,2.4000000000000004,4644.0,9.05814,0.2,68900.0,0.33,276.0,2700.0,24.558413388514484,5.224441993070522,14105.993381290413,18.556126497671617,6.104887910291643,6.002286890842868,0.8804459172211203,6607,110,1640,3723,19.36807456341092,11.167215663417524,0.0002055082626832,False
0.45,1.0713793873946302,2.4000000000000004,4645.0,9.05814,0.3,68900.0,0.33,276.0,2700.0,44.80258790958892,9.88973052595193,26702.27242007021,30.58037669873128,13.80593298286686,14.222211210857637,3.916202456914931,4273,110,1402,2152,23.340341471002628,13.420407180348606,0.0003079960183283,False
0.46,1.0138679676055085,2.4000000000000004,4646.0,9.05814,0.3,68900.0,0.33,276.0,2700.0,40.41321043572375,9.09117835852991,24546.18156803076,28.206096188506443,12.115884624220223,12.207114247217303,3.0247062656903143,3701,102,1226,1850,21.68056911553813,12.425203621734177,0.0002805932878029,False
0.4700000000000001,0.9510164135960322,2.4000000000000004,4647.0,9.05814,0.3,68900.0,0.33,276.0,2700.0,35.86754324130914,8.211426278991878,22170.85095327807,25.706420114933504,10.422161913091616,10.16112312637564,2.2107356340997395,3283,94,1072,1655,20.20444773168688,11.62335282819642,0.0002540218476138,False
0.4800000000000001,1.0871470470349982,2.4000000000000004,4648.0,9.05814,0.3,68900.0,0.33,276.0,2700.0,45.0337147167969,10.576468188867397,28556.46410994197,31.245842699126737,14.293352164700403,13.787872017670164,3.716883975833008,4286,108,1352,2202,22.16181031223988,12.724309628593309,0.0002974703402908,False
0.49,0.8846855385975789,2.4000000000000004,4649.0,9.05814,0.3,68900.0,0.33,276.0,2700.0,31.08531122137553,7.369497759835543,19897.643951555965,23.176046093094293,8.801564766852534,7.909265128281238,1.4320670070169914,3269,88,978,1718,19.9393217906008,11.506260324753695,0.0002259516665502,False
0.5,1.184288985204875,2.4000000000000004,4650.0,9.05814,0.3,68900.0,0.33,276.0,2700.0,51.68655525662352,12.659839426356736,34181.56645116319,35.48349963711851,17.53254108705618,16.203055619505008,4.872701660699445,5257,118,1590,2752,23.840328911650097,13.721599836495797,0.0003232317136661,False
0.01,0.3922064363940568,2.4000000000000004,4651.0,12.07752,0.05,68900.0,0.33,276.0,2700.0,15.44662166610772,0.0772310139354361,208.5237376256777,7.847366852579945,1.4125358883961778,7.599254813527775,1.3353048744607416,49898,344,16532,25094,508.947277650421,289.7309022438212,0.0038355135027059,True
0.02,0.3432390076815025,2.4000000000000004,4652.0,12.07752,0.08,68900.0,0.33,276.0,2700.0,12.84371155631116,0.128420360402293,346.73497308619113,6.656404323001632,1.0576756102922893,6.18730723330953,0.9292552498899964,16373,194,5394,8276,208.66202023662183,118.98505028777188,0.0016705391323777,False
0.03,0.6181638677057937,2.4000000000000004,4653.0,12.07752,0.1,68900.0,0.33,276.0,2700.0,27.340106978007157,0.4100450560023434,1107.1216512063272,14.12363558114548,3.870629212319241,13.216471396861673,3.460584156316897,22294,240,7340,11278,269.3999307991297,153.39893523703353,0.0024027425690239,False
0.04,0.3760766474296053,2.4000000000000004,4654.0,12.07752,0.08,68900.0,0.33,276.0,2700.0,13.935666589760338,0.278579290508655,752.1640843733685,7.448409834373548,1.2891858524975466,6.48725675538679,1.0106065619888915,17981,204,5902,9122,122.0565814048348,69.80372275198248,0.0009714701677272,False
0.05,0.4663242859184699,2.4000000000000004,4655.0,12.07752,0.1,68900.0,0.33,276.0,2700.0,18.22076661546128,0.4552573659987322,1229.194888196577,9.76466665305986,2.0643661525532906,8.45609996240142,1.6091087865545584,15346,192,5036,7786,118.95516261082015,68.07544941942996,0.0010265206384149,False
0.06,0.4051176018208161,2.4000000000000004,4656.0,12.07752,0.1,68900.0,0.33,276.0,2700.0,14.872408632362829,0.4457198696287669,1203.4436479976707,8.171425666805343,1.5159420207741,6.700982965557486,1.070222151145333,12509,170,4106,6344,82.86054121025882,47.57236887932236,0.0007303471726893,False
0.0699999999999999,0.3987795770794562,2.4000000000000004,4657.0,12.07752,0.1,68900.0,0.33,276.0,2700.0,14.328077083129912,0.5007643203894137,1352.0636650514168,8.011823336494093,1.4646576377220095,6.31625374663582,0.963893317332596,12395,168,4070,6284,69.2183695918244,39.79076535156096,0.0006212810497882,False
0.08,0.6017248336774256,2.4000000000000004,4658.0,12.07752,0.2,68900.0,0.33,276.0,2700.0,24.911688444650444,0.9953952074935924,2687.5670602326995,13.623737407276844,3.6425685123232303,11.2879510373736,2.647173304829638,5163,116,1694,2616,90.0334654578102,51.81984643870981,0.0009198464957723,False
0.09,0.5631781083573704,2.4000000000000004,4659.0,12.07752,0.1,68900.0,0.33,276.0,2700.0,22.427133324899145,1.0076941855908128,2720.7743010951945,12.478196309472928,3.1396164334252274,9.948937015426214,2.131922247834414,18356,214,6040,9290,77.09122492927148,44.26864650174595,0.0007566259950226,False
0.0999999999999999,0.7218343304932815,2.4000000000000004,4660.0,12.07752,0.3,68900.0,0.33,276.0,2700.0,31.66882635856907,1.5813469228260584,4269.636691630358,17.432647334988925,5.504022853661724,14.236179023580146,3.922675930835665,3338,92,1092,1694,89.67893698223075,51.77374825424494,0.0009520936714612,False
0.11,0.5648928549631341,2.4000000000000004,4661.0,12.07752,0.2,68900.0,0.33,276.0,2700.0,21.988312332669707,1.206569538415548,3257.7377537219795,12.528361911681406,3.161056378281136,9.4599504209883,1.954486839865588,4738,108,1542,2419,62.44460506638055,36.04630961367335,0.0006308484456941,False
0.12,0.7740351906540823,2.4000000000000004,4662.0,12.07752,0.3,68900.0,0.33,276.0,2700.0,34.43910583376884,2.062727235289194,5569.363535280824,19.20107130161274,6.459880751055678,15.238034532156105,4.397153515766484,3449,96,1134,1742,79.7371849295268,46.036262348668544,0.0008825753726557,False
0.13,0.493519538298802,2.4000000000000004,4663.0,12.07752,0.2,68900.0,0.33,276.0,2700.0,17.645130638688478,1.142332105474794,3084.2966847819444,10.502783820652644,2.3399132431184277,7.142346818035833,1.1975811376436332,3731,94,1222,1892,47.21173115997328,27.221776401654257,0.0004567037187867,False
0.14,0.6937954274560989,2.4000000000000004,4664.0,12.07752,0.3,68900.0,0.33,276.0,2700.0,28.716048048918925,2.004376343263359,5411.816126811069,16.511037390119466,5.028197179360422,12.20501065879946,3.0238208360970638,2749,84,904,1387,62.59269244469287,36.11808687337336,0.0006597209875434,False
0.15,0.7470905152258571,2.4000000000000004,4665.0,12.07752,0.3,68900.0,0.33,276.0,2700.0,31.763745551977028,2.375212332927696,6413.073298904779,18.279706906389396,5.954968020336422,13.484038645587637,3.5797556874087264,3174,90,1040,1608,63.06464595333183,36.40904311870869,0.0006837007960189,False
0.16,0.7981799351503986,2.4000000000000004,4666.0,12.07752,0.3,68900.0,0.33,276.0,2700.0,34.78367217621371,2.774115131757698,7490.110855745786,20.042194104348752,6.933610579339195,14.74147807186496,4.159495447581497,3461,96,1134,1754,61.61663181837365,35.57217909617658,0.0007040246968604,False
0.17,0.5376146509825419,2.4000000000000004,4667.0,12.07752,0.1,68900.0,0.33,276.0,2700.0,18.980814262917026,1.6030794492098883,4328.314512866699,11.739089920578174,2.8301126391476368,7.241724342338852,1.2270331899377482,16233,194,5112,8365,40.610957598391465,23.40607175445428,0.0003994900302551,False
0.18,0.6638435142492236,2.4000000000000004,4668.0,12.07752,0.3,68900.0,0.33,276.0,2700.0,25.7864085403255,2.3085622563921406,6233.11809225878,15.54837574595991,4.548133076681808,10.238032794365589,2.239570820289668,2590,80,842,1321,46.351180704439074,26.75895850069551,0.0004934936927403,False
0.19,0.589337314946575,2.4000000000000004,4669.0,12.07752,0.3,68900.0,0.33,276.0,2700.0,21.27735758469423,2.006983514538638,5418.8554892543225,13.251529964927974,3.476113554516245,8.025827619766256,1.4691300399776073,2250,74,742,1131,40.64321511994496,23.458062847435404,0.0004037952127512,False
0.2,0.8736314949608952,2.4000000000000004,4670.0,12.07752,0.3,68900.0,0.33,276.0,2700.0,38.62559224594428,3.845804063775284,10383.670972193268,22.76510861361911,8.547649831358298,15.860483632325169,4.701845767583014,3769,102,1238,1906,53.53676064717153,30.90946071683036,0.0006474464986608,False
0.21,0.8452247285608554,2.4000000000000004,4671.0,12.07752,0.3,68900.0,0.33,276.0,2700.0,36.372789809249184,3.799746736927774,10259.31618970499,21.72316464020577,7.915813847577494,14.649625169043414,4.11606711064972,3662,98,1192,1868,49.66624722312988,28.637621521753385,0.0005912779515981,False
0.22,0.8614308250754297,2.4000000000000004,4672.0,12.07752,0.3,68900.0,0.33,276.0,2700.0,37.15788517131757,4.065066249794647,10975.678874445546,22.31511031932353,8.272649200305288,14.842774851994037,4.207582950510641,3615,100,1182,1836,48.239544497989264,27.850806977218184,0.0005811218255523,False
0.23,0.7781784553334451,2.4000000000000004,4673.0,12.07752,0.3,68900.0,0.33,276.0,2700.0,31.386893445025105,3.584010240967066,9676.827650611078,19.344367505525128,6.539732579669929,12.042525939499978,2.955722338702863,3101,90,1026,1556,42.35444394162317,24.45256152889129,0.0004858690092862,False
0.24,0.794507731571316,2.4000000000000004,4674.0,12.07752,0.3,68900.0,0.33,276.0,2700.0,32.1389944413277,3.827726415063842,10334.861320672371,19.913321982053773,6.860248288465266,12.225672459273923,3.032521873401424,3043,90,1006,1528,41.6383000536353,24.015599448900947,0.0004804277689286,False
0.25,0.81148109146625,2.4000000000000004,4675.0,12.07752,0.3,68900.0,0.33,276.0,2700.0,32.9404434003266,4.0848305015659285,11029.042354228008,20.51182124609585,7.203313299408361,12.428622154230752,3.1184827978424323,3099,90,1020,1563,40.65522028591025,23.45839292965369,0.0004760649470467,False
0.26,0.8168868691192772,2.4000000000000004,4676.0,12.07752,0.3,68900.0,0.33,276.0,2700.0,32.99873163608895,4.253024024371903,11483.164865804138,20.70395512543182,7.314714629987511,12.29477651065713,3.061690605615609,3163,92,1050,1582,39.52998895867389,22.796571220013703,0.0004633632694522,False
0.27,0.7802612393019888,2.4000000000000004,4677.0,12.07752,0.3,68900.0,0.33,276.0,2700.0,30.382984797648703,4.060478968882169,10963.293215981856,19.4165642449109,6.580097884374686,10.966420552737802,2.519618915492517,2923,88,966,1468,36.42191369908826,21.009599685984103,0.0004214184482991,False
0.28,0.6405442833825525,2.4000000000000004,4678.0,12.07752,0.2,68900.0,0.33,276.0,2700.0,21.88553375142666,3.017998563911997,8148.596122562392,14.815124131613189,4.1944364699839225,7.070409619813473,1.1764379060719254,4709,108,1568,2351,29.781321091859155,17.108539872014937,0.0003210213220163,False
0.29,0.6809624596355863,2.4000000000000004,4679.0,12.07752,0.3,68900.0,0.33,276.0,2700.0,23.912187487686047,3.416186983562155,9223.704855617818,16.095822072659132,4.818980216544285,7.816365415026915,1.4027932329821304,2500,78,826,1255,30.862768880256876,17.791971126775746,0.0003347722770431,False
0.3,0.6887083316074345,2.4000000000000004,4680.0,12.07752,0.3,68900.0,0.33,276.0,2700.0,24.10623624598014,3.559386769132392,9610.34427665746,16.345947397981345,4.944624139622902,7.760288847998794,1.38523737049051,2489,78,820,1253,29.463255377586453,16.97162770295967,0.000330120104428,False
0.31,0.8194290733239562,2.4000000000000004,4681.0,12.07752,0.3,68900.0,0.33,276.0,2700.0,31.73777344101064,4.856960758861255,13113.794048925389,20.794564869302786,7.367463451586381,10.943208571707856,2.510502692725126,3097,90,1026,1552,34.12852147833064,19.668746121905706,0.0003977280313669,False
0.32,0.8391489156967223,2.4000000000000004,4682.0,12.07752,0.3,68900.0,0.33,276.0,2700.0,32.718354158222795,5.166307526600425,13949.030321821148,21.50294006970363,7.784497455800697,11.215414088519164,2.6181899292002715,3078,90,1022,1539,34.901339385315126,20.144668522813387,0.0003990884506227,False
0.33,0.7945219564546386,2.4000000000000004,4683.0,12.07752,0.3,68900.0,0.33,276.0,2700.0,29.63022620600269,4.813721047195416,12997.046827427625,19.91382053549038,6.860531556693101,9.716405670512303,2.0468105094976856,2890,86,958,1447,31.255486529451165,18.006284481300654,0.0003628182642947,False
0.34,0.6966715170953963,2.4000000000000004,4684.0,12.07752,0.08,68900.0,0.33,276.0,2700.0,23.581767281768386,3.926582332796164,10601.772298549644,16.604662068001634,5.075818989588086,6.977105213766752,1.149236656791922,60014,270,9748,37986,28.986848170748782,16.718992372718237,0.0003071220966056,False
0.3500000000000001,0.7004144722615889,2.4000000000000004,4685.0,12.07752,0.08,68900.0,0.33,276.0,2700.0,23.55397114709043,4.032147760725718,10886.798953959438,16.726816947166114,5.138197995551095,6.827154199924316,1.106050234825377,61926,270,9800,39440,28.547974059650144,16.467584762410908,0.000302456310876,False
0.36,0.9186744686141584,2.4000000000000004,4686.0,12.07752,0.3,68900.0,0.33,276.0,2700.0,36.80562612683247,6.5272966049325865,17623.700833317984,24.45883368506713,9.611011826690609,12.34679244176533,3.0837152217580206,3325,96,1102,1666,33.432563680204126,19.248451061499832,0.0004065101900579,False
0.37,0.9271707559429224,2.4000000000000004,4687.0,12.07752,0.3,68900.0,0.33,276.0,2700.0,37.08706269352539,6.755019203180664,18238.551848587795,24.784030951128035,9.82020130557516,12.303031742397357,3.0651821023944947,3325,96,1102,1666,32.93952467100529,18.99097988373825,0.0004019506694,False
0.38,0.9153693038298794,2.4000000000000004,4688.0,12.07752,0.3,68900.0,0.33,276.0,2700.0,36.0077736500402,6.726553345449119,18161.69403271262,24.33281793669226,9.530379677957306,11.67495571334794,2.803826332508187,3374,96,1120,1688,31.366895385154383,18.069288172466887,0.0003860839800986,False
0.39,0.8908965765234536,2.4000000000000004,4689.0,12.07752,0.3,68900.0,0.33,276.0,2700.0,34.11450277762304,6.528090618557508,17625.84467010527,23.408290885615887,8.94623280689218,10.70621189200715,2.418142188334672,3159,92,1048,1581,29.821530858618875,17.170061270033447,0.0003636119925078,False
0.4,0.9936048586143802,2.4000000000000004,4690.0,12.07752,0.3,68900.0,0.33,276.0,2700.0,40.76868667577592,8.019696048602018,21653.17933122545,27.38936539521593,11.552633600641926,13.379321280559989,3.532937552039908,3818,104,1264,1914,32.596515591557775,18.73257441743805,0.0004112312234736,False
0.4100000000000001,0.9839926338645202,2.4000000000000004,4691.0,12.07752,0.3,68900.0,0.33,276.0,2700.0,39.801357180297394,8.014930417108909,21640.31212619405,27.00554091990996,11.291207428342243,12.795816260387436,3.2762770112333364,3809,102,1268,1901,31.23771586415682,17.990694948296184,0.0003970706714475,False
0.42,1.0727369547069765,2.4000000000000004,4692.0,12.07752,0.3,68900.0,0.33,276.0,2700.0,45.834565065627736,9.47008911943571,25569.24062247642,30.63742630016399,13.847486621769196,15.197138765463745,4.377397502333485,4199,110,1394,2102,89.12509976964738,50.04975095852943,0.0004368198050401,False
0.43,0.976592000484608,2.4000000000000004,4693.0,12.07752,0.3,68900.0,0.33,276.0,2700.0,38.70838683016956,8.15578409708048,22020.617062117293,26.711609387648387,11.092437809439412,11.996777442521172,2.9366537123589325,3582,100,1196,1782,29.69013997237731,17.078488773267857,0.0003778233692825,False
0.44,0.9403808632077608,2.4000000000000004,4694.0,12.07752,0.3,68900.0,0.33,276.0,2700.0,35.98520023593747,7.738335099503982,20893.50476866075,25.293254040806264,10.150959630597384,10.691946195131203,2.4126245310934005,3268,94,1090,1627,28.164015579432288,16.169888426884054,0.0003521264237585,False
0.45,0.8360699050746728,2.4000000000000004,4695.0,12.07752,0.3,68900.0,0.33,276.0,2700.0,29.086506331364102,6.353612170851345,17154.75286129863,21.39169213586135,7.718461002841045,7.694814195502751,1.3648488319897003,3149,86,966,1636,24.9576309423631,14.349047433227536,0.0003013331183268,False
0.46,0.9909221700782208,2.4000000000000004,4696.0,12.07752,0.3,68900.0,0.33,276.0,2700.0,38.83031523861203,8.727112463194224,23563.203650624404,27.282009707896417,11.479300505455436,11.548305530715613,2.752188042261212,3709,100,1230,1852,28.626547844247597,16.41604512745176,0.0003637486738968,False
0.4700000000000001,0.7745270232956136,2.4000000000000004,4697.0,12.07752,0.2,68900.0,0.33,276.0,2700.0,24.975582096678632,5.651815410003712,15259.901607010022,19.218058931250106,6.469328641960383,5.75752316542853,0.8175132319566707,7014,114,1760,3932,24.29865896740508,13.98464123083465,0.0002691639355297,False
0.4800000000000001,0.964467789585399,2.4000000000000004,4698.0,12.07752,0.3,68900.0,0.33,276.0,2700.0,36.48808883833314,8.525517978036083,23018.898540697424,26.23304591230795,10.771485458683513,10.25504292602519,2.2459674806474297,3801,98,1170,1974,27.10079986490936,15.613555661838994,0.0003406287068627,False
0.49,0.8258700398743033,2.4000000000000004,4699.0,12.07752,0.2,68900.0,0.33,276.0,2700.0,27.50725877086436,6.49287490946031,17530.76225554284,21.02486216397444,7.5021416572805295,6.482396606889925,1.0092667478202193,7433,118,1826,4202,25.719394410322344,14.833344806947748,0.0002796553698858,False
0.5,0.8139810903932859,2.4000000000000004,4700.0,12.07752,0.08,68900.0,0.33,276.0,2700.0,26.57415367068134,6.381739029871188,17230.695380652207,20.60058572033464,7.254703753335443,5.973567950346702,0.8729647234642552,90926,284,10784,60654,28.48460120963171,16.07868379983182,0.0002739650161265,False
0.01,0.3845626040539087,2.4000000000000004,4701.0,15.0969,0.05,68900.0,0.33,276.0,2700.0,15.06878476063887,0.075341829408092,203.42293940184848,7.657487847544517,1.3532785688917215,7.411296913094353,1.2779367394836296,49083,340,16260,24687,624.7592281536544,355.6008562194403,0.004680938408737,True
0.02,0.3817878732468489,2.4000000000000004,4702.0,15.0969,0.08,68900.0,0.33,276.0,2700.0,14.689375252445949,0.1468769973636592,396.56789288188,7.5889245576982,1.3321262685353414,7.100450694747749,1.1852492711716822,18976,210,6250,9595,285.81972014598347,162.74966194565468,0.0023732783231852,True
0.03,0.6555217156801518,2.4000000000000004,4703.0,15.0969,0.1,68900.0,0.33,276.0,2700.0,29.63449589858379,0.4444608898109934,1200.0444024896824,15.28491361832382,4.419840072034247,14.34958228025997,3.975379182223253,24695,254,8122,12506,359.1504147711084,204.49354061459417,0.0032997223397583,True
0.04,0.5017987347393205,2.4000000000000004,4704.0,15.0969,0.1,68900.0,0.33,276.0,2700.0,20.37482435001738,0.4073624457137941,1099.878603427244,10.731183528243854,2.4278121479993104,9.643640821773529,2.020449702285516,16908,204,5546,8583,209.58943383369493,119.63569439756748,0.0017290846103743,False
0.05,0.7005497181688797,2.4000000000000004,4705.0,15.0969,0.2,68900.0,0.33,276.0,2700.0,31.859571783171607,0.7962274951914945,2149.814237017036,16.731237416363385,5.140460528005203,15.128334366808222,4.344233032813708,6722,134,2216,3392,202.32550353226196,116.72990302541444,0.0022147983449336,False
0.06,0.6366121208560903,2.4000000000000004,4706.0,15.0969,0.2,68900.0,0.33,276.0,2700.0,27.56591253502036,0.8265249867084932,2231.6174641129314,14.692720373417512,4.136421777120771,12.873192161602844,3.3098967904122776,5709,122,1876,2889,167.49412337511907,96.0280427567962,0.0016152635853356,False
0.0699999999999999,0.7512830515994461,2.4000000000000004,4707.0,15.0969,0.2,68900.0,0.33,276.0,2700.0,34.528015159035604,1.2077621530459042,3260.957813223941,18.421870625703548,6.031904215379284,16.106144533332056,4.82414206233338,7285,140,2376,3715,171.61312089018688,98.11081374173122,0.0017670015111764,False
0.08,0.779241159147652,2.4000000000000004,4708.0,15.0969,0.2,68900.0,0.33,276.0,2700.0,36.06967787425836,1.4417147846779093,3892.629918630355,19.38119099695745,6.560309476520277,16.68848687730091,5.118594691842367,7556,144,2486,3821,148.39981689630895,84.84786097708027,0.0016428414800527,False
0.09,0.4842405263218771,2.4000000000000004,4709.0,15.0969,0.2,68900.0,0.33,276.0,2700.0,18.146992044924826,0.8150878279919742,2200.7371355783303,10.248849367472433,2.243637589933249,7.898142677452395,1.4285497619412744,4176,98,1362,2127,82.75568776433961,47.77887466082756,0.0007816082056395,False
0.0999999999999999,0.645152370132543,2.4000000000000004,4710.0,15.0969,0.2,68900.0,0.33,276.0,2700.0,26.914380842450072,1.3436246470201112,3627.7865469543,14.959063183596566,4.263037284076314,11.955317658853506,2.919412637056203,5913,124,1950,2982,96.7811991833661,55.80952098440366,0.0010244103830193,False
0.11,0.7603357229945737,2.4000000000000004,4711.0,15.0969,0.3,68900.0,0.33,276.0,2700.0,33.851951401803106,1.859069687216999,5019.488155485898,18.730342272745087,6.200066049086836,15.12160912905802,4.340996361869837,3300,92,1078,1677,105.8901190140282,61.10968897173927,0.0011684000955643,False
0.12,0.6118538333092443,2.4000000000000004,4712.0,15.0969,0.3,68900.0,0.33,276.0,2700.0,24.38798907424232,1.459660229717603,3941.082620237528,13.93094919667327,3.78211704105834,10.45703987756905,2.3224568113407376,2430,78,802,1221,83.42539118627707,48.16563198661418,0.0008054418796532,False
0.13,0.794594046825057,2.4000000000000004,4713.0,15.0969,0.3,68900.0,0.33,276.0,2700.0,35.48856986584006,2.302155655239645,6215.820269147042,19.91634723559644,6.86196724246638,15.572222630243624,4.559811587226735,3418,96,1122,1729,94.74024113065944,54.69800902218165,0.0010610886058384,False
0.14,0.7762523929949726,2.4000000000000004,4714.0,15.0969,0.3,68900.0,0.33,276.0,2700.0,33.95924218137345,2.371399932535181,6402.779817844988,19.277700326764307,6.502538339491862,14.68154185460914,4.131138406956681,3479,96,1142,1760,84.81859562651606,48.96974851185973,0.0009595634695361,False
0.15,0.4570009664126023,2.4000000000000004,4715.0,15.0969,0.08,68900.0,0.33,276.0,2700.0,15.329738082545193,1.1426617727203117,3085.186786344841,9.51589725441254,1.9744884211177047,5.813840828132653,0.8318266483973931,25239,214,6508,14071,48.87988035402685,28.204646445527967,0.000461453247602,False
0.16,0.6172290592990106,2.4000000000000004,4716.0,15.0969,0.3,68900.0,0.33,276.0,2700.0,23.616983929215195,1.8807800719978125,5078.106194394094,14.095026657818863,3.857439692685569,9.521957271396332,1.9766596206877567,2369,76,772,1205,63.324112181009205,36.55080998989856,0.0006255495314127,False
0.17,0.5700592064465406,2.4000000000000004,4717.0,15.0969,0.3,68900.0,0.33,276.0,2700.0,20.72391759816819,1.7512432327062384,4728.356728306843,12.679952340628144,3.2261735953381083,8.043965257540046,1.47493036263187,1998,70,654,1011,55.25604324231112,31.90125230581881,0.0005364981071881,False
0.18,0.5745874590251421,2.4000000000000004,4718.0,15.0969,0.2,68900.0,0.33,276.0,2700.0,20.720184752253456,1.852602115465656,5002.025711757271,12.813371411410014,3.283893505377679,7.906813340843442,1.4312913899120232,4668,106,1534,2361,49.750732883119696,28.685324604973328,0.0005142794947637,False
0.19,0.696048308084162,2.4000000000000004,4719.0,15.0969,0.3,68900.0,0.33,276.0,2700.0,27.43344359016424,2.591811685058289,6997.891549657382,16.5843572464577,5.065477142139629,10.849086343706542,2.47366545708134,2633,82,866,1328,58.79936082513029,33.94420376551933,0.0006248100330064,False
0.2,0.6025088872118796,2.4000000000000004,4720.0,15.0969,0.3,68900.0,0.33,276.0,2700.0,21.75303712386555,2.158548551567411,5828.08108923201,13.647425618398618,3.653259537193233,8.105611505466932,1.4947109856258225,2254,74,744,1132,49.16817394544732,28.369708489858034,0.0004954699262062,False
0.21,0.6118565141081833,2.4000000000000004,4721.0,15.0969,0.3,68900.0,0.33,276.0,2700.0,22.02021064008922,2.292725924166008,6190.359995248221,13.931030846416744,3.7821543872416665,8.089179793672477,1.489428463075659,2226,74,734,1119,47.34687213847419,27.31350618935754,0.0004838651266185,False
0.22,0.9138402772975924,2.4000000000000004,4722.0,15.0969,0.3,68900.0,0.33,276.0,2700.0,40.78710953327904,4.464280929610411,12053.55850994811,24.274613752374503,9.493218659084786,16.512495780904537,5.028937729474374,3855,104,1268,1947,63.97260390253231,36.93287391020369,0.0007878061857477,False
0.23,0.7435859235730482,2.4000000000000004,4723.0,15.0969,0.3,68900.0,0.33,276.0,2700.0,29.220540663459808,3.33487967108706,9004.175111935063,18.161209522586752,5.891112844718646,11.059331140873056,2.5562331736315858,2801,84,920,1415,51.15579133665378,29.51971830768524,0.0005716791639694,False
0.24,0.7712334725900893,2.4000000000000004,4724.0,15.0969,0.3,68900.0,0.33,276.0,2700.0,30.66157240810329,3.650435771076512,9856.17658190658,19.10441745404938,6.406220207218449,11.557154954053908,2.755784436141937,3102,90,1024,1560,50.145075589905495,28.915817521735,0.0005771933940726,False
0.25,0.703055781675315,2.4000000000000004,4725.0,15.0969,0.3,68900.0,0.33,276.0,2700.0,26.22451818254013,3.245339849342622,8762.41759322508,16.81323048050022,5.182492778461149,9.411287702039914,1.9371529291185268,2587,80,848,1309,44.7893454600392,25.85404783534344,0.0004935846876567,False
0.26,0.8420999584800763,2.4000000000000004,4726.0,15.0969,0.3,68900.0,0.33,276.0,2700.0,34.64564214628194,4.46712239069699,12061.230454881874,21.60978800709091,7.848111154506379,13.035854139191034,3.3809887638093885,3486,96,1144,1764,50.94361357650229,29.410416414832508,0.0006042582454351,False
0.27,0.9487044040267416,2.4000000000000004,4727.0,15.0969,0.3,68900.0,0.33,276.0,2700.0,41.63955224458181,5.580115574218143,15066.312050388984,25.616362161931896,10.362832557102026,16.02319008264992,4.782716982883883,3836,104,1260,1940,55.298462928798855,31.914187463497758,0.0006869598479375,False
0.28,0.7227811646407643,2.4000000000000004,4728.0,15.0969,0.3,68900.0,0.33,276.0,2700.0,26.60479813857238,3.678695578112399,9932.478060903475,17.464113681042775,5.5205435743671964,9.140684457529606,1.8418479962547971,2759,82,912,1385,42.01049900477141,24.248084252691108,0.0004633618440562,False
0.29,0.6331648484482422,2.4000000000000004,4729.0,15.0969,0.1,68900.0,0.33,276.0,2700.0,21.24037672924587,3.028774423588383,8177.6909436886335,14.585730369407328,4.085956465225262,6.654646359838543,1.0571820416368791,27165,204,5674,16240,37.83879333767808,21.83367678859267,0.0003880562984185,False
0.3,0.6727472301251138,2.4000000000000004,4730.0,15.0969,0.08,68900.0,0.33,276.0,2700.0,23.199061865660084,3.4233106120843466,9242.938652627736,15.832188272829203,4.687833411372317,7.366873592830879,1.2645227992879704,54975,270,9670,34186,38.55830397674493,22.24131158059372,0.0004072471729227,False
0.31,1.000836795242943,2.4000000000000004,4731.0,15.0969,0.3,68900.0,0.33,276.0,2700.0,44.0946163378755,6.772271407875308,18285.13280126333,27.6796736841768,11.751760708873524,16.4149426536987,4.979489300998217,4060,108,1340,2044,51.33587457227041,29.60446895971236,0.0006507913816426,False
0.32,0.9839245846745028,2.4000000000000004,4732.0,15.0969,0.3,68900.0,0.33,276.0,2700.0,42.5537828721495,6.7399761208287,18197.93552623749,27.002831934608267,11.289369815329456,15.55095093754123,4.549393694500757,4049,106,1334,2042,48.35226853584165,27.790539064288108,0.0006176443101289,False
0.33,0.7037124739199973,2.4000000000000004,4733.0,15.0969,0.2,68900.0,0.33,276.0,2700.0,24.22522554525885,3.921895938173005,10589.119033067114,16.834742152885347,5.19354095920684,7.390483392373508,1.2716450210338346,5310,112,1708,2696,38.16226645289112,22.03211704177477,0.0003923599201206,False
0.34,0.8200322183759268,2.4000000000000004,4734.0,15.0969,0.3,68900.0,0.33,276.0,2700.0,30.95048191539693,5.179263820512444,13984.012315383598,20.8160861239385,7.380012080255192,10.13439579145843,2.200748259742748,3140,90,1042,1571,39.17920149155856,22.602064488609823,0.0004589518326409,False
0.3500000000000001,1.0027339186062294,2.4000000000000004,4735.0,15.0969,0.3,68900.0,0.33,276.0,2700.0,42.95308984156155,7.426993532258168,20052.88253709705,27.75604666674479,11.8043448946924,15.19704317481676,4.377351362434231,3946,106,1300,1990,46.54967443099034,26.823521822317364,0.0005850174849416,False
0.36,0.8764400371570655,2.4000000000000004,4736.0,15.0969,0.3,68900.0,0.33,276.0,2700.0,34.00853894088742,6.023820911462461,16264.316460948645,22.869226025479115,8.611732762174496,11.139312915408304,2.587911850712035,3097,92,1028,1549,39.28689832008804,22.62104427982438,0.000476635063184,False
0.37,0.994541367459032,2.4000000000000004,4737.0,15.0969,0.3,68900.0,0.33,276.0,2700.0,41.746284075368685,7.616975158821531,20565.83292881813,27.42688514899584,11.57830155065492,14.319398926372848,3.961326391833388,3955,106,1302,1996,42.79873366462216,24.67713531514854,0.0005509114070758,False
0.38,0.9351320237088314,2.4000000000000004,4738.0,15.0969,0.3,68900.0,0.33,276.0,2700.0,37.33418849201075,6.978572165423523,18842.14484664351,25.09039670936928,10.018732085383077,12.243791782641477,3.040159919959552,3371,96,1116,1691,40.00622128814728,23.058847920083053,0.0004965076463427,False
0.39,0.8621596088382537,2.4000000000000004,4739.0,15.0969,0.3,68900.0,0.33,276.0,2700.0,32.263364224381085,6.167118600675451,16651.220221823718,22.34188504835162,8.28892184605483,9.921479176029464,2.121803245379379,3040,90,1010,1519,36.88884508997904,21.277867946070927,0.0004356067074929,False
0.4,0.8681813346011729,2.4000000000000004,4740.0,15.0969,0.3,68900.0,0.33,276.0,2700.0,32.378105823253314,6.341579878097503,17122.265670863257,22.56362757435105,8.424125729862032,9.814478248902264,2.0825458517645297,3041,90,1012,1517,36.37484213954492,20.975410013201305,0.0004301162051085,False
0.4100000000000001,0.9279908590392236,2.4000000000000004,4741.0,15.0969,0.3,68900.0,0.33,276.0,2700.0,35.99837454685456,7.235318977253145,19535.361238583493,24.81551658960677,9.840539675676588,11.182857957247798,2.6052206984234427,3226,94,1076,1606,37.551250127894754,21.63383735806177,0.0004598125410434,False
0.42,1.0821451738581285,2.4000000000000004,4742.0,15.0969,0.3,68900.0,0.33,276.0,2700.0,46.52853067453492,9.615821897306231,25962.71912272683,31.03406451546088,14.13759432811684,15.494466159074044,4.521772430810607,4273,110,1422,2134,41.17124249219242,23.605639524213515,0.0005526470355019,False
0.43,0.9939489562152486,2.4000000000000004,4743.0,15.0969,0.3,68900.0,0.33,276.0,2700.0,39.90388719325868,8.412816675144642,22714.605022890533,27.4031485627257,11.562060586855832,12.500738630532975,3.1492439117111903,3525,100,1178,1752,38.50250344791121,22.169250367971845,0.0004831933810253,False
0.44,1.0662268308523737,2.4000000000000004,4744.0,15.0969,0.3,68900.0,0.33,276.0,2700.0,44.73557683343967,9.663417950954464,26091.22846757705,30.364270250245102,13.64892289969214,14.371306583194569,3.9855049487376775,4244,110,1400,2132,78.19152421843047,40.64210791440491,0.0005209672162928,False
0.45,0.8704579022028343,2.4000000000000004,4745.0,15.0969,0.3,68900.0,0.33,276.0,2700.0,31.209596435656568,6.831307444317144,18444.530099656287,22.647696730476685,8.475589023220756,8.561899705179883,1.6442815789036125,3047,88,968,1555,32.12817265456669,18.479516335511214,0.0003936550272101,False
0.46,0.7903089157567862,2.4000000000000004,4746.0,15.0969,0.2,68900.0,0.33,276.0,2700.0,26.11836641189711,5.803364233049793,15669.08342923444,19.766384262719274,6.776944554455364,6.351982149177836,0.9735803214055708,7125,116,1782,3998,32.28082867023793,18.60941935658846,0.0003488945768126,False
0.4700000000000001,1.0606719106422902,2.4000000000000004,4747.0,15.0969,0.3,68900.0,0.33,276.0,2700.0,43.42348062156849,9.987071563352831,26965.093221052644,30.13203546448216,13.480897183065125,13.29144515708633,3.493825619712293,4292,108,1356,2202,36.928618063708974,21.20201622028412,0.0004883588022001,False
0.4800000000000001,0.8079307360512255,2.4000000000000004,4748.0,15.0969,0.2,68900.0,0.33,276.0,2700.0,26.682481450800008,6.172172205028134,16664.86495357596,20.38603295633808,7.130712434072132,6.296448494461927,0.9585402290439982,7448,118,1846,4195,31.456888597298747,18.060879086056875,0.0003464166070074,False
0.49,0.911696355483132,2.4000000000000004,4749.0,15.0969,0.3,68900.0,0.33,276.0,2700.0,32.78678328554359,7.786358415556723,21023.167722003152,24.19310181361275,9.441263183374137,8.593681471930843,1.6549047678174116,3321,90,1014,1724,34.361610540803454,19.737845356129284,0.0003922647770337,False
0.5,1.1449657100685275,2.4000000000000004,4750.0,15.0969,0.3,68900.0,0.33,276.0,2700.0,48.69273769679998,11.91138503640084,32160.73959828227,33.739515432639855,16.17163060593252,14.953222264160123,4.26024556953168,4576,112,1432,2356,37.76884879800647,21.655482134477857,0.0005135219640936,False
0.02,0.7111511304778284,2.4000000000000004,4752.0,18.11628,0.08,68900.0,0.33,276.0,2700.0,33.50431317923964,0.3350263766315761,904.5712169052556,17.079171536237354,5.319677075370279,16.425141643002284,4.984650698738703,41621,338,13734,21014,737.6364927430906,420.1931625975048,0.0068039425770137,True
0.03,0.5477023426569384,2.4000000000000004,4753.0,18.11628,0.1,68900.0,0.33,276.0,2700.0,23.203541885028155,0.3479965796076564,939.5907649406724,12.028789665521474,2.949992009679029,11.17475221950668,2.601995430071373,19338,220,6356,9798,353.53604586606525,201.45314205273496,0.0030391137980161,True
0.04,0.3939488082116471,2.4000000000000004,4754.0,18.11628,0.1,68900.0,0.33,276.0,2700.0,14.80258846065034,0.2959177279264536,798.9778654014248,7.890854297661209,1.426246793813266,6.911734162989131,1.1303290658868124,12511,170,4102,6352,215.23527296925567,123.69781269797956,0.0015409901953709,False
0.05,0.6423927180907976,2.4000000000000004,4755.0,18.11628,0.1,68900.0,0.33,276.0,2700.0,28.215775350748004,0.7051325843809017,1903.8579778284343,14.872798079311552,4.221874549671807,13.342977271436451,3.516741965290905,23895,248,7836,12135,266.46120734682466,152.01370144345802,0.0023134829259315,False
0.06,0.4463505657152331,2.4000000000000004,4756.0,18.11628,0.08,68900.0,0.33,276.0,2700.0,16.936161939766734,0.507632468850884,1370.6076658973868,9.23439124285684,1.874641908483457,7.701770696909895,1.3670094396325727,21886,228,7192,11092,141.77920509935652,81.39220614740077,0.0012330219154449,False
0.0699999999999999,0.6124821463112664,2.4000000000000004,4757.0,18.11628,0.2,68900.0,0.33,276.0,2700.0,25.828646849841256,0.9032842622243246,2438.8675080056764,13.95009081788432,3.790876050514363,11.878556031956936,2.887591788290038,5683,120,1860,2887,161.52497170173163,92.37651022018268,0.0015978308268745,False
0.08,0.5269193650593303,2.4000000000000004,4758.0,18.11628,0.2,68900.0,0.33,276.0,2700.0,20.68408784930505,0.8262911836797782,2230.986195935401,11.43473445019329,2.706189862692218,9.249353399111763,1.87989867901244,4487,106,1470,2276,120.51611693893284,69.57095245845336,0.0011632841945511,False
0.09,0.546335530789875,2.4000000000000004,4759.0,18.11628,0.2,68900.0,0.33,276.0,2700.0,21.487612882663875,0.9654157656900236,2606.622567363064,11.989387581891748,2.933577850183597,9.498225300772129,1.9681620844935732,4710,108,1542,2391,110.3064809646968,63.670334209247024,0.0010922709970207,False
0.0999999999999999,0.7379057577263841,2.4000000000000004,4760.0,18.11628,0.3,68900.0,0.33,276.0,2700.0,32.7027540711309,1.633043308454151,4409.216932826207,17.96980714236113,5.788498145118328,14.732946928769769,4.155454836664177,3309,92,1076,1689,134.037691032514,77.38309404871838,0.0014721542113156,False
0.11,0.5081114558966356,2.4000000000000004,4761.0,18.11628,0.1,68900.0,0.33,276.0,2700.0,18.90154899195284,1.0367975546761212,2799.353397625527,10.906491269809113,2.4961079248696776,7.995057722143727,1.4593103701935564,15634,194,5150,7903,82.66669571767774,47.699258889601886,0.0008271814109174,False
0.12,0.6126715120177915,2.4000000000000004,4762.0,18.11628,0.3,68900.0,0.33,276.0,2700.0,24.43534823938228,1.462501779626001,3948.7548049902025,13.955861809686658,3.793518265717935,10.47948642969562,2.331016486091934,2415,78,798,1212,100.18112921096024,57.839561604394746,0.0009681533981859,False
0.13,0.5610864047285685,2.4000000000000004,4763.0,18.11628,0.2,68900.0,0.33,276.0,2700.0,21.25301018498775,1.3768442759842436,3717.479545157458,12.41710273082723,3.1135796589210893,8.835907454160521,1.7367353829368457,4557,106,1494,2310,79.2021602644273,45.719479528154935,0.0008045222232849,False
0.14,0.4780892766276516,2.4000000000000004,4764.0,18.11628,0.1,68900.0,0.33,276.0,2700.0,16.616360806837662,1.157398236317669,3124.975238057706,10.081703688163834,2.181108923270677,6.534657118673827,1.023710686953008,13876,182,4592,6980,63.05737717488573,36.39003039045504,0.0006176291427296,False
0.15,0.7205119253281028,2.4000000000000004,4765.0,18.11628,0.3,68900.0,0.33,276.0,2700.0,30.082005192723884,2.249081805983717,6072.520876156036,17.388737265103497,5.480998869078227,12.693267927620386,3.2319170630945098,2925,86,964,1473,90.66333795849124,52.34038762749508,0.000976174804967,False
0.16,0.6291447849997734,2.4000000000000004,4766.0,18.11628,0.3,68900.0,0.33,276.0,2700.0,24.301695394628677,1.9355569892308933,5226.003870923411,14.461340378572777,4.02757106759416,9.840355016055897,2.0920140783632664,2512,78,820,1276,76.27982952520256,44.02750978164411,0.0007691609128987,False
0.17,0.6521838725190843,2.4000000000000004,4767.0,18.11628,0.3,68900.0,0.33,276.0,2700.0,25.37258781050449,2.1463802007547805,5795.226542037907,15.17972897517252,4.368997050452752,10.19285883533197,2.222616849697972,2581,80,846,1306,73.359685771343,42.32119453822277,0.0007616279814436,False
0.18,0.7929879843883302,2.4000000000000004,4768.0,18.11628,0.3,68900.0,0.33,276.0,2700.0,33.82559564444717,3.032089095763089,8186.640558560342,19.86008720744209,6.8300255325299615,13.965508437005075,3.797936436766872,3303,94,1086,1668,82.4049451023971,47.55321987942055,0.0009372729887805,False
0.19,0.5981164105598349,2.4000000000000004,4769.0,18.11628,0.3,68900.0,0.33,276.0,2700.0,21.762209791912102,2.053044474224332,5543.2200804056965,13.51491712867258,3.593604736522918,8.247292663239522,1.5405602622985857,2254,74,744,1132,61.71060763817039,35.610980133212024,0.0006168934205008,False
0.2,0.6522639434924354,2.4000000000000004,4770.0,18.11628,0.3,68900.0,0.33,276.0,2700.0,24.57258760497842,2.440503599678697,6589.359719132481,15.182248954387005,4.370212607013941,9.390338650591415,1.9297090073352443,2509,78,820,1273,63.11965183041057,36.39956051118597,0.0006571792589598,False
0.21,0.8704347717073098,2.4000000000000004,4771.0,18.11628,0.3,68900.0,0.33,276.0,2700.0,38.08708887947984,3.979748139302117,10745.319976115716,22.64684191185138,8.475065180659106,15.440246967628456,4.495317041356989,3588,100,1174,1821,76.7951898285864,44.33769678668216,0.0009232454363108,False
0.22,0.9110698560682722,2.4000000000000004,4772.0,18.11628,0.3,68900.0,0.33,276.0,2700.0,40.59180846555604,4.442797812160859,11995.55409283432,24.16930410772937,9.426113674383698,16.422504357826668,4.983315862222839,3861,104,1270,1950,76.62266374094897,44.23603062998637,0.0009413743074155,False
0.23,0.641413755757591,2.4000000000000004,4773.0,18.11628,0.3,68900.0,0.33,276.0,2700.0,23.17321551558833,2.639437279081841,7126.480653520971,14.842242283385458,4.207329599014383,8.330973232202874,1.5678923199325414,2362,76,780,1186,53.67529252583861,30.943120959909027,0.0005698397093317,False
0.24,0.8657982691812046,2.4000000000000004,4774.0,18.11628,0.3,68900.0,0.33,276.0,2700.0,36.83386649159645,4.391111061096091,11855.999864959447,22.475765203244816,8.370459848474052,14.358101288351635,3.979348787377961,3631,100,1188,1843,67.13258535365821,38.75699133874859,0.0008095130277296,False
0.25,0.5622241016470181,2.4000000000000004,4775.0,18.11628,0.1,68900.0,0.33,276.0,2700.0,18.383565670721847,2.265220785365336,6116.096120486406,12.450318453221469,3.1277254500623592,5.933247217500378,0.8625046646970236,20233,188,4950,11482,46.362981950811545,26.76141523289094,0.0004593221179864,False
0.26,0.753572859536085,2.4000000000000004,4776.0,18.11628,0.3,68900.0,0.33,276.0,2700.0,29.003950997035133,3.733702541294905,10080.996861496244,18.49970170543401,6.07417584491161,10.504249291601123,2.3404733036167054,2810,84,926,1415,55.05504360090861,31.723605683522404,0.000625259655882,False
0.27,0.8379585283820438,2.4000000000000004,4777.0,18.11628,0.3,68900.0,0.33,276.0,2700.0,34.078135440646555,4.559324305686879,12310.175625354572,21.45990185627625,7.758926248317871,12.618233584370303,3.1996019426309923,3200,92,1062,1601,58.783588997065074,33.875350704863585,0.000695335927663,False
0.28,0.7649329933864915,2.4000000000000004,4778.0,18.11628,0.3,68900.0,0.33,276.0,2700.0,29.155508858231983,4.035795078864743,10896.646712934808,18.887783781458275,6.286536194143232,10.267725076773708,2.2507411152784886,2965,86,978,1492,52.82822398403607,30.47540694822334,0.0005977819558633,False
0.29,0.8529238888047399,2.4000000000000004,4779.0,18.11628,0.3,68900.0,0.33,276.0,2700.0,34.47432727525418,4.947697252759588,13358.782582450887,22.003561971034426,8.084142429289209,12.470765304219755,3.1364451765296204,3164,92,1050,1583,56.18141755188682,32.38433809005824,0.000669496530651,False
0.3,0.6350580938000532,2.4000000000000004,4780.0,18.11628,0.08,68900.0,0.33,276.0,2700.0,21.10775953558863,3.109615262573681,8395.961208948938,14.644452411234788,4.113626404853491,6.463307124353843,1.0040111422798104,50113,254,8866,31120,44.40287884721374,25.63101542770448,0.0004570849233927,False
0.31,0.7837258141915083,2.4000000000000004,4781.0,18.11628,0.3,68900.0,0.33,276.0,2700.0,29.50061377064093,4.510201009953948,12177.54272687566,19.53690031433429,6.647576394862504,9.963713456306646,2.1373753849085557,2895,86,956,1455,48.54092118794734,27.86836238343822,0.0005640235133635,False
0.32,0.8105629934742813,2.4000000000000004,4782.0,18.11628,0.3,68900.0,0.33,276.0,2700.0,30.90090139236189,4.87551508406237,13163.8907269684,20.47926287301277,7.184496385020188,10.421638519349123,2.308981300957818,2994,88,988,1506,49.042963236736405,28.275724005827133,0.0005714574926768,False
0.33,0.6592163983791877,2.4000000000000004,4783.0,18.11628,0.2,68900.0,0.33,276.0,2700.0,21.72812253736268,3.509873941870138,9476.659643049374,15.40166977081425,4.476528560773757,6.32645276654843,0.9666546189036191,4748,106,1490,2443,41.73848314260282,24.07890945742236,0.0004384185936473,False
0.34,0.9698535220277442,2.4000000000000004,4784.0,18.11628,0.3,68900.0,0.33,276.0,2700.0,40.92841482637954,6.875512415380057,18563.883521526157,26.445173988819423,10.913340530462095,14.48324083756012,4.03782811508204,4019,106,1318,2036,54.33055525463938,31.32309976831407,0.0006884177420182,False
0.3500000000000001,0.7817374232860694,2.4000000000000004,4785.0,18.11628,0.3,68900.0,0.33,276.0,2700.0,28.320583372857485,4.866304900234951,13139.023230634368,19.46780007975909,6.608798115561095,8.852783293098394,1.742493215326144,2867,86,948,1439,44.30386445697855,25.54617313612734,0.0005075973049844,False
0.36,1.0423114540741902,2.4000000000000004,4786.0,18.11628,0.3,68900.0,0.33,276.0,2700.0,45.50923153347618,8.093945578128455,21853.65306094683,29.36995693352484,12.934668272600748,16.139274599951346,4.8407226944722925,4212,110,1394,2115,60.35390192096117,34.82808457853286,0.0007325682814136,False
0.37,0.7729236348143702,2.4000000000000004,4787.0,18.11628,0.2,68900.0,0.33,276.0,2700.0,27.27876473240011,4.9404840803724985,13339.307017005744,19.16270116915465,6.4385590162704665,8.116063563245458,1.498074935897968,7483,122,1942,4150,44.5240150158691,25.67802675001673,0.0004847656658866,False
0.38,0.9585900880975198,2.4000000000000004,4788.0,18.11628,0.3,68900.0,0.33,276.0,2700.0,38.934105322617896,7.282556363238875,19662.90218074496,26.002372562454266,10.617973785525065,12.93173276016363,3.335417422286188,3838,104,1276,1918,49.32423550752416,28.42742074633608,0.0006152343760301,False
0.39,0.7852774915917815,2.4000000000000004,4789.0,18.11628,0.3,68900.0,0.33,276.0,2700.0,27.514960848131484,5.241179942306777,14151.1858442283,19.59089298044187,6.677933243326922,7.924067867689615,1.4367533010201443,2804,84,924,1404,40.75011286031605,23.47861927294044,0.0004674226537061,False
0.4,0.7209645531270636,2.4000000000000004,4790.0,18.11628,0.2,68900.0,0.33,276.0,2700.0,23.53835856236249,4.573630425919334,12348.802149982204,17.40376168924292,5.488872894995038,6.134596873119566,0.9152424690757036,6477,110,1628,3631,39.701620952468005,22.89944082054544,0.0004200794572212,False
0.4100000000000001,0.875629388293009,2.4000000000000004,4791.0,18.11628,0.3,68900.0,0.33,276.0,2700.0,32.58520325429689,6.535618862278819,17646.170928152813,22.83915354793088,8.59320604030029,9.746049706366012,2.0575871780214703,3040,90,1008,1520,42.81613932460859,24.69046733127191,0.000512510866496,False
0.42,1.0429335161782527,2.4000000000000004,4792.0,18.11628,0.3,68900.0,0.33,276.0,2700.0,43.66558595126524,9.014603505419592,24339.429464632896,29.39563790024637,12.952946196880989,14.269948051018863,3.938342691461397,4061,108,1342,2040,48.12704058585525,27.68222754741831,0.0006311171176443,False
0.43,1.0370019900347025,2.4000000000000004,4793.0,18.11628,0.3,68900.0,0.33,276.0,2700.0,42.93463027852755,9.06442643847744,24473.95138388909,29.15115886835068,12.779310706130966,13.783471410176867,3.7148842676535256,4106,106,1352,2064,47.77535935285626,27.50060238940081,0.0006138264935519,False
0.44,0.7650892653699514,2.4000000000000004,4794.0,18.11628,0.2,68900.0,0.33,276.0,2700.0,25.123427679863223,5.34874513716765,14441.611870352654,18.893144921803373,6.289488244467948,6.23028275805985,0.940743107300298,6814,114,1722,3811,39.82987425680187,22.993886141698912,0.0004174738055481,False
0.45,0.9628508829017954,2.4000000000000004,4795.0,18.11628,0.3,68900.0,0.33,276.0,2700.0,37.2082690269016,8.181008777347278,22088.72369883765,26.16950302303202,10.729120451731276,11.038766003869585,2.548111674383996,3485,98,1156,1739,47.32432070896324,27.148114262846367,0.0005432304231097,False
0.46,0.959563190515059,2.4000000000000004,4796.0,18.11628,0.2,68900.0,0.33,276.0,2700.0,36.709843858992606,8.239404045881763,22246.39092388076,26.040502480818457,10.643295307355316,10.669341378174147,2.403891261473552,10061,142,2522,5646,44.25610226860122,25.50608481645703,0.0005297451815474,False
0.4700000000000001,0.8479944978627765,2.4000000000000004,4797.0,18.11628,0.2,68900.0,0.33,276.0,2700.0,29.31936964525923,6.672605483920154,18016.034806584412,21.823865876891038,7.976121417231682,7.495503768368195,1.3035159333115285,7867,122,1956,4423,39.62669234431542,22.8369119006414,0.0004477373129467,False
0.4800000000000001,1.0446230563022665,2.4000000000000004,4798.0,18.11628,0.3,68900.0,0.33,276.0,2700.0,41.9859012316405,9.844992952429848,26581.480971560584,29.465437287324967,13.00267026091599,12.520463944315535,3.157677308486143,3715,102,1218,1866,45.56366462002425,26.184980618770048,0.0005633740962437,False
0.49,1.1243607884658815,2.4000000000000004,4799.0,18.11628,0.3,68900.0,0.33,276.0,2700.0,47.464019797612295,11.382281361013558,30732.15967473661,32.84120590951046,15.485703656123588,14.622813888101838,4.103422295110031,4711,112,1484,2417,46.465863992755786,26.720031665420976,0.0006118217124567,False
0.5,0.9018478462569316,2.4000000000000004,4800.0,18.11628,0.3,68900.0,0.33,276.0,2700.0,31.909107075487903,7.715477381072826,20831.788928896636,23.820145532169917,9.204835729287062,8.088961543317993,1.4893583482142354,3254,88,962,1723,38.96359038495034,22.40288894521357,0.0004553481834821,False
0.02,0.482438895447471,2.4000000000000004,4802.0,21.13566,0.1,68900.0,0.33,276.0,2700.0,19.860525073665336,0.1985884955758345,536.1889380547532,10.199795829261603,2.2252171469178856,9.660729244403733,2.026628651342051,16378,202,5428,8230,485.8000996164892,276.83579350942193,0.0044468727664931,True
0.03,0.4587823292557261,2.4000000000000004,4803.0,21.13566,0.1,68900.0,0.33,276.0,2700.0,18.339525915828577,0.2750363400696639,742.5981181880925,9.563259625618684,1.9914818598507928,8.776266290209893,1.716445519781129,15118,190,4970,7657,328.48999207995473,187.51777898137465,0.0028342906820959,True
0.04,0.5567192523467958,2.4000000000000004,4804.0,21.13566,0.1,68900.0,0.33,276.0,2700.0,23.437051731843965,0.4686069933503275,1265.2388820458843,12.289903282300669,3.059630203285779,11.147148449543298,2.5910232099354515,19136,220,6268,9728,325.02804454917487,185.3820222532401,0.0027606833584348,True
0.05,0.5329439502413282,2.4000000000000004,4805.0,21.13566,0.1,68900.0,0.33,276.0,2700.0,21.81936118377635,0.5452222302066108,1472.100021557849,11.60582230682166,2.775594303130669,10.21353887695469,2.230372072924058,17949,212,5902,9090,245.15911448231776,140.21955772365976,0.0021231292519852,False
0.06,0.5350148120697134,2.4000000000000004,4806.0,21.13566,0.1,68900.0,0.33,276.0,2700.0,21.66336070116964,0.6494484316929738,1753.5107655710294,11.66484189035429,2.7996894496342604,9.99851881081535,2.1502410179412865,17678,210,5804,8966,206.71314370247453,118.24678416190844,0.0018031810105969,False
0.0699999999999999,0.5548076555300616,2.4000000000000004,4807.0,21.13566,0.2,68900.0,0.33,276.0,2700.0,22.49868381070437,0.7867355558545819,2124.186000807371,12.234376166485411,3.0361899506527723,10.264307644218963,2.24945439479819,4977,110,1630,2526,164.30935921189788,94.86113225846933,0.0016408720974659,False
0.08,0.6332257876527845,2.4000000000000004,4808.0,21.13566,0.2,68900.0,0.33,276.0,2700.0,26.776115391011334,1.0699722853480265,2888.9251704396715,14.58761909344611,4.086845365579838,12.188496297565228,3.0168730802318118,5579,120,1828,2831,167.53863378963254,95.98046446061642,0.0017212905895018,False
0.09,0.5742016689481619,2.4000000000000004,4809.0,21.13566,0.2,68900.0,0.33,276.0,2700.0,23.04977505161803,1.0357130632931684,2796.425270891554,12.801984526141013,3.278952430428426,10.24779052547702,2.2432393671352577,5160,112,1688,2622,135.0864502518193,77.99070965070364,0.0013591978746934,False
0.0999999999999999,0.7317407613614622,2.4000000000000004,4810.0,21.13566,0.3,68900.0,0.33,276.0,2700.0,32.304604666744154,1.613135838234813,4355.466763233996,17.76298527725198,5.678352368176975,14.541619389492176,4.0652165299421625,3314,92,1080,1688,159.3055537129907,91.96939940658548,0.0016976819324454,False
0.11,0.7114626299766245,2.4000000000000004,4811.0,21.13566,0.3,68900.0,0.33,276.0,2700.0,30.705256570570317,1.6860014715001193,4552.203973050322,17.089437543136864,5.324998827608487,13.61581902743345,3.638997356108368,2984,88,976,1514,140.4854023632653,81.10582313335057,0.001494311876438,False
0.12,0.5613548475370631,2.4000000000000004,4812.0,21.13566,0.08,68900.0,0.33,276.0,2700.0,21.528266318408985,1.2880768643676048,3477.807533792533,12.424937142253103,3.116913992356707,9.10332917615588,1.828837127989102,27805,262,9196,14001,97.5589283526495,56.27284621942742,0.0010102911801929,False
0.13,0.6253627339438592,2.4000000000000004,4813.0,21.13566,0.1,68900.0,0.33,276.0,2700.0,24.898169169742,1.6137796099932704,4357.20494698183,14.344685845908842,3.9730982499474985,10.553483323833156,2.3593186399542283,20509,228,6770,10348,100.63596523252112,57.995978268742576,0.0010777201647095,False
0.14,0.5723119180700625,2.4000000000000004,4814.0,21.13566,0.3,68900.0,0.33,276.0,2700.0,21.613945454970768,1.5072291616869862,4069.518736554863,12.74626114079848,3.2548125347211614,8.867684314172289,1.7475833730341752,2101,72,686,1066,103.49027075724943,59.60242866338285,0.000900151948497,False
0.15,0.627856804031939,2.4000000000000004,4815.0,21.13566,0.3,68900.0,0.33,276.0,2700.0,24.49697864652428,1.8302048150187444,4941.55300055061,14.421573202974788,4.008970750574777,10.075405443549489,2.178765935556033,2555,78,832,1301,480.5191431898421,252.82457174329792,0.0009497103878618,True
0.16,0.5451086710679942,2.4000000000000004,4816.0,21.13566,0.3,68900.0,0.33,276.0,2700.0,19.625063878370806,1.5614264679302612,4215.8514634117055,11.95405998801868,2.918890228337824,7.671003890352125,1.3574637604075628,2057,70,668,1049,78.62324353587175,45.39283763947365,0.0007505203652237,False
0.17,0.667789765072001,2.4000000000000004,4817.0,21.13566,0.3,68900.0,0.33,276.0,2700.0,26.294291789730934,2.224725038989073,6006.757605270497,15.67391956781562,4.609738452257189,10.620372221915318,2.385013413268116,2560,80,834,1303,87.52760829004778,50.201427604581866,0.0009169612561274,False
0.18,0.8427154123648346,2.4000000000000004,4818.0,21.13566,0.3,68900.0,0.33,276.0,2700.0,37.144658108319256,3.3308047175115725,8993.172737281246,21.632099231515426,7.861417847760765,15.51255887680383,4.5306131302491925,3573,98,1170,1812,101.09187108047712,58.308350355531765,0.001189825205172,False
0.19,0.5601469947147748,2.4000000000000004,4819.0,21.13566,0.2,68900.0,0.33,276.0,2700.0,19.693089140121543,1.8564780123042328,5012.490633221429,12.389700629988551,3.101927780913706,7.30338851013299,1.2454497686094732,4139,100,1368,2081,64.64235415586134,37.291591552149626,0.0006663890787921,False
0.2,0.6409507404661507,2.4000000000000004,4820.0,21.13566,0.3,68900.0,0.33,276.0,2700.0,23.92055373663664,2.375300212844522,6413.31057468021,14.827798839803355,4.200460757853429,9.092754896833284,1.8251605450089072,2505,78,816,1275,71.81963495449537,41.42366150291217,0.0007497584578607,False
0.21,0.6112152192844865,2.4000000000000004,4821.0,21.13566,0.3,68900.0,0.33,276.0,2700.0,21.984541463385284,2.2889806606121894,6180.247783652912,13.911503920895065,3.773226751081544,8.07303754249022,1.4842460904693549,2242,74,738,1129,66.2095604355855,38.19527325676818,0.0006765746316532,False
0.22,0.6167255915334084,2.4000000000000004,4822.0,21.13566,0.3,68900.0,0.33,276.0,2700.0,22.039944670738407,2.40209279473094,6485.6505457735375,14.079627604722235,3.850347177838766,7.960317066016172,1.4482543831078265,2229,74,734,1122,63.62254737072211,36.69600509185849,0.000656873605994,False
0.23,0.8216911327229317,2.4000000000000004,4823.0,21.13566,0.3,68900.0,0.33,276.0,2700.0,34.19728448022114,3.907205210014618,10549.454067039467,20.875326202138,7.414593311720476,13.32195827808314,3.507388101705858,3482,96,1142,1763,78.59229151441257,45.37527887777948,0.0009146533274156,False
0.24,0.6623683417991318,2.4000000000000004,4824.0,21.13566,0.3,68900.0,0.33,276.0,2700.0,24.112488364019995,2.864545685786918,7734.273351624679,15.50154593268812,4.525231088886253,8.610942431331877,1.6606854030993348,2342,76,770,1181,61.93397053650862,35.69013827654238,0.0006665550830495,False
0.25,0.7328408101513404,2.4000000000000004,4825.0,21.13566,0.3,68900.0,0.33,276.0,2700.0,28.010551253153015,3.468593983169232,9365.203754556927,17.799819442453906,5.69791277553726,10.210731810699112,2.229318792368028,2838,84,934,1431,65.22824758307556,37.61945083772974,0.000728990192413,False
0.26,0.8715390164310032,2.4000000000000004,4826.0,21.13566,0.3,68900.0,0.33,276.0,2700.0,36.60902776398502,4.722362520998391,12750.378806695657,22.687665765257176,8.500095373290911,13.921361998727845,3.77773285229252,3450,98,1138,1737,73.54632238505849,42.45860858268802,0.0008859705512644,False
0.27,0.5773491367459465,2.4000000000000004,4827.0,21.13566,0.08,68900.0,0.33,276.0,2700.0,18.716772684717025,2.485540333636395,6710.958900818266,12.89499364407338,3.3193925707695784,5.821779040643644,0.8338522371331836,43176,240,8096,26520,52.32659632895599,30.183031134093625,0.0005203103121042,False
0.28,0.8041695806113658,2.4000000000000004,4828.0,21.13566,0.3,68900.0,0.33,276.0,2700.0,31.61007013943417,4.37943365823305,11824.470877229234,20.25312164113829,7.054287456814553,11.356948498295884,2.674853798581503,2942,88,972,1478,63.87815404929852,36.8394370418469,0.0007424679005329,False
0.29,0.8083844606005035,2.4000000000000004,4829.0,21.13566,0.3,68900.0,0.33,276.0,2700.0,31.596010048169077,4.530341254832248,12231.921388047069,20.402090658579706,7.1399657203780444,11.193919389589368,2.6096244655457967,2967,88,978,1494,62.61372415418012,36.1175704152362,0.0007243500205468,False
0.3,0.7966150314344161,2.4000000000000004,4830.0,21.13566,0.3,68900.0,0.33,276.0,2700.0,30.57521212886993,4.529733151565872,12230.279509227854,19.98723401396573,6.902289486960106,10.5879781149042,2.3725563353942336,2978,88,982,1499,60.37577846623302,34.8272241212647,0.0006899109690306,False
0.31,0.7669772567783006,2.4000000000000004,4831.0,21.13566,0.3,68900.0,0.33,276.0,2700.0,28.473231152960626,4.350956704213446,11747.583101376304,18.95796374578408,6.325219514354365,9.51526740717654,1.9742628101409192,2918,86,966,1463,56.08650045181656,32.355299031599976,0.000640601513363,False
0.32,0.8947544636893623,2.4000000000000004,4832.0,21.13566,0.3,68900.0,0.33,276.0,2700.0,36.3713360131853,5.75078462339443,15527.11848316496,23.553034172957688,9.03681843325475,12.818301840227612,3.28603380986032,3383,96,1120,1697,62.84709977673656,36.19650468309688,0.0007592286720735,False
0.33,0.7541838378056129,2.4000000000000004,4833.0,21.13566,0.3,68900.0,0.33,276.0,2700.0,27.178124137148554,4.409124205834807,11904.63535575398,18.52049126394981,6.085485111152944,8.657632873198743,1.6763609053181368,2604,80,862,1305,53.10039305945725,30.63153240689017,0.0005927216191745,False
0.34,0.8421996345765346,2.4000000000000004,4834.0,21.13566,0.3,68900.0,0.33,276.0,2700.0,32.35568773942092,5.418148810597097,14629.001788612162,21.61340078491442,7.850265313871938,10.742286954506504,2.43211650327484,3092,90,1026,1547,56.3531376297408,32.37304716313928,0.0006654385029078,False
0.3500000000000001,0.6932125816504027,2.4000000000000004,4835.0,21.13566,0.08,68900.0,0.33,276.0,2700.0,23.147867351615044,3.961079596517524,10694.914910597316,16.49208948013794,5.018579312739512,6.655777871477106,1.0574997162219884,60466,266,9568,38476,50.05940496534393,28.5950814345152,0.0005225761432606,False
0.36,0.9737775187454358,2.4000000000000004,4836.0,21.13566,0.3,68900.0,0.33,276.0,2700.0,40.58977347194754,7.208443127053305,19462.796443043924,26.600187683599923,11.017415316462904,13.989585788347616,3.808972189409599,3861,104,1278,1938,60.77068254140298,34.92509933899246,0.0007684744931871,False
0.37,1.043941740688847,2.4000000000000004,4837.0,21.13566,0.3,68900.0,0.33,276.0,2700.0,45.30769746016149,8.275836635008348,22344.75891452254,29.43728169883485,12.9826045905193,15.87041576132664,4.706767955510951,4221,110,1396,2121,63.49293090283507,36.54933474121734,0.0008240881808887,False
0.38,0.7498713676515303,2.4000000000000004,4838.0,21.13566,0.2,68900.0,0.33,276.0,2700.0,25.6706218394506,4.762494501437095,12858.735153880156,18.373952838664557,6.005932184602957,7.296669000786043,1.243437683165863,6671,114,1720,3709,50.18910652409563,28.957779398019024,0.0005337087833793,False
0.39,0.9757045252945696,2.4000000000000004,4839.0,21.13566,0.3,68900.0,0.33,276.0,2700.0,39.81956087293112,7.640576947142703,20629.5577572853,26.67645389823758,11.068747520098162,13.14310697469354,3.428170572955459,3865,104,1280,1937,56.94196920842116,32.73270689828634,0.000718105267962,False
0.4,1.0033221681924762,2.4000000000000004,4840.0,21.13566,0.3,68900.0,0.33,276.0,2700.0,41.4517595419742,8.156310621841513,22022.038678972083,27.779746353728093,11.820679347899318,13.672013188246105,3.6643687260578055,3980,106,1320,1994,57.539737801529846,33.03670934511896,0.0007299057998791,False
0.4100000000000001,0.8314436722389618,2.4000000000000004,4841.0,21.13566,0.3,68900.0,0.33,276.0,2700.0,29.8121832255022,5.967149756375912,16111.304342214962,21.224989359177187,7.619883864568037,8.587193866325013,1.6527341081921252,2951,86,966,1484,47.17229807502678,27.15223310830765,0.0005604820234307,False
0.42,0.978804381312483,2.4000000000000004,4842.0,21.13566,0.3,68900.0,0.33,276.0,2700.0,39.14991024566106,8.06631160724272,21779.041339555348,26.799334447565663,11.151631079870924,12.350575798095395,3.0853194726282034,3556,100,1188,1768,53.15719974518792,30.598030261979687,0.00067666537238,False
0.43,0.7943323698881568,2.4000000000000004,4843.0,21.13566,0.1,68900.0,0.33,276.0,2700.0,27.06921488562583,5.653362129003579,15264.077748309664,19.907176326948704,6.856756793672702,7.162038558677125,1.2033946646691227,45029,232,7270,28544,47.42256216384265,27.37120356647416,0.0005210892272424,False
0.44,1.13830389871122,2.4000000000000004,4844.0,21.13566,0.2,68900.0,0.33,276.0,2700.0,50.10580733745901,10.844868661838724,29281.14538696456,33.447914247159424,15.947836234084566,16.657893090299588,5.102967572245841,13258,170,3290,7477,59.99853459436856,34.53158999734534,0.0008046337447927,False
0.45,1.0752773797710833,2.4000000000000004,4845.0,21.13566,0.3,68900.0,0.33,276.0,2700.0,45.08636536007236,9.9535804523107,26874.66722123889,30.744308051557503,13.925454435643712,14.342057308514851,3.97187398333301,4361,110,1430,2198,53.70091630002508,30.839546981968457,0.00072218758415,False
0.46,0.792698768211773,2.4000000000000004,4846.0,21.13566,0.2,68900.0,0.33,276.0,2700.0,26.257894484569785,5.835455689764507,15755.73036236417,19.84996291402059,6.824283138147117,6.407931570549195,0.9888274483826098,7114,116,1778,3995,44.77498461286535,25.844950731172737,0.0004901794200605,False
0.4700000000000001,1.087728334561627,2.4000000000000004,4847.0,21.13566,0.3,68900.0,0.33,276.0,2700.0,45.38079883565104,10.44704134366224,28207.011627888045,31.270495065244152,14.311522147965508,14.11030377040689,3.8644808043032697,4159,108,1344,2109,52.99368407715506,30.370257723401338,0.0007065373595633,False
0.4800000000000001,0.9675884297563634,2.4000000000000004,4848.0,21.13566,0.3,68900.0,0.33,276.0,2700.0,36.6960902491082,8.575438316622115,23153.683454879712,26.35586987574784,10.853540936612644,10.34022037336036,2.2781026199905288,3773,98,1174,1948,47.92641924205143,27.60364190017799,0.000598615063751,False
0.49,1.0008851319855565,2.4000000000000004,4849.0,21.13566,0.3,68900.0,0.33,276.0,2700.0,38.66545295426441,9.226632484393589,24911.907707862683,27.681618465857287,11.75309870113907,10.983834488407124,2.526466216745483,3541,98,1140,1791,51.30968761694345,29.551204371157453,0.0006125510728442,False
0.5,0.9542149721487914,2.4000000000000004,4850.0,21.13566,0.3,68900.0,0.33,276.0,2700.0,35.273216560210614,8.556504752253401,23102.562831084186,25.831232630514204,10.504584944544472,9.44198392969641,1.948080192291071,3454,92,1048,1804,48.6969056854284,27.99063901382812,0.0005690170565537,False
0.01,0.3124973707976358,2.4000000000000004,4851.0,24.15504,0.05,68900.0,0.33,276.0,2700.0,11.6509476614108,0.0582526439119515,157.28213856226927,5.939513313635396,0.8641268942471982,5.711434347775405,0.8058742503352466,38314,294,12684,19282,759.2640814114283,432.14347120666895,0.0058257233974572,True
0.02,0.4034558090951256,2.4000000000000004,4852.0,24.15504,0.08,68900.0,0.33,276.0,2700.0,15.759597093074069,0.1575792157699218,425.46388257878885,8.129481224258585,1.5023976661386922,7.6301158688154835,1.3448184503687703,20228,218,6656,10238,514.7864783795033,293.77000685156094,0.004063002834682,True
0.03,0.3848412417675478,2.4000000000000004,4853.0,24.15504,0.1,68900.0,0.33,276.0,2700.0,14.597524222616288,0.2189063146716694,591.0470496135075,7.664383645742753,1.355413194467467,6.933140576873535,1.1365068797957976,12594,170,4134,6387,313.7274094179673,179.4580822544954,0.0026120305850993,True
0.04,0.4555020364436023,2.4000000000000004,4854.0,24.15504,0.1,68900.0,0.33,276.0,2700.0,17.911211644048237,0.3580901915944126,966.843517304914,9.476105916499078,1.96025458680906,8.435105727549159,1.6021643952146472,15147,190,4964,7695,294.5095936911879,168.36721640915553,0.0024524410167668,True
0.05,0.5516873695884884,2.4000000000000004,4855.0,24.15504,0.2,68900.0,0.33,276.0,2700.0,22.872036799127727,0.5715391205903941,1543.155625594064,12.143936952202182,2.998156360427686,10.728099846925543,2.426617239837292,4942,110,1626,2497,262.04403038799575,151.17907080828516,0.0025420898199306,False
0.06,0.592367351524403,2.4000000000000004,4856.0,24.15504,0.2,68900.0,0.33,276.0,2700.0,24.93162551205437,0.7474963760194799,2018.240215252596,13.342217091784354,3.516403509413694,11.589408420270017,2.768907133394214,5211,116,1708,2643,233.15042243101328,134.60762816834864,0.002351426744195,False
0.0699999999999999,0.5871941755024377,2.4000000000000004,4857.0,24.15504,0.2,68900.0,0.33,276.0,2700.0,24.348007023630423,0.8514618683069449,2298.9470444287517,13.187526443850087,3.447782282804793,11.160480579780335,2.5963204144978484,5261,116,1726,2666,200.09920384254997,115.51374744978966,0.0020168115168937,False
0.08,0.656163565494028,2.4000000000000004,4858.0,24.15504,0.2,68900.0,0.33,276.0,2700.0,28.16510241565256,1.1255317663336764,3038.9357691009263,15.305172175160555,4.429657191916939,12.859930240492004,3.304125425583263,6049,126,1982,3070,200.1750500740605,114.71042365810848,0.0020581194922534,False
0.09,0.5622369777093856,2.4000000000000004,4859.0,24.15504,0.1,68900.0,0.33,276.0,2700.0,22.374258620347845,1.005314823886008,2714.350024492222,12.450694563510565,3.1278857635606645,9.92356405683728,2.1225709396746564,18271,214,6010,9250,155.29140732796776,89.1232138483212,0.0015098802909204,False
0.0999999999999999,0.6425176197140432,2.4000000000000004,4860.0,24.15504,0.2,68900.0,0.33,276.0,2700.0,26.756272916104237,1.335719250702818,3606.4419768976086,14.876698295400123,4.223732429861697,11.87957462070411,2.88801317915888,5981,124,1966,3026,164.3316271703116,94.36524436931082,0.0016300639542167,False
0.11,0.4770238460232954,2.4000000000000004,4861.0,24.15504,0.2,68900.0,0.33,276.0,2700.0,17.280210805472898,0.9476239544197252,2558.5846769332584,10.052849749579014,2.170382941084862,7.2273610558938834,1.222758986665137,3498,92,1148,1770,108.47863706729268,62.60177630182988,0.0010202043896535,False
0.12,0.5331228546182302,2.4000000000000004,4862.0,24.15504,0.1,68900.0,0.33,276.0,2700.0,19.985371378502236,1.1955031679731982,3227.858553527635,11.610916829955729,2.777671091243155,8.374454548546504,1.5821679232699568,16290,200,5378,8217,106.40185880682544,61.39512465254431,0.0010810901881981,False
0.13,0.6595122932336221,2.4000000000000004,4863.0,24.15504,0.3,68900.0,0.33,276.0,2700.0,26.919292555501904,1.745152630067666,4711.912101182698,15.411035221174584,4.481087221148666,11.508257334327322,2.735934591081,2650,82,872,1336,129.77388211607328,74.91671841831486,0.0013215203638681,False
0.14,0.6460059926143682,2.4000000000000004,4864.0,24.15504,0.3,68900.0,0.33,276.0,2700.0,25.83369576077588,1.8026116830933412,4867.051544352022,14.985785681093867,4.275818080876459,10.847910079682014,2.473206397783118,2515,80,824,1273,118.74182571621584,68.53983819672789,0.0012011880596244,False
0.15,0.717913023784087,2.4000000000000004,4865.0,24.15504,0.3,68900.0,0.33,276.0,2700.0,29.919467446379915,2.236891475007914,6039.606982521367,17.30256957793265,5.435919260383531,12.616897868447264,3.199027785375617,2952,86,970,1491,120.47610903744022,69.55157990239404,0.0012952014611028,False
0.16,0.7146660041863222,2.4000000000000004,4866.0,24.15504,0.3,68900.0,0.33,276.0,2700.0,29.42541699675404,2.345454717400925,6332.727736982498,17.195151793345868,5.379911943397192,12.230265203408171,3.034457225996267,2707,84,884,1375,111.35570754752224,64.2872003847531,0.0012118683949258,False
0.17,0.8139389585271517,2.4000000000000004,4867.0,24.15504,0.3,68900.0,0.33,276.0,2700.0,35.520197564336925,3.008927029830583,8124.102980542573,20.599088493209617,7.253835843756232,14.921109071127308,4.244908813925649,3601,98,1178,1828,118.61149828117196,68.44408920493238,0.0013674247177118,False
0.18,0.8403988974992465,2.4000000000000004,4868.0,24.15504,0.3,68900.0,0.33,276.0,2700.0,36.98728179664654,3.316640849460911,8954.93029354446,21.548171242498825,7.811404004570391,15.439110554147716,4.49476315510948,3583,98,1172,1819,115.20863514154289,66.45187446440717,0.0013543457598862,False
0.19,0.7369839800521886,2.4000000000000004,4869.0,24.15504,0.3,68900.0,0.33,276.0,2700.0,29.946897873433443,2.830589841968865,7642.592573315936,17.938822824898928,5.771948260051297,12.008075048534517,2.941358418082432,2917,86,958,1474,98.2138536089959,56.681834874646654,0.0010753138780948,False
0.2,0.7269366433547364,2.4000000000000004,4870.0,24.15504,0.3,68900.0,0.33,276.0,2700.0,29.037703871741847,2.8870152263549587,7794.941111158389,17.602480052017537,5.593402665994696,11.43522381972431,2.7063874396397374,2929,86,956,1489,96.13684818925572,55.50345919121348,0.0010098246399355,False
0.21,0.6167501235204567,2.4000000000000004,4871.0,24.15504,0.2,68900.0,0.33,276.0,2700.0,22.293076668956328,2.3213768571971496,6267.717514432304,14.08037779184887,3.85069258828257,8.212698877107458,1.5293157310854206,4686,108,1552,2352,74.53033523853831,43.01559831850729,0.0007837652037115,False
0.22,0.5420665459271801,2.4000000000000004,4872.0,24.15504,0.2,68900.0,0.33,276.0,2700.0,18.02674403415587,1.9606407247068616,5293.729956708527,11.86662477433448,2.882657535308736,6.160119259821387,0.9220168106018742,3957,98,1308,1989,63.346715929031554,36.55782290536907,0.0006443054572948,False
0.23,0.9292132464695348,2.4000000000000004,4873.0,24.15504,0.3,68900.0,0.33,276.0,2700.0,41.550053661489805,4.752773665860508,12832.48889782337,24.86247822080552,9.870902550060771,16.687575440684288,5.118128884200264,3832,104,1260,1936,99.27361949001262,57.308663413006,0.0012384914250883,False
0.24,0.6476539873560021,2.4000000000000004,4874.0,24.15504,0.3,68900.0,0.33,276.0,2700.0,23.273006724402407,2.763807889032805,7462.281300388575,15.037427665371302,4.300557120363398,8.235579059031105,1.5367492313305924,2354,76,776,1184,69.19868155065429,39.88593070146752,0.0007410900112285,False
0.25,0.939825129764632,2.4000000000000004,4875.0,24.15504,0.3,68900.0,0.33,276.0,2700.0,41.65387805408115,5.174009833285252,13969.82654987018,25.271743260823367,10.136909300930734,16.38213479325778,4.962899467645482,3922,104,1286,1987,92.33740624485355,53.29684363683426,0.0011643041176867,False
0.26,0.8050781044642819,2.4000000000000004,4876.0,24.15504,0.3,68900.0,0.33,276.0,2700.0,32.23837469486793,4.154177622013169,11216.279579435555,20.28519439340168,7.07270246878116,11.95318030146625,2.9185248467679914,3097,90,1022,1558,77.48148998809526,44.718119874563534,0.0009091698875126,False
0.27,0.934029072677784,2.4000000000000004,4877.0,24.15504,0.3,68900.0,0.33,276.0,2700.0,40.602128085079286,5.440063312685303,14688.170944250318,25.04785785597336,9.991082068409328,15.554270229105924,4.551018755724026,3764,102,1230,1913,86.65096058065484,50.00692848256479,0.0010767957998587,False
0.28,0.8202271077250076,2.4000000000000004,4878.0,24.15504,0.3,68900.0,0.33,276.0,2700.0,32.636911480761064,4.523191446018816,12212.616904250805,20.82304206612257,7.384069591533889,11.81386941463849,2.8608781455150725,3243,92,1074,1626,74.42508682886066,42.74526173075934,0.0008741315709731,False
0.29,0.8266757218178415,2.4000000000000004,4879.0,24.15504,0.3,68900.0,0.33,276.0,2700.0,32.765998480977736,4.699989577589505,12689.971859491665,21.053742757547766,7.519092642282461,11.71225572342997,2.819103064692957,3247,92,1076,1627,72.89465632359965,42.05484025556841,0.000854654046575,False
0.3,0.9324617986165769,2.4000000000000004,4880.0,24.15504,0.3,68900.0,0.33,276.0,2700.0,39.5514105704033,5.8761629177958845,15865.639878048887,24.987463481684497,9.951872545833936,14.563947088718802,4.075709628038052,3788,102,1244,1916,78.13036766505648,44.9593712150234,0.0009759664791205,False
0.31,0.7486207531535901,2.4000000000000004,4881.0,24.15504,0.3,68900.0,0.33,276.0,2700.0,27.36341030213057,4.178934472334845,11283.123075304082,18.33154418577204,5.982979975333178,9.031866116358536,1.804045502998333,2704,82,890,1363,63.17781589835825,36.45269232205119,0.0007100871940228,False
0.32,0.7448501183668037,2.4000000000000004,4882.0,24.15504,0.3,68900.0,0.33,276.0,2700.0,26.87870781057228,4.231964110976349,11426.30309963614,18.20391893244281,5.914099143520633,8.674788878129469,1.6821350325442843,2595,80,860,1299,61.4541651380926,35.4538629448258,0.000685319668803,False
0.33,0.8963848971064723,2.4000000000000004,4883.0,24.15504,0.3,68900.0,0.33,276.0,2700.0,36.18639085339301,5.8954882140151454,15917.818177840893,23.614318522338635,9.075270038192729,12.572072331054372,3.179781824177581,3244,94,1074,1627,70.35423889804535,40.58198077012543,0.0008473046552537,False
0.34,0.818678465843883,2.4000000000000004,4884.0,24.15504,0.3,68900.0,0.33,276.0,2700.0,30.86546700225668,5.164811285279174,13944.99047025377,20.767794670315983,7.351864943492139,10.097672331940691,2.1870536582129647,3145,90,1046,1570,62.36681474457158,35.949485692453855,0.0007330145334178,False
0.3500000000000001,1.0260807646222954,2.4000000000000004,4885.0,24.15504,0.3,68900.0,0.33,276.0,2700.0,44.64229262250991,7.72260401892413,20851.03085109515,28.703332849118965,12.46339246172576,15.93895977339094,4.74078844280163,4261,110,1410,2140,74.40378731869114,42.87684659735034,0.0009663708145276,False
0.36,0.92457949509545,2.4000000000000004,4886.0,24.15504,0.3,68900.0,0.33,276.0,2700.0,37.2038465126759,6.598976274384406,17817.235940837898,24.6846575884394,9.756108204122109,12.519188924236502,3.1571319297377025,3333,96,1104,1671,66.69564374878718,38.46703117664538,0.0008199961702252,False
0.37,0.8043312164208689,2.4000000000000004,4887.0,24.15504,0.3,68900.0,0.33,276.0,2700.0,29.17895210249452,5.292018743839956,14288.450608367884,20.258826199112043,7.057561547547705,8.920125903382477,1.7655428037077483,2881,86,952,1447,57.484150700984536,33.13596441336345,0.0006685083901897,False
0.38,0.7921213196329872,2.4000000000000004,4888.0,24.15504,0.2,68900.0,0.33,276.0,2700.0,28.178720568390546,5.239033259935684,14145.389801826346,19.82975505404892,6.8128266401767466,8.348965514341629,1.5737933802410629,7666,122,1944,4282,59.74436395887351,34.47647858744157,0.0006516338104224,False
0.39,0.8487111245553409,2.4000000000000004,4889.0,24.15504,0.3,68900.0,0.33,276.0,2700.0,31.41131678485611,6.000969349968078,16202.61724491381,21.84995185988595,7.991770328239075,9.561364924970157,1.9908009782709968,3034,88,1008,1516,58.07354587343281,33.49494289959676,0.0006855999159305,False
0.4,0.7028441614723768,2.4000000000000004,4890.0,24.15504,0.2,68900.0,0.33,276.0,2700.0,22.525602462154392,4.371079205877716,11801.913855869832,16.806300616254823,5.1789354924843085,5.719301845899569,0.8078562866065928,6330,108,1612,3528,51.82363660002407,29.908914250637288,0.000543139031476,False
0.4100000000000001,0.8596620059534981,2.4000000000000004,4891.0,24.15504,0.3,68900.0,0.33,276.0,2700.0,31.57179349328612,6.327869861271608,17085.24862543334,22.250181329295515,8.233235241874697,9.321612163990604,1.9053653806030888,3012,88,996,1510,54.770053147530206,31.52889608323006,0.0006681702119523,False
0.42,0.7317754011171691,2.4000000000000004,4892.0,24.15504,0.05,68900.0,0.33,276.0,2700.0,23.68710722374238,4.819122972639796,13011.632026127449,17.764144695205292,5.678967693728496,5.922962528537088,0.8598447210887006,268164,426,24982,184215,70.45523112909503,40.19441100346972,0.0005528292510542,False
0.43,0.8605503274798638,2.4000000000000004,4893.0,24.15504,0.3,68900.0,0.33,276.0,2700.0,31.104798738688228,6.521012657411994,17606.734175012385,22.282779593941925,8.25301503431701,8.822019144746303,1.7320023769050152,3081,90,1000,1559,53.01764893995089,30.49249910457853,0.0006426670077822,False
0.44,0.7553016434507458,2.4000000000000004,4894.0,24.15504,0.2,68900.0,0.33,276.0,2700.0,24.562474847109723,5.225335513961877,14108.405887697068,18.55855075625984,6.106208689470886,6.003924090849882,0.8808731755090093,6607,110,1640,3723,51.65204215011413,29.781424843507807,0.0005480840291594,False
0.45,1.0692814101186772,2.4000000000000004,4895.0,24.15504,0.3,68900.0,0.33,276.0,2700.0,44.65016937836932,9.855436356426956,26609.67816235278,30.492303651125575,13.74186845442968,14.157865727243742,3.886432098002725,4106,108,1356,2058,61.52703723450511,35.298456504113766,0.0008194671052025,False
0.46,0.9640441045631792,2.4000000000000004,4896.0,24.15504,0.3,68900.0,0.33,276.0,2700.0,37.00981306171603,8.308396962508144,22432.67179877199,26.21638914242526,10.760374438814514,10.79342391929077,2.4519774763063698,3503,98,1156,1749,54.91424317458198,31.55734758251343,0.0006980104830259,False
0.4700000000000001,0.9492757380636406,2.4000000000000004,4897.0,24.15504,0.3,68900.0,0.33,276.0,2700.0,35.75247335777326,8.18438485636095,22097.839112174566,25.638604405451662,10.377474410191454,10.1138689523216,2.193089553830504,3286,94,1072,1658,53.262017029106026,30.64665208111304,0.0006757898453382,False
0.4800000000000001,0.9892630045062404,2.4000000000000004,4898.0,24.15504,0.3,68900.0,0.33,276.0,2700.0,38.154282256949,8.92540439850389,24098.5918759605,27.215703834491705,11.434090149990798,10.938578422457296,2.508685751486908,3649,98,1184,1841,58.71432015243459,33.72535492132306,0.0007014780432149,False
0.49,1.0549839926309978,2.4000000000000004,4899.0,24.15504,0.3,68900.0,0.33,276.0,2700.0,42.426074281612735,10.147984709593665,27399.55871590289,29.895044032546704,13.31018301515302,12.531030249066031,3.162198305559356,3938,104,1280,1984,56.90625069622042,32.637884301227466,0.0007475834409247,False
0.5,0.9498441751502088,2.4000000000000004,4900.0,24.15504,0.3,68900.0,0.33,276.0,2700.0,34.98716037661835,8.484990706355438,22909.47490715968,25.660742011235936,10.39205463531675,9.326418365382413,1.9070639289613125,3425,92,1042,1786,54.96172351300938,31.709981147725493,0.0006470063564244,False
0.02,0.6665614263593331,2.4000000000000004,4902.0,27.17442,0.1,68900.0,0.33,276.0,2700.0,30.637983201321752,0.306363076852396,827.1803075014693,15.63479993232766,4.590509600035766,15.003183268994093,4.28414652318337,25008,258,8282,12579,890.8346811870989,507.6955462051836,0.0091931148068386,True
0.03,0.5281804829343014,2.4000000000000004,4903.0,27.17442,0.1,68900.0,0.33,276.0,2700.0,22.10162676702,0.3314678528375349,894.9632026613443,11.470472538786712,2.720632941473337,10.631154228233289,2.3891650886358025,18285,214,6010,9264,529.580578580394,301.9181045513591,0.0043524289446197,True
0.04,0.6710017176951812,2.4000000000000004,4904.0,27.17442,0.1,68900.0,0.33,276.0,2700.0,30.295139422224512,0.6057687471579356,1635.575617326426,15.776391760062555,4.66024683784085,14.518747662161957,4.054478090682914,24746,256,8132,12542,514.9952800075192,293.4252882712503,0.0046253170429928,True
0.05,0.389510540729146,2.4000000000000004,4905.0,27.17442,0.1,68900.0,0.33,276.0,2700.0,14.348422288033904,0.3584487578130486,967.8116460952314,7.780230989829872,1.391470742794285,6.568191298204032,1.0330219849812363,12235,168,4016,6205,216.02644878588225,123.79523824582743,0.0018547248035071,False
0.06,0.6823526725604699,2.4000000000000004,4906.0,27.17442,0.1,68900.0,0.33,276.0,2700.0,30.39270268272132,0.9113286911395236,2460.587466076714,16.14060301075735,4.84138795831835,14.252099671963972,3.9300592671788266,24933,256,8188,12645,347.4523195024684,198.4644796326913,0.0031736703219542,True
0.0699999999999999,0.6327920498279562,2.4000000000000004,4907.0,27.17442,0.2,68900.0,0.33,276.0,2700.0,27.04109024147285,0.9457197809310348,2553.4434085137937,14.57417803793097,4.0805210785229,12.466912203541884,3.1348012975918653,5573,120,1828,2825,252.8471712497181,144.84634227526442,0.0025012870661374,False
0.08,0.6256955804196757,2.4000000000000004,4908.0,27.17442,0.2,68900.0,0.33,276.0,2700.0,26.32589322273064,1.0519633986167936,2840.3011762653427,14.35493781931422,3.977874534167381,11.97095540341642,2.925911135550587,5550,120,1824,2808,218.1942681577465,124.83175539009603,0.0021778504978125,False
0.09,0.4078425613400362,2.4000000000000004,4909.0,27.17442,0.2,68900.0,0.33,276.0,2700.0,14.302811759965278,0.6420997151687935,1733.6692309557425,8.240355162199638,1.538302697594939,6.062456597765641,0.8962029824261455,3074,84,1006,1559,130.49696709248576,75.03751593011276,0.0011400137233897,False
0.0999999999999999,0.7086182899519256,2.4000000000000004,4910.0,27.17442,0.1,68900.0,0.33,276.0,2700.0,30.82832304098189,1.539321756946702,4156.168743756096,16.995787909845635,5.276523890300097,13.832535131136254,3.737202133353395,25583,260,8432,12929,202.6585910862172,116.2679677920692,0.0020861813268728,False
0.11,0.7850126568361582,2.4000000000000004,4911.0,27.17442,0.3,68900.0,0.33,276.0,2700.0,35.48639181201222,1.948963909779388,5262.202556404347,19.5816734224412,6.672746114840601,15.904718389571023,4.723782205061213,3605,98,1182,1826,197.61816140328725,114.04960886533648,0.002194834126196,False
0.12,0.6284828546561283,2.4000000000000004,4912.0,27.17442,0.3,68900.0,0.33,276.0,2700.0,25.35773409294036,1.5178449308394888,4098.181313266619,14.44089767944618,4.01800543401666,10.916836413494185,2.500160503177172,2549,80,834,1292,150.488511963997,86.8806509586014,0.001504799005918,False
0.13,0.6825247011133226,2.4000000000000004,4913.0,27.17442,0.3,68900.0,0.33,276.0,2700.0,28.31433007193743,1.835830068635976,4956.741185317135,16.14614769739121,4.844165079808007,12.16818237454622,3.008335011172031,2800,84,914,1423,145.65842873206117,84.07947344577899,0.0015560239138582,False
0.14,0.7179099491900375,2.4000000000000004,4914.0,27.17442,0.3,68900.0,0.33,276.0,2700.0,30.21405978181524,2.1092371645660988,5694.940344328466,17.302467738989158,5.435866062162622,12.911592042826085,3.326628897596523,3213,90,1048,1635,145.81630938692098,84.18687639644187,0.0015552914832061,False
0.15,0.5081067797976029,2.4000000000000004,4915.0,27.17442,0.08,68900.0,0.33,276.0,2700.0,17.918001278845054,1.336781512442801,3609.310083595563,10.9063610412941,2.496056925340881,7.011640237550953,1.1592754128980804,29574,234,7604,16508,95.89727818143668,55.3424534762851,0.0009405775989694,False
0.16,0.5377494408236161,2.4000000000000004,4916.0,27.17442,0.08,68900.0,0.33,276.0,2700.0,19.23242507449687,1.5300153636203464,4131.041481774935,11.742943975731752,2.831695208950999,7.489481098765118,1.3016798453306526,33073,244,8160,18717,94.81858380328345,54.72751109174777,0.0009519422492568,False
0.17,0.739210322793991,2.4000000000000004,4917.0,27.17442,0.3,68900.0,0.33,276.0,2700.0,30.66869328961853,2.5965491664795173,7010.6827494946965,18.013694841388606,5.81196955031738,12.654998448229923,3.2154203838378623,2901,86,952,1467,123.57641170065943,71.33041033169982,0.0013467699850818,False
0.18,0.8161434343023077,2.4000000000000004,4918.0,27.17442,0.3,68900.0,0.33,276.0,2700.0,35.35564478272885,3.169793518208442,8558.442499162793,20.677488170347964,7.299332427986815,14.678156612380889,4.129538909778374,3606,98,1176,1836,125.98095058690234,72.70542445659787,0.0014631461914874,False
0.19,0.6337746167272532,2.4000000000000004,4919.0,27.17442,0.3,68900.0,0.33,276.0,2700.0,23.77136667772067,2.2439143783761466,6058.568821615596,14.604633476064034,4.094856143713295,9.166733201656635,1.850941765337148,2528,78,824,1286,96.83234952606834,55.87321981464421,0.000995258522421,False
0.2,0.5988178506579183,2.4000000000000004,4920.0,27.17442,0.3,68900.0,0.33,276.0,2700.0,21.54882914140915,2.1381277533217693,5772.944933968777,13.53604504051277,3.6030920505786974,8.012784100896381,1.464964297256929,2261,74,744,1139,87.77332190609047,50.64593834563468,0.0008859932225304,False
0.21,0.7673940824944079,2.4000000000000004,4921.0,27.17442,0.3,68900.0,0.33,276.0,2700.0,31.28181369266639,3.2651942446867066,8816.024460654107,18.97228634575291,6.33312466603019,12.30952734691348,3.0679304213434837,3060,90,1010,1539,103.29462423441632,59.60857460533406,0.0011651436125822,False
0.22,0.7899586633331792,2.4000000000000004,4922.0,27.17442,0.3,68900.0,0.33,276.0,2700.0,32.43114300500522,3.5451246115001678,9571.836451050453,19.754147188093494,6.770023473584019,12.67699581691172,3.224898862083852,3054,90,1012,1530,101.67791162946064,58.65880019081112,0.0011613383921278,False
0.23,0.653413069627073,2.4000000000000004,4923.0,27.17442,0.3,68900.0,0.33,276.0,2700.0,23.85623213850584,2.717984190717352,7338.557314936849,15.218431794640656,4.387679712215626,8.637800343865182,1.6696955214982747,2354,76,774,1187,82.28848351086675,47.43257427023797,0.0008737234501178,False
0.24,0.7178191371045888,2.4000000000000004,4924.0,27.17442,0.3,68900.0,0.33,276.0,2700.0,27.373844985388843,3.255908480351177,8790.952896948178,17.29945990209318,5.434294925559375,10.074385083295663,2.1783864452081985,2834,82,928,1436,86.11523642936966,49.70383161342463,0.0009463964551061,False
0.25,0.6632066589874837,2.4000000000000004,4925.0,27.17442,0.08,68900.0,0.33,276.0,2700.0,23.904740376533997,2.9553676235918527,7979.492583698002,15.528151866409056,4.538237452159514,8.376588510124938,1.5828698285676612,53289,278,10206,32610,79.13937347521775,45.32913799922968,0.0008371510641598,False
0.26,0.6454476455041606,2.4000000000000004,4926.0,27.17442,0.3,68900.0,0.33,276.0,2700.0,22.647702480480927,2.907390234142833,7849.953632185649,14.968304653963536,4.267455691352295,7.679397826517391,1.3600654572094624,2356,76,776,1186,73.17185122423659,42.23061633642843,0.0007756822429906,False
0.27,0.7152771978448716,2.4000000000000004,4927.0,27.17442,0.3,68900.0,0.33,276.0,2700.0,26.421529695010197,3.525682530025968,9519.342831070113,17.215351035370006,5.390427683477207,9.206178659640187,1.8647451534512396,2550,80,836,1290,76.29955543984423,44.039867954840325,0.0008495449950615,False
0.28,0.8127789600173874,2.4000000000000004,4928.0,27.17442,0.3,68900.0,0.33,276.0,2700.0,32.159008226948416,4.456284990485042,12031.969474309612,20.557883507560604,7.2299648339316995,11.601124719387812,2.773679843446658,3193,92,1060,1597,83.044847214372,47.87895819668218,0.0009699033810684,False
0.29,0.9308027556098164,2.4000000000000004,4929.0,27.17442,0.3,68900.0,0.33,276.0,2700.0,39.74678377517192,5.71220344524709,15422.949302167142,24.92360008494956,9.910470254913031,14.823183690222358,4.198266809665944,3758,102,1234,1901,91.63367842658424,52.86947585596302,0.0011290900202679,False
0.3,0.6349324777305196,2.4000000000000004,4930.0,27.17442,0.05,68900.0,0.33,276.0,2700.0,21.100908710066665,3.108587638745382,8393.186624612532,14.64055343704834,4.111787071192178,6.460355273018326,1.003199432446796,184606,404,22370,122783,78.20207243072838,44.61818847922087,0.0006859780476494,False
0.31,0.8063087688319397,2.4000000000000004,4931.0,27.17442,0.3,68900.0,0.33,276.0,2700.0,30.90821085577278,4.728378558149387,12766.622107003346,20.328672447949685,7.097693484254677,10.579538407823094,2.369314926105289,2987,88,984,1505,75.97299987646801,43.818947524343606,0.0008755576504517,False
0.32,0.697497459550616,2.4000000000000004,4932.0,27.17442,0.05,68900.0,0.33,276.0,2700.0,24.114877033510528,3.7897511866464617,10232.328203945446,16.631587204628882,5.089544603071281,7.483289828881645,1.2997934164248193,217845,436,25288,145745,89.03140321468712,50.2017772469984,0.0007272160183946,False
0.33,0.9231475330337192,2.4000000000000004,4933.0,27.17442,0.3,68900.0,0.33,276.0,2700.0,37.99541986233319,6.193978000490273,16723.740601323738,24.629815063362777,9.720799983305971,13.365604798970416,3.5268219828157,3594,100,1188,1806,80.35243596182517,46.28342178364514,0.0009927659375772,False
0.34,0.736212526814031,2.4000000000000004,4934.0,27.17442,0.3,68900.0,0.33,276.0,2700.0,25.860375749783785,4.313945772358782,11647.653585368713,17.912907876090046,5.758119294141465,7.947467873693739,1.444173521782683,2605,80,862,1306,65.06897249588636,37.53128107484298,0.0007218513704521,False
0.3500000000000001,0.9234973984340352,2.4000000000000004,4935.0,27.17442,0.3,68900.0,0.33,276.0,2700.0,37.424416852037794,6.459475759091508,17440.58454954707,24.64320975444633,9.729419446492612,12.78120709759146,3.269943687401104,3478,98,1150,1747,77.16514070753443,44.51356753679917,0.0009413387146845,False
0.36,0.8803631833217413,2.4000000000000004,4936.0,27.17442,0.3,68900.0,0.33,276.0,2700.0,34.26458222542233,6.069908702678668,16388.753497232403,23.01499556287109,8.701737889683281,11.249586662551245,2.6318291870046133,3104,92,1028,1556,70.84076400506731,40.73495346606822,0.0008627015191347,False
0.37,0.6895651580441534,2.4000000000000004,4937.0,27.17442,0.1,68900.0,0.33,276.0,2700.0,22.47593875482076,4.051961274520318,10940.295441204858,16.373708180576063,4.958641671255463,6.102230574244693,0.9066803967351448,33971,212,6108,21023,61.29649116787743,35.38877528297776,0.0006387263550245,False
0.38,0.7446638288177189,2.4000000000000004,4938.0,27.17442,0.2,68900.0,0.33,276.0,2700.0,25.367696107238125,4.704938612316723,12703.334253255152,18.197622824628063,5.9107085301342135,7.170073282610058,1.2057699178174903,6813,114,1744,3793,65.46940575378116,37.79316830626429,0.0006803389558292,False
0.39,1.0590379360736804,2.4000000000000004,4939.0,27.17442,0.3,68900.0,0.33,276.0,2700.0,45.7775810886704,8.802390889210976,23766.45540086964,30.063871430626143,13.43171790170201,15.713709658044252,4.629327012491034,4405,112,1458,2212,79.28167510240321,45.635317122663714,0.0010313410780692,False
0.4,0.9535014505446646,2.4000000000000004,4940.0,27.17442,0.3,68900.0,0.33,276.0,2700.0,37.999854663728776,7.465929646192587,20158.010044719984,25.80336767371118,10.486163743886278,12.196486990017595,3.020234097693692,3299,96,1096,1649,69.36973679676389,39.9719383236621,0.000875212008443,False
0.4100000000000001,0.7301421567953248,2.4000000000000004,4941.0,27.17442,0.1,68900.0,0.33,276.0,2700.0,23.825081510680626,4.7397939048374855,12797.44354306121,17.709511623153396,5.649999128974552,6.115569887527226,0.9102052241370666,38025,218,6410,23850,59.802389605111536,34.52540924883661,0.0006306694248749,False
0.42,0.7873452419966916,2.4000000000000004,4942.0,27.17442,0.2,68900.0,0.33,276.0,2700.0,26.89811068536641,5.493433699580844,14832.27098886828,19.66293713651599,6.71851678636998,7.2351735488504225,1.2250830867891356,7331,118,1846,4106,61.517658322904126,35.4829157153965,0.0006727809633299,False
0.43,0.7374437675576639,2.4000000000000004,4943.0,27.17442,0.2,68900.0,0.33,276.0,2700.0,23.77821242492648,4.94579659995322,13353.650819873694,17.954275294533346,5.780199858871776,5.8239371303931335,0.8344032589185559,6635,110,1672,3719,56.97320903153516,32.85802403183887,0.0006109005565098,False
0.44,1.1180209042345048,2.4000000000000004,4944.0,27.17442,0.3,68900.0,0.33,276.0,2700.0,48.56818373294924,10.506591468846567,28367.796965885736,32.56695364956864,15.278364110134222,16.001230083380598,4.771772641287653,4536,114,1502,2275,73.71719380141494,42.27956015668573,0.0009972837586354,False
0.45,0.8918914232088737,2.4000000000000004,4945.0,27.17442,0.3,68900.0,0.33,276.0,2700.0,32.56295665167271,7.135813492920776,19266.69643088609,23.4455805443244,8.969539014175501,9.117376107348306,1.833725521254725,3151,90,1028,1589,59.832623478960805,34.333710543795526,0.0007279313652013,False
0.46,0.9916712938686506,2.4000000000000004,4946.0,27.17442,0.3,68900.0,0.33,276.0,2700.0,38.8815749606386,8.738902199260336,23595.035938002908,27.31196990181552,11.499749329044896,11.569605058823084,2.76084712978456,3694,100,1226,1843,64.38540127385022,36.966284013205794,0.000819199541026,False
0.4700000000000001,1.0300248779020644,2.4000000000000004,4947.0,27.17442,0.3,68900.0,0.33,276.0,2700.0,41.25085600433985,9.476504778304104,25586.562901421083,28.864715829195124,12.576919785865948,12.386140175144728,3.1004150075618444,3846,102,1270,1925,68.79398110701801,39.53998759309752,0.0008444296914486,False
0.4800000000000001,1.036661135198396,2.4000000000000004,4948.0,27.17442,0.3,68900.0,0.33,276.0,2700.0,41.425350530821376,9.710460784233254,26218.244117429786,29.137136760246516,12.769376782481377,12.288213770574863,3.058915998248123,3834,102,1258,1923,68.30540727005881,39.2865870850444,0.0008367976452386,False
0.49,1.1621655127687498,2.4000000000000004,4949.0,27.17442,0.3,68900.0,0.33,276.0,2700.0,50.31112836951897,12.079822961129969,32615.52199505091,34.49754360197954,16.758451925198745,15.813584767539432,4.678628964068778,5346,118,1608,2806,73.39267552640862,42.166280974041776,0.000961720962539,False
0.5,0.9896914903409216,2.4000000000000004,4950.0,27.17442,0.3,68900.0,0.33,276.0,2700.0,37.630582128444765,9.145846144312047,24693.784589642528,27.232820952485984,11.44575536062129,10.39776117595878,2.299909216309242,3992,98,1204,2092,64.24809330750772,37.03591662563692,0.0007682257558971,False
0.03,0.5943313345622654,2.4000000000000004,4953.0,30.1938,0.1,68900.0,0.33,276.0,2700.0,25.91304741531322,0.3886391625618624,1049.3257389170285,13.401121146473622,3.542665224885485,12.511926268839597,3.1540260623236227,21547,234,7100,10891,663.5965108259988,378.1676116837938,0.0056399406069915,True
0.04,0.6689724938143093,2.4000000000000004,4954.0,30.1938,0.1,68900.0,0.33,276.0,2700.0,30.16764084070374,0.6032187755275231,1628.6906939243124,15.711622470128312,4.628298740122703,14.456018370575428,4.02507996459518,24643,256,8102,12484,570.4848386820021,325.0597068981994,0.0051158390340881,True
0.05,0.7391883581408845,2.4000000000000004,4955.0,30.1938,0.2,68900.0,0.33,276.0,2700.0,34.37445332460257,0.8590995337272663,2319.568741063619,18.012955560575016,5.811573893878067,16.361497764027554,4.9524743601508,7201,140,2362,3652,424.1130747134222,244.40624391039623,0.004835081441106,True
0.06,0.3731021116998994,2.4000000000000004,4956.0,30.1938,0.1,68900.0,0.33,276.0,2700.0,13.32893802202782,0.3994157513187182,1078.4225285605391,7.375551250782253,1.2671387066666489,5.953386771245567,0.8677229553479306,10997,158,3608,5579,188.32610715232448,108.20066927691764,0.0016541086862092,False
0.0699999999999999,0.5353819400150064,2.4000000000000004,4957.0,30.1938,0.2,68900.0,0.33,276.0,2700.0,21.41473955777071,0.748797507001854,2021.7532689050056,11.67531628817568,2.8039738616880734,9.739423269595028,2.0551763546862194,4407,106,1450,2226,228.5801379505666,131.63966991115487,0.0022384000579699,False
0.08,0.5924337202955159,2.4000000000000004,4958.0,30.1938,0.2,68900.0,0.33,276.0,2700.0,24.371306623238496,0.9737799346371132,2629.2058235202057,13.344206050636704,3.517289081967725,11.02710057260179,2.5435091473306115,5258,116,1720,2672,222.3639973184233,128.33275221555843,0.0022538276239967,False
0.09,0.7441000421178292,2.4000000000000004,4959.0,30.1938,0.1,68900.0,0.33,276.0,2700.0,33.418652128518325,1.5023125317536838,4056.2438357349465,18.17857359775357,5.900454322641779,15.240078530764755,4.398141790888095,27439,272,9034,13882,273.2359506099911,156.46234998262258,0.0027261411559835,False
0.0999999999999999,0.7237181885499857,2.4000000000000004,4960.0,30.1938,0.3,68900.0,0.33,276.0,2700.0,31.78934940431592,1.5873730751134365,4285.907302806278,17.495276183714935,5.536922464721732,14.294073220600982,3.949549389608296,3330,92,1090,1689,224.7631544866531,129.76075014750785,0.0023884701256983,False
0.11,0.4402997228641673,2.4000000000000004,4961.0,30.1938,0.2,68900.0,0.33,276.0,2700.0,15.427495544936386,0.845724615090216,2283.456460743583,9.075728335679209,1.8192465443939356,6.3517672092571775,0.9735219293037194,3225,88,1052,1641,126.71058742458008,73.15542755318738,0.0011577178336518,False
0.12,0.5186256352524352,2.4000000000000004,4962.0,30.1938,0.1,68900.0,0.33,276.0,2700.0,19.20865844983088,1.1489003922529195,3102.031059082883,11.200699073848664,2.6123249726729467,8.007959375982214,1.463424580420027,16320,198,5388,8232,129.53623841084416,74.73123859248139,0.0013057113171274,False
0.13,0.624133069942688,2.4000000000000004,4963.0,30.1938,0.1,68900.0,0.33,276.0,2700.0,24.826485552871706,1.6091201748966786,4344.624472221032,14.30683522370959,3.955482381822653,10.519650329162117,2.346362206925974,20358,228,6718,10275,143.46742213295394,82.68455319399929,0.0015355213880242,False
0.14,0.5115222657040305,2.4000000000000004,4964.0,30.1938,0.1,68900.0,0.33,276.0,2700.0,18.33857285942929,1.2779530799990653,3450.473315997476,11.00162810086677,2.5334700559694707,7.336944758562526,1.2555169759704057,15145,192,5016,7615,111.62694917511656,64.37961048494844,0.0011152980938609,False
0.15,0.8206651475062858,2.4000000000000004,4965.0,30.1938,0.3,68900.0,0.33,276.0,2700.0,36.604321824228165,2.7382555533465363,7393.289994035648,20.83867995707262,7.393194337159208,15.765641867155544,4.654938783812672,3763,100,1232,1909,166.5936215247959,96.1326199046746,0.0019427937195502,False
0.16,0.4855023517058484,2.4000000000000004,4966.0,30.1938,0.08,68900.0,0.33,276.0,2700.0,16.523143209102642,1.3132728143888084,3545.8365988497826,10.283254037374586,2.2565915503567164,6.239889171728056,0.943318735967908,28914,224,7110,16381,96.93282353747824,55.9486056680105,0.0009361761818006,False
0.17,0.5056396082267992,2.4000000000000004,4967.0,30.1938,0.3,68900.0,0.33,276.0,2700.0,17.314704689596557,1.4614601354776342,3945.942365789612,10.837727393512653,2.469233758384169,6.476977296083906,1.0077736229065346,1682,64,546,857,99.95011098458404,57.67428576363105,0.0009277228289213,False
0.18,0.6557239881424013,2.4000000000000004,4968.0,30.1938,0.3,68900.0,0.33,276.0,2700.0,25.308982478770535,2.265593910852191,6117.103559300916,15.291296779813594,4.422932434698657,10.017685698956944,2.157338523846466,2479,78,810,1258,117.37214646822378,67.70390260186244,0.0012131810095433,False
0.19,0.5804495625312115,2.4000000000000004,4969.0,30.1938,0.3,68900.0,0.33,276.0,2700.0,20.790450782833982,1.9607273683619135,5293.963894577167,12.986856073749625,3.359514885467485,7.80359470908436,1.3987875171055717,2250,74,742,1131,100.0193201843464,57.73103589051692,0.0009911518492978,False
0.2,0.8889752881883626,2.4000000000000004,4970.0,30.1938,0.3,68900.0,0.33,276.0,2700.0,39.69094067750297,3.9523389069311534,10671.315048714116,23.336345987863748,8.901327858969312,16.354594689639224,4.948988952038158,3818,102,1250,1937,137.08736889763802,79.0465611182746,0.0016579148395431,False
0.21,0.7660080932075664,2.4000000000000004,4971.0,30.1938,0.3,68900.0,0.33,276.0,2700.0,31.193914232836743,3.255964801404379,8791.104963791822,18.92467907627841,6.306862277568141,12.269235156558334,3.0508974761637617,3064,90,1012,1540,114.61381354068214,66.14040555061356,0.0012912650396011,False
0.22,0.7884754913171663,2.4000000000000004,4972.0,30.1938,0.3,68900.0,0.33,276.0,2700.0,32.335774356837305,3.534634060201807,9543.51196254488,19.7023624843773,6.740763084919624,12.633411872460004,3.2061290247178165,3067,90,1016,1537,141.5080291598438,81.69969601202796,0.0016313729253913,False
0.23,0.5906770366721507,2.4000000000000004,4973.0,30.1938,0.08,68900.0,0.33,276.0,2700.0,20.365213206250523,2.316517013507993,6254.595936471583,13.291598553086173,3.493893752450216,7.07361465316435,1.1773767389422225,41836,252,8738,25019,85.35942450720653,49.24665694252532,0.0008679077188888,False
0.24,0.597799414054414,2.4000000000000004,4974.0,30.1938,0.1,68900.0,0.33,276.0,2700.0,20.50961311242102,2.432200655595027,6566.941770106573,13.505373008597758,3.589322067815146,7.004240103823264,1.157121412220119,22813,202,5638,12898,83.01956958365174,47.84501868940732,0.0008488666559767,False
0.25,0.824776741127491,2.4000000000000004,4975.0,30.1938,0.3,68900.0,0.33,276.0,2700.0,33.80465728920221,4.192857237675382,11320.71454172353,20.985697705834117,7.479176613788256,12.818959583368098,3.286319376112874,3370,94,1110,1699,104.0455175590756,60.06800194576682,0.0012163718343,False
0.26,0.94138959315584,2.4000000000000004,4976.0,30.1938,0.3,68900.0,0.33,276.0,2700.0,41.44189433605212,5.350635175366968,14446.714973490813,25.33231879232596,10.17649339417593,16.109575543726166,4.825858218808962,3943,104,1294,1996,111.722029210559,64.48347652493044,0.0014069915517536,False
0.27,0.8694748510076376,2.4000000000000004,4977.0,30.1938,0.3,68900.0,0.33,276.0,2700.0,36.16722421598824,4.841351290358007,13071.648483966615,22.61137860738612,8.45334303115826,13.555845608602125,3.6119917408002538,3486,98,1146,1761,101.64402330588676,58.67587826150461,0.0012185099319579,False
0.28,0.8094216568386672,2.4000000000000004,4978.0,30.1938,0.3,68900.0,0.33,276.0,2700.0,31.944501833465253,4.426254095397402,11950.886057572983,20.438817358336625,7.161145736120305,11.505684475128628,2.7348916407229025,3095,90,1022,1556,92.4117682093993,53.31299174608203,0.0010716198425375,False
0.29,0.9000332173453418,2.4000000000000004,4979.0,30.1938,0.3,68900.0,0.33,276.0,2700.0,37.627232708564414,5.404868540589572,14593.145059591843,23.751692739421635,9.161673125249257,13.875539969142778,3.756804584659685,3471,98,1142,1752,98.316396726443,56.7362514047335,0.0011968225495815,False
0.3,0.8944092967260459,2.4000000000000004,4980.0,30.1938,0.3,68900.0,0.33,276.0,2700.0,36.94353008626788,5.484980845175563,14809.44828197402,23.54006868714877,9.028690941687188,13.403461399119102,3.5437100965116253,3535,98,1164,1783,94.27004042493829,54.397639059515335,0.0011506239918477,False
0.31,0.7493454891117131,2.4000000000000004,4981.0,30.1938,0.3,68900.0,0.33,276.0,2700.0,27.40690615513853,4.185676329551077,11301.326089787908,18.356115375476683,5.996274407587626,9.050790779661847,1.8105980780365492,2706,82,890,1365,79.09383451362207,45.6359601848968,0.000888342214171,False
0.32,0.6540794897916973,2.4000000000000004,4982.0,30.1938,0.1,68900.0,0.33,276.0,2700.0,21.679752151582093,3.4001312055379125,9180.354254952364,15.239430747884311,4.3978285784806,6.44032140369778,0.9976973729426876,31512,208,5990,19301,72.4657627203218,41.83655652012138,0.0007486190528791,False
0.33,0.7003706995460715,2.4000000000000004,4983.0,30.1938,0.1,68900.0,0.33,276.0,2700.0,24.034229960060436,3.890381666615266,10504.03049986122,16.725386348439674,5.137465848662127,7.308843611620759,1.2470841820468608,33800,218,6300,20808,74.24487772051485,42.84624416615768,0.0007897824223594,False
0.34,0.6570435451160133,2.4000000000000004,4984.0,30.1938,0.1,68900.0,0.33,276.0,2700.0,21.37699659098507,3.5517713153628145,9589.7825514796,15.33296359652985,4.443137658057541,6.044032994455218,0.8913663426947265,31263,204,5852,19211,69.92682521296835,40.36674207826727,0.000717216915319,False
0.3500000000000001,0.7342562751852515,2.4000000000000004,4985.0,30.1938,0.2,68900.0,0.33,276.0,2700.0,25.497168780252487,4.372207346529078,11804.95983562851,17.84725978697604,5.723141366702834,7.649908993276448,1.3509340201737563,6636,118,1852,3590,74.7446555500479,43.14378136702738,0.0007928271586164,False
0.36,1.035706558072548,2.4000000000000004,4986.0,30.1938,0.3,68900.0,0.33,276.0,2700.0,45.02484304696792,8.00675565055697,21618.24025650382,29.097882844701367,12.741581875484036,15.92696020226655,4.734826224927065,4369,110,1444,2197,90.8481273243738,52.316605216372366,0.0011933151634646,False
0.37,0.7202465918261054,2.4000000000000004,4987.0,30.1938,0.2,68900.0,0.33,276.0,2700.0,24.203076713659023,4.371481796905385,11803.00085164454,17.379932239112254,5.476386222697723,6.823144474546773,1.1049044257923375,6068,110,1640,3312,72.32441395109625,41.752437290143575,0.000741252151881,False
0.38,0.9575584652956388,2.4000000000000004,4988.0,30.1938,0.3,68900.0,0.33,276.0,2700.0,38.863163806578775,7.269077475191453,19626.50918301692,25.9619755777389,10.591169984611344,12.901188228839874,3.322092509419892,3841,104,1276,1919,81.75882210284081,47.11854766301163,0.0010241394912548,False
0.39,0.7270108326730854,2.4000000000000004,4989.0,30.1938,0.3,68900.0,0.33,276.0,2700.0,24.11419982689991,4.578031543166623,12360.685166549882,17.60495430195729,5.594708673771597,6.509245524942621,1.0166771306049744,2399,76,796,1199,60.78089541242938,35.05665551554539,0.0007044086746266,False
0.4,1.0088128036390602,2.4000000000000004,4990.0,30.1938,0.3,68900.0,0.33,276.0,2700.0,41.8398193196206,8.233922577370953,22231.59095890157,28.00137518652344,11.973815902810593,13.838444133097166,3.73989332543964,3961,106,1314,1984,83.38962556316606,48.02755658220721,0.0010497404767796,False
0.4100000000000001,0.90530036871949,2.4000000000000004,4991.0,30.1938,0.3,68900.0,0.33,276.0,2700.0,34.50237918402295,6.928639927872663,18707.32780525619,23.95061269277144,9.287300451007356,10.55176649125151,2.3586605231346933,3083,92,1022,1544,73.28091036862247,42.26867965476769,0.0008892109064678,False
0.42,0.7601423581686009,2.4000000000000004,4992.0,30.1938,0.1,68900.0,0.33,276.0,2700.0,25.306846887494647,5.159268302027772,13930.024415474983,18.723731799195587,6.196444898844069,6.58311508829906,1.0371765968162974,40872,224,6774,25753,67.183751268301,38.76253779812965,0.0007201566597693,False
0.43,0.8440699623861463,2.4000000000000004,4993.0,30.1938,0.3,68900.0,0.33,276.0,2700.0,30.07981905403552,6.300642025211661,17011.733468071485,21.681237450095704,7.890752883118066,8.398581603939814,1.5901108579064047,3022,86,970,1533,65.47549000089117,37.66258638956627,0.0007874850581365,False
0.44,1.1218103394823846,2.4000000000000004,4994.0,30.1938,0.3,68900.0,0.33,276.0,2700.0,48.85388434725107,10.569445603992971,28537.503130781028,32.7307565137269,15.402084718415756,16.123127833524165,4.8326391144227845,4626,114,1534,2317,82.37934987849941,47.33850876583827,0.0011133583424521,False
0.45,1.090021792464458,2.4000000000000004,4995.0,30.1938,0.3,68900.0,0.33,276.0,2700.0,46.166680511711895,10.196651361429383,27530.95867585934,31.36784331685536,14.383351318791352,14.79883719485654,4.186699957361967,4214,110,1394,2111,78.7357860599544,45.227452696701896,0.0010522500169561,False
0.46,0.8198522349254116,2.4000000000000004,4996.0,30.1938,0.2,68900.0,0.33,276.0,2700.0,27.863371866920108,6.204715487705081,16752.73181680372,20.809663047242346,7.376266107283919,7.053708819677766,1.171550619578838,7513,120,1878,4224,65.73755666968084,37.90623845849154,0.0007280837237589,False
0.4700000000000001,0.8297646021105849,2.4000000000000004,4997.0,30.1938,0.1,68900.0,0.33,276.0,2700.0,28.21621327358296,6.413363736576181,17316.082088755687,21.164618386699765,7.584296312422564,7.051594886883198,1.1709325758463835,50765,240,7742,32554,67.99703696625316,38.48995239186687,0.0007313571254874,False
0.4800000000000001,1.0470694103587903,2.4000000000000004,4998.0,30.1938,0.3,68900.0,0.33,276.0,2700.0,42.15877416006827,9.88648245525253,26693.502629181832,29.56662981156841,13.074876898659037,12.592144348499858,3.188394443406505,3736,102,1224,1878,72.47716373928802,41.68979624270988,0.0009414559224383,False
0.49,0.8808055968117601,2.4000000000000004,4999.0,30.1938,0.3,68900.0,0.33,276.0,2700.0,30.843917236115445,7.310356233446829,19737.96183030644,23.031458275107315,8.7119236756746,7.812458961008129,1.4015674422277709,3297,88,978,1740,66.1474354878016,38.173252962706655,0.0007494855858496,False
0.5,1.0437823031336806,2.4000000000000004,5000.0,30.1938,0.3,68900.0,0.33,276.0,2700.0,41.346604172482095,10.074851655321371,27202.099469367706,29.43069457469751,12.977911707420468,11.915909597784584,2.903060052099095,3915,102,1234,2010,74.12224529553143,42.68714641075882,0.0009063362846907,False
0.02,0.6056780112943444,2.4000000000000004,5002.0,33.21318,0.1,68900.0,0.33,276.0,2700.0,26.88564705339078,0.2688397153730916,725.8672315073474,13.74333018720269,3.6966618224617616,13.142316866188091,3.42782210708867,22354,240,7390,11263,979.7377226147172,557.6194397114672,0.0096017565626972,True
0.03,0.4622673819081409,2.4000000000000004,5003.0,33.21318,0.1,68900.0,0.33,276.0,2700.0,18.522678715249068,0.2777836320609733,750.0158065646278,9.65614985922616,2.024972098200681,8.866528856022908,1.7471884661397077,15692,194,5158,7949,526.3172071266138,299.9933033464283,0.0044965542314258,True
0.04,0.471511491811752,2.4000000000000004,5004.0,33.21318,0.1,68900.0,0.33,276.0,2700.0,18.75094553567085,0.3748848694264973,1012.1891474515428,9.904020092289471,2.115378624132294,8.846925443381382,1.7404937547057968,15692,194,5148,7964,418.7509492451922,239.33214184106745,0.0035558877345074,True
0.05,0.6879339367172368,2.4000000000000004,5005.0,33.21318,0.2,68900.0,0.33,276.0,2700.0,31.05469687607885,0.7761056225141731,2095.485180788268,16.32087323355145,4.931975631107495,14.7338236425274,4.155870008593322,6762,134,2224,3420,438.2473655086781,251.9015867958097,0.0047280236222422,True
0.06,0.6972979333457979,2.4000000000000004,5006.0,33.21318,0.2,68900.0,0.33,276.0,2700.0,31.339122182150675,0.9397212761223483,2537.2474455303404,16.62508122162937,5.086226814669936,14.714040960521306,4.146505538547587,6584,132,2164,3332,385.3082642781045,220.41103733783,0.0040211165915204,True
0.0699999999999999,0.3921919322556795,2.4000000000000004,5007.0,33.21318,0.08,68900.0,0.33,276.0,2700.0,14.010030335118088,0.4896326842090119,1322.0082473643322,7.847005167445005,1.412422071724423,6.163025167673082,0.922789387515411,17950,204,5896,9100,184.84490677583295,106.26890569120845,0.0016750915648532,False
0.08,0.7012836731975465,2.4000000000000004,5008.0,33.21318,0.2,68900.0,0.33,276.0,2700.0,30.97450774276215,1.237907979418061,3342.351544428765,16.75523451836033,5.152749309411536,14.21927322440182,3.9148413299934735,6658,132,2184,3376,294.8789165729132,168.71925926726536,0.0030894867909462,True
0.09,0.4130834491119407,2.4000000000000004,5009.0,33.21318,0.08,68900.0,0.33,276.0,2700.0,14.557149233122791,0.653544901460881,1764.5712339443785,8.373451203206494,1.581837943417367,6.183698029916297,0.928293041956486,18969,210,6264,9567,150.6145089883053,86.92296474265459,0.0014152235187508,False
0.0999999999999999,0.5118830817273035,2.4000000000000004,5010.0,33.21318,0.1,68900.0,0.33,276.0,2700.0,19.354615428162365,0.9656363763057244,2607.218216025456,11.0117093494915,2.537441438309977,8.342906078670866,1.5718050620042532,15963,198,5258,8070,166.94075264270705,96.08500428459696,0.001671381128911,False
0.11,0.4402286291346385,2.4000000000000004,5011.0,33.21318,0.2,68900.0,0.33,276.0,2700.0,15.42397464368219,0.845530965521235,2282.9336069073343,9.073869612135212,1.8186013830909085,6.350105031546978,0.9730704175696736,3221,88,1052,1637,138.7732824531222,80.05769199151979,0.0012725889088324,False
0.12,0.6312686533059193,2.4000000000000004,5012.0,33.21318,0.3,68900.0,0.33,276.0,2700.0,25.521551225229217,1.527673958776817,4124.719688697407,14.527007130985435,4.058354763790605,10.994544094243782,2.5306808050137883,2540,80,834,1283,184.78503073986292,106.68044913066724,0.0018498618549293,False
0.13,0.7452818082978337,2.4000000000000004,5013.0,33.21318,0.3,68900.0,0.33,276.0,2700.0,32.25401570889351,2.0919096350378714,5648.156014602253,18.218512294652648,5.921960741765183,14.035503414240864,3.830051106727312,3160,90,1034,1603,198.4784328196528,114.59155848019614,0.0021420391029789,False
0.14,0.4460357519388935,2.4000000000000004,5014.0,33.21318,0.1,68900.0,0.33,276.0,2700.0,15.01796368882872,1.045510438057044,2822.878182754019,9.226113623256406,1.871736097923785,5.791850065572314,0.826225659866741,12580,170,4160,6334,109.12931768729509,62.885745936300914,0.0010419158369175,False
0.15,0.6317667154772452,2.4000000000000004,5015.0,33.21318,0.3,68900.0,0.33,276.0,2700.0,24.72393794185858,1.8472267621688203,4987.512257855816,14.542422860085598,4.065593955242116,10.181515081772982,2.218367193073296,2630,80,858,1337,147.6290064674532,85.21265479574978,0.0015039693523904,False
0.16,0.6551620781482594,2.4000000000000004,5016.0,33.21318,0.3,68900.0,0.33,276.0,2700.0,25.82152687082121,2.0571435073262334,5554.28746978083,15.273566988362903,4.414345083860473,10.547959882458306,2.35720157653424,2558,80,838,1295,145.2301538006133,83.7944019498924,0.0014863876093375,False
0.17,0.8078965030602547,2.4000000000000004,5017.0,33.21318,0.3,68900.0,0.33,276.0,2700.0,35.1174806302376,2.9746960904321376,8031.679444166772,20.38482163124093,7.130014579923736,14.732658998996673,4.155318489491599,3465,96,1136,1755,161.69187889879117,93.3363073223351,0.0018593443873344,False
0.18,0.686566668608799,2.4000000000000004,5018.0,33.21318,0.3,68900.0,0.33,276.0,2700.0,27.140138319223837,2.430397936492992,6562.074428531079,16.27663919966683,4.9096908668786,10.863499119557003,2.4792929303856077,2641,82,868,1333,133.86461864147296,77.28385614801252,0.0014186996044963,False
0.19,0.6148879215230123,2.4000000000000004,5019.0,33.21318,0.3,68900.0,0.33,276.0,2700.0,22.699237340096797,2.142062091301881,5783.567646515078,14.02347473704488,3.824525076650029,8.675762603051915,1.6824629853481476,2226,74,734,1119,116.66394927868112,67.31478939432535,0.0011702784578984,False
0.2,0.6357600999705195,2.4000000000000004,5020.0,33.21318,0.3,68900.0,0.33,276.0,2700.0,23.623545368424058,2.345599376023251,6333.118315262778,14.666249153258308,4.123914550808655,8.95729621516575,1.7783151747854036,2490,78,814,1263,111.88874498901006,64.59802191648821,0.0011666880026196,False
0.21,0.7277000874220997,2.4000000000000004,5021.0,33.21318,0.3,68900.0,0.33,276.0,2700.0,28.80263676435869,3.004880667214398,8113.177801478874,17.627947896417993,5.606850895666688,11.1746888679407,2.60197022845229,2812,84,920,1426,119.66860942864923,69.08034814962303,0.0013280925984331,False
0.22,0.6085449429062866,2.4000000000000004,5022.0,33.21318,0.3,68900.0,0.33,276.0,2700.0,21.586536362597293,2.352217880835348,6350.988278255439,13.830307216898602,3.736187639474689,7.756229145698692,1.3839697586393411,2256,74,742,1137,98.56633103178946,56.85571475333772,0.001015914861013,False
0.23,0.925174414481887,2.4000000000000004,5023.0,33.21318,0.3,68900.0,0.33,276.0,2700.0,41.26335877136672,4.719803753496356,12743.47013444016,24.707457480034623,9.770800367076795,16.555901291332095,5.050996613580439,3837,104,1262,1938,136.8893476207857,79.02491243147597,0.0016921669694256,False
0.24,0.6445338406753349,2.4000000000000004,5024.0,33.21318,0.3,68900.0,0.33,276.0,2700.0,23.0963950216339,2.742614484700584,7405.059108691577,14.93971167329255,4.253790648080215,8.15668334834135,1.5111761633796306,2360,76,778,1187,94.6708307540956,54.657019681777776,0.001013062617763,False
0.25,0.7837846206806207,2.4000000000000004,5025.0,33.21318,0.3,68900.0,0.33,276.0,2700.0,31.168713887723595,3.863364312490557,10431.083643724503,19.53894546064385,6.64872535151164,11.629768427079746,2.7853610390210832,3053,90,1012,1529,108.7190803061012,62.738963045275526,0.001250606997449,False
0.26,0.7444911543337338,2.4000000000000004,5026.0,33.21318,0.3,68900.0,0.33,276.0,2700.0,28.447467404172052,3.6613596742226986,9885.671120401286,18.19178764992285,5.907566768806906,10.2556797542492,2.246207094584208,2860,84,942,1441,100.12031622907348,57.635363370286846,0.0011292511272723,False
0.27,0.6767652692314698,2.4000000000000004,5027.0,33.21318,0.3,68900.0,0.33,276.0,2700.0,24.17400079035789,3.2222661278979103,8700.118545324358,15.960918687675829,4.751706249049264,8.213082102682064,1.529440121151354,2531,78,834,1274,89.4474248525075,51.63293924822804,0.0009709421203713,False
0.28,0.7539167173290111,2.4000000000000004,5028.0,33.21318,0.3,68900.0,0.33,276.0,2700.0,28.4802664522092,3.9412611420215513,10641.405083458189,18.51140088828294,6.080539122852279,9.96886556392626,2.139277980830728,2721,82,898,1368,94.01498197769104,54.21510785172283,0.0010748934175161,False
0.29,0.6612583280132447,2.4000000000000004,5029.0,33.21318,0.1,68900.0,0.33,276.0,2700.0,22.796845319097468,3.2544623691168653,8787.048396615537,15.466344256390746,4.508043699235859,7.3305010627067215,1.253581330118994,29425,214,6174,17572,86.01479709026249,49.66026523200042,0.0009007401732863,False
0.3,0.85371295445274,2.4000000000000004,5030.0,33.21318,0.3,68900.0,0.33,276.0,2700.0,34.235002473567725,5.078701703270547,13712.494598830475,22.032383284902146,8.101516054099587,12.20261918866558,3.02281435082904,3144,92,1044,1572,100.06646959812812,57.67222874394926,0.0011890109799076,False
0.31,0.7588545471098826,2.4000000000000004,5031.0,33.21318,0.3,68900.0,0.33,276.0,2700.0,27.98004884973838,4.274513447214053,11541.186307477945,18.679729970346127,6.172360607466656,9.300318879392254,1.8978471602526028,2772,82,910,1401,86.56899643853029,49.77526044646381,0.0009921890361906,False
0.32,0.8162867035661716,2.4000000000000004,5032.0,33.21318,0.3,68900.0,0.33,276.0,2700.0,31.26151805009188,4.9332137492994805,13319.677123108597,20.682587605815247,7.302295241785559,10.57893044427663,2.369081492486079,3089,90,1028,1541,91.05081662328018,52.48486700443896,0.0010585864097787,False
0.33,0.8369856310744683,2.4000000000000004,5033.0,33.21318,0.3,68900.0,0.33,276.0,2700.0,32.299906511049855,5.25421829752849,14186.389403326924,21.42475339807793,7.738065067429952,10.875153112971924,2.4838467699014624,3058,90,1014,1531,91.00993566261494,52.42284064177305,0.001064758139301,False
0.34,0.7641549061660114,2.4000000000000004,5034.0,33.21318,0.3,68900.0,0.33,276.0,2700.0,27.51798765780493,4.595739796722376,12408.497451150415,18.861099490327177,6.271850233299252,8.656888167477756,1.6761104365768755,2572,80,854,1285,80.97540858521117,46.66752377413263,0.0009274711662666,False
0.3500000000000001,0.8905330528990235,2.4000000000000004,5035.0,33.21318,0.3,68900.0,0.33,276.0,2700.0,35.217309272279365,6.073231932633781,16397.72621811121,23.394671200498653,8.937725815786905,11.822638071780712,2.8644938831531244,3306,94,1094,1659,90.32128264761744,52.08628548129461,0.0010988531684627,False
0.36,0.9837630291531568,2.4000000000000004,5036.0,33.21318,0.3,68900.0,0.33,276.0,2700.0,41.29185333737613,7.334817502830455,19804.007257642228,26.996401001154727,11.28500787822368,14.295452336221404,3.950190375393224,4101,106,1346,2076,95.81900765610352,55.20401781205989,0.0012235866323868,False
0.37,0.9695365473083668,2.4000000000000004,5037.0,33.21318,0.3,68900.0,0.33,276.0,2700.0,39.99037466059327,7.292131917088231,19688.756176138224,26.432669101859435,10.904960060791325,13.557705558733833,3.612828143703092,3858,104,1280,1932,93.34862124170856,53.7955729311858,0.0011721285609116,False
0.38,1.0705017029257962,2.4000000000000004,5038.0,33.21318,0.3,68900.0,0.33,276.0,2700.0,46.94759097209104,8.80511863663878,23773.820318924703,30.543518061824585,13.779109237729898,16.40407291026645,4.973990601091119,4370,112,1446,2195,99.8383675664396,57.46793643807414,0.0013083570153101,False
0.39,0.7828708598393795,2.4000000000000004,5039.0,33.21318,0.3,68900.0,0.33,276.0,2700.0,27.371117943266817,5.2131305758581705,14075.45255481706,19.50717690366168,6.630885944300154,7.863941039605141,1.4177553684419832,2806,84,920,1410,74.43805168841125,42.88768020525142,0.0008538322170801,False
0.4,1.0171165902823267,2.4000000000000004,5040.0,33.21318,0.3,68900.0,0.33,276.0,2700.0,42.42958208287976,8.351875130022787,22550.062851061524,28.33799595233776,12.207729762399362,14.091586130542002,3.855854632376575,3941,106,1310,1970,90.62162918674944,52.00907397353889,0.0011679294544231,False
0.4100000000000001,0.784939678383318,2.4000000000000004,5041.0,33.21318,0.08,68900.0,0.33,276.0,2700.0,26.999667713821307,5.390584076481321,14554.577006499569,19.57913317038319,6.671317167302856,7.420534543438116,1.2807330908215349,78440,292,11070,51007,87.70397077064528,49.83775997224096,0.0008382064510588,False
0.42,0.907556772267055,2.4000000000000004,5042.0,33.21318,0.3,68900.0,0.33,276.0,2700.0,34.375396721831336,7.063663767238475,19071.892171543885,24.036041664177045,9.341439055510014,10.339355057654291,2.2777752882715383,3150,92,1046,1575,78.15291397656667,44.977784741527145,0.0009610436954108,False
0.43,1.049770395639143,2.4000000000000004,5043.0,33.21318,0.3,68900.0,0.33,276.0,2700.0,43.851382917967385,9.261528255957025,25006.12629108396,29.67852977037195,13.1548870093714,14.172853147595436,3.893358753414377,3890,106,1296,1940,87.2288106408795,50.136969454532434,0.0011439857237521,False
0.44,0.8563765660174516,2.4000000000000004,5044.0,33.21318,0.3,68900.0,0.33,276.0,2700.0,30.587224986016302,6.550780544521327,17687.107470207582,22.12978959790112,8.160331451726714,8.457435388115186,1.6095509072053868,3002,86,958,1527,70.4419453787156,40.462044114788746,0.0008613060358921,False
0.45,0.8469945978179154,2.4000000000000004,5045.0,33.21318,0.3,68900.0,0.33,276.0,2700.0,29.754546710185306,6.503921256086091,17560.587391432447,21.78749000730875,7.954317920972925,7.967056702876551,1.450396664886834,3153,86,976,1631,69.28282032782829,39.82621729441021,0.0008409013910577,False
0.46,1.0376538671761728,2.4000000000000004,5046.0,33.21318,0.3,68900.0,0.33,276.0,2700.0,42.08199575200752,9.474998981275183,25582.497249443,29.177983964172743,12.798322422997837,12.904011787834772,3.32332344172265,4241,106,1348,2169,81.52072862932538,46.8410784020286,0.0010629364103636,False
0.4700000000000001,1.0167138938260665,2.4000000000000004,5047.0,33.21318,0.3,68900.0,0.33,276.0,2700.0,40.32192159977445,9.258205193231252,24997.154021724386,28.32163137011626,12.19632144696827,12.000290229658187,2.938116253737016,3787,102,1236,1909,78.40908201481155,45.0227355685223,0.0010161404385424,False
0.4800000000000001,0.9505665406013613,2.4000000000000004,5048.0,33.21318,0.3,68900.0,0.33,276.0,2700.0,35.56746978387466,8.304569404966053,22422.337393408343,25.688886026645477,10.410601233139335,9.878583757229183,2.1060318281732844,3180,92,1038,1599,71.47606586625486,41.0664170789744,0.0009138135512181,False
0.49,1.105678275028674,2.4000000000000004,5049.0,33.21318,0.3,68900.0,0.33,276.0,2700.0,46.08354569501565,11.044065205877375,29818.976055868912,32.03593087816088,14.879683323511737,14.047614816854768,3.8356181176343593,4470,110,1402,2299,81.7582923418768,46.92227985572728,0.0010975095469422,False
0.5,1.0427855404971562,2.4000000000000004,5050.0,33.21318,0.3,68900.0,0.33,276.0,2700.0,41.27679680975209,10.05739981463888,27154.97949952498,29.38952804897996,12.948596809402924,11.887268760772134,2.8911969947640426,3913,102,1234,2008,81.91815968562159,47.200523095836616,0.0009960363668264,False
0.02,0.5386395014224027,2.4000000000000004,5052.0,36.23256,0.1,68900.0,0.33,276.0,2700.0,22.969493913696727,0.2296781839761492,620.1310967356029,11.768405002145952,2.8421584701489797,11.201088911550777,2.61248028617283,18766,218,6210,9445,927.122628569247,527.9412758144128,0.0087758193115126,True
0.04,0.4252943045191715,2.4000000000000004,5054.0,36.23256,0.08,68900.0,0.33,276.0,2700.0,16.361832716004066,0.3271026130335295,883.1770551905297,8.686232390285728,1.6859907949799335,7.675600325718339,1.358888181946404,21178,224,6948,10750,429.6077506718644,245.3438151316011,0.0033817173097044,True
0.05,0.5011635146269807,2.4000000000000004,5055.0,36.23256,0.1,68900.0,0.33,276.0,2700.0,20.074850198101597,0.5016094555647407,1354.3455300248,10.713598577373496,2.421001070087017,9.361251620728098,1.919391614522276,16720,202,5482,8491,393.9958920396474,224.922762253194,0.003369253230872,True
0.06,0.660269546520761,2.4000000000000004,5056.0,36.23256,0.2,68900.0,0.33,276.0,2700.0,29.01482378539301,0.8699923242196753,2348.9792753931238,15.435013277324876,4.492766356049576,13.579810508068134,3.6227740318299007,5911,126,1942,2992,409.358317519692,234.1723196216188,0.0040605877890232,True
0.0699999999999999,0.63555932868341,2.4000000000000004,5057.0,36.23256,0.2,68900.0,0.33,276.0,2700.0,27.207893909111977,0.9515579092987974,2569.2063551067527,14.660014097369324,4.120970615015886,12.547879811742654,3.1694127057170887,5587,120,1832,2833,338.6063194689578,193.96691143669617,0.003353672497246,True
0.08,0.4921380071262154,2.4000000000000004,5058.0,36.23256,0.2,68900.0,0.33,276.0,2700.0,18.814228989602643,0.7514968292916823,2029.041439087542,10.464838985601428,2.325429536380052,8.349390004001215,1.5739327070883693,4070,98,1328,2072,223.58793307763412,129.01196943032656,0.0021350809498245,False
0.09,0.5367374884913034,2.4000000000000004,5059.0,36.23256,0.2,68900.0,0.33,276.0,2700.0,20.95858859490905,0.9416096727412632,2542.3461164014107,11.71402030791195,2.819826546263491,9.2445682869971,1.8782168735222275,4451,106,1458,2258,219.4565521599505,126.6826942342195,0.002134814256128,False
0.0999999999999999,0.5728514352986644,2.4000000000000004,5060.0,36.23256,0.2,68900.0,0.33,276.0,2700.0,22.702288177897493,1.1330200137924815,3059.1540372397003,12.762160817031562,3.261693650952601,9.940127360865931,2.12867363716012,4676,108,1530,2375,207.67775311177675,119.67215481770374,0.0021034412481865,False
0.11,0.5934604760026015,2.4000000000000004,5061.0,36.23256,0.2,68900.0,0.33,276.0,2700.0,23.60259096389901,1.2953548631331466,3497.458130459496,13.374990271786896,3.5310061233575745,10.227600692112118,2.235651260224428,5090,112,1662,2591,196.3245972359016,113.3428525333662,0.0020187403572152,False
0.12,0.4797170750918087,2.4000000000000004,5062.0,36.23256,0.08,68900.0,0.33,276.0,2700.0,17.17629122808187,1.0269583589479805,2772.787569159547,10.125842736528226,2.197555820754354,7.050448491553643,1.1705974618063744,22390,230,7414,11257,144.91100974404068,83.61961534580823,0.0014229887943279,False
0.13,0.444573247562261,2.4000000000000004,5063.0,36.23256,0.08,68900.0,0.33,276.0,2700.0,15.174866343700051,0.9817649263005452,2650.7653010114723,9.187691633311267,1.858270969086332,5.987174710388786,0.8765060427857867,19522,212,6396,9874,128.29126864470504,74.06896984190998,0.0012090091179634,False
0.14,0.6999781562697707,2.4000000000000004,5064.0,36.23256,0.3,68900.0,0.33,276.0,2700.0,29.09733728426661,2.0310665897376974,5483.879792291783,16.71255923242861,5.13090292843327,12.384778051838005,3.0998363386955723,2746,84,900,1390,189.2307734839565,109.18722691879258,0.0020034265975972,False
0.15,0.7658809132505501,2.4000000000000004,5065.0,36.23256,0.3,68900.0,0.33,276.0,2700.0,32.97411960210454,2.465990386687263,6658.17404405561,18.920312997288598,6.304455715338732,14.053806604815945,3.838465328651469,3346,94,1094,1699,190.70881379384835,110.09256015938222,0.0021192218910769,False
0.16,0.8204372174706761,2.4000000000000004,5066.0,36.23256,0.3,68900.0,0.33,276.0,2700.0,36.27086676528161,2.893090698883132,7811.344886984456,20.830542320243502,7.388445503525259,15.440324445038105,4.495354804642127,3591,98,1176,1821,190.02502540956365,109.66365496178318,0.0021935911823855,False
0.17,0.6495338721562987,2.4000000000000004,5067.0,36.23256,0.3,68900.0,0.33,276.0,2700.0,25.217291273699363,2.1331799951263863,5759.585986841244,15.09641955603312,4.328881187132377,10.120871717666244,2.195701192005991,2586,80,848,1308,146.22032979861436,84.35402216481182,0.0015158053113135,False
0.18,0.831810122286699,2.4000000000000004,5068.0,36.23256,0.3,68900.0,0.33,276.0,2700.0,36.40614299826448,3.2643383576066447,8813.71356553794,21.238174491467824,7.627664178675045,15.167968506796656,4.3633258210684005,3592,98,1176,1822,171.16121061753614,98.73473232474645,0.0020027712480478,False
0.19,0.75809996109767,2.4000000000000004,5069.0,36.23256,0.3,68900.0,0.33,276.0,2700.0,31.27635215216401,2.956887998448268,7983.597595810324,18.65396670056784,6.158274865720504,12.622385451596166,3.201386867272236,2939,86,962,1490,150.0013179537282,86.56248977173162,0.0016770608411485,False
0.2,0.7137520636232331,2.4000000000000004,5070.0,36.23256,0.3,68900.0,0.33,276.0,2700.0,28.228945959942195,2.806139435174787,7576.576474971925,17.164964633057377,5.364210392918903,11.063981326884818,2.558070957744116,2603,82,854,1316,136.48025227337985,78.7818704187048,0.0014789140841851,False
0.21,0.8827512120550305,2.4000000000000004,5071.0,36.23256,0.3,68900.0,0.33,276.0,2700.0,38.9362308759607,4.068908048932606,10986.051732118036,23.103915230444223,8.75680450322263,15.83231564551648,4.6878964542900246,3776,102,1242,1907,155.3598438262937,89.69636986901978,0.0018821510959918,False
0.22,0.7452801486415548,2.4000000000000004,5072.0,36.23256,0.3,68900.0,0.33,276.0,2700.0,29.60679757078536,3.2344466137361065,8733.005857087488,18.218456180678583,5.921930505342571,11.388341390106774,2.6874838916064645,2844,84,936,1434,129.7729604481091,74.8983487652207,0.0014319987358076,False
0.23,0.5897973206494163,2.4000000000000004,5073.0,36.23256,0.08,68900.0,0.33,276.0,2700.0,20.31766691678284,2.311049190219209,6239.832813591865,13.265282795709602,3.482212496857912,7.052384121073239,1.1711633066387024,41995,252,8780,25113,102.27097114863558,59.03380706672381,0.0010394559521966,False
0.24,0.7131250955215233,2.4000000000000004,5074.0,36.23256,0.3,68900.0,0.33,276.0,2700.0,27.091775413870543,3.222060131768984,8699.562355776256,17.144268220443152,5.353454996138311,9.947507193427391,2.131394864369327,2543,80,836,1283,115.25407960588323,66.52560428977034,0.0012498912628178,False
0.25,0.5720494557149916,2.4000000000000004,5075.0,36.23256,0.1,68900.0,0.33,276.0,2700.0,18.89825218382051,2.3295565995026712,6289.802818657213,12.738528969929668,3.251468135743552,6.159723213890842,0.9219115362408808,20938,192,5078,11931,93.67393813280322,54.06139834463822,0.0009358270846377,False
0.26,0.7359332383736816,2.4000000000000004,5076.0,36.23256,0.3,68900.0,0.33,276.0,2700.0,27.926873116918475,3.5936824168797394,9702.942525575296,17.903529600949526,5.753117735706177,10.02334351596895,2.159435318826438,2733,82,898,1380,108.34944188719936,62.505441664674976,0.0012131959715873,False
0.27,0.7790745036820905,2.4000000000000004,5077.0,36.23256,0.3,68900.0,0.33,276.0,2700.0,30.30873807081377,4.050455660759353,10936.230284050254,19.375414382395757,6.557079976473696,10.93332368841802,2.506624315714343,2941,88,972,1477,110.6009502535811,63.81953881430132,0.0012618789096972,False
0.28,0.6645636707252955,2.4000000000000004,5078.0,36.23256,0.3,68900.0,0.33,276.0,2700.0,23.228771449002394,3.2060518415725845,8656.339972245978,15.571257206919087,4.559338578501586,7.657514242083305,1.3532867369290011,2339,76,770,1178,93.54626458345692,53.974620030065566,0.0010024220076025,False
0.29,0.6336138608224097,2.4000000000000004,5079.0,36.23256,0.1,68900.0,0.33,276.0,2700.0,21.264941485006474,3.0323363131736727,8187.308045568916,14.599649059499852,4.09250876328984,6.665292425506623,1.0601724501161671,27374,204,5676,16402,91.43036241820424,52.782983980894336,0.0009357426864193,False
0.3,0.6205980596926791,2.4000000000000004,5080.0,36.23256,0.1,68900.0,0.33,276.0,2700.0,20.324350339550584,2.9921038831679727,8078.680484553526,14.198234768908902,3.9050996170410186,6.126115570641682,0.912995733873046,28023,200,5526,17020,87.94351645065947,50.7593427205902,0.0008897917951515,False
0.31,0.6924591817688883,2.4000000000000004,5081.0,36.23256,0.2,68900.0,0.33,276.0,2700.0,24.0731043995862,3.668937057440465,9906.130055089256,16.46760962720531,5.006163396934048,7.605494772380887,1.3372263394935833,4973,112,1644,2493,88.89341464755876,51.14395608840955,0.000968150327342,False
0.32,0.7307984297811156,2.4000000000000004,5082.0,36.23256,0.3,68900.0,0.33,276.0,2700.0,26.046792969026,4.098857736328935,11066.915888088122,17.731456319181564,5.661628603307993,8.315336649844433,1.5627708669790588,2595,80,860,1299,90.68319125098732,52.31986667265177,0.0010078373203854,False
0.33,0.8438221816030529,2.4000000000000004,5083.0,36.23256,0.3,68900.0,0.33,276.0,2700.0,32.73818951153533,5.32653499260842,14381.644480042734,21.67224540545031,7.885381803184181,11.06594410608502,2.558846810575761,3085,90,1026,1540,99.4247068171232,57.37441786457977,0.0011739998797652,False
0.34,0.9075549405851788,2.4000000000000004,5084.0,36.23256,0.3,68900.0,0.33,276.0,2700.0,36.64236097881057,6.146883261293337,16596.58480549201,24.035972263561867,9.341395029191682,12.606388715248706,3.194511767898345,3231,94,1070,1620,105.27365676991592,60.71623700887483,0.001258499058927,False
0.3500000000000001,0.7791410993302543,2.4000000000000004,5085.0,36.23256,0.3,68900.0,0.33,276.0,2700.0,28.16326694796416,4.838774525878621,13064.691219872277,19.37772263814013,6.558370371611942,8.78554430982403,1.7195958457333216,2764,84,920,1378,88.7828927106566,51.19579752125557,0.0010098023885983,False
0.36,1.0059494639718785,2.4000000000000004,5086.0,36.23256,0.3,68900.0,0.33,276.0,2700.0,42.86971778983466,7.61883310427299,20570.84938153707,27.885702293899605,11.893804109061712,14.984015495935054,4.274971004788722,4082,108,1352,2048,107.94030303601896,62.06855339035206,0.0013763553733273,False
0.37,1.0572369116208316,2.4000000000000004,5087.0,36.23256,0.3,68900.0,0.33,276.0,2700.0,46.2871334854002,8.45703229967659,22833.98720912679,29.988816368219283,13.377639734344918,16.298317117180915,4.920607434668328,4380,112,1448,2202,110.41719844780758,63.57953977375391,0.001437000199856,False
0.38,1.0100150058474575,2.4000000000000004,5088.0,36.23256,0.3,68900.0,0.33,276.0,2700.0,42.53823560741637,7.967341117350436,21511.821016846177,28.05000304345173,12.00750844451773,14.488232563964631,4.040167327167294,4098,108,1354,2061,102.39345285114076,58.97392139674281,0.001319289987668,False
0.39,0.9036523307968396,2.4000000000000004,5089.0,36.23256,0.3,68900.0,0.33,276.0,2700.0,34.9494874839565,6.690912636292653,18065.464117990163,23.888297717692083,9.247880291114758,11.06118976626442,2.5569676548221043,3081,92,1022,1542,90.16284035485614,51.86273229628245,0.0011109318825311,False
0.4,0.8989264795040153,2.4000000000000004,5090.0,36.23256,0.3,68900.0,0.33,276.0,2700.0,34.36173511412144,6.738305736271126,18193.42548793204,23.709984173961622,9.13540931116201,10.651750940159811,2.397103574890883,3114,92,1032,1560,89.30251672571995,51.517096844999536,0.0010800855442291,False
0.4100000000000001,1.0386917493496963,2.4000000000000004,5091.0,36.23256,0.3,68900.0,0.33,276.0,2700.0,43.66806329477733,8.807605170577313,23780.533960558743,29.220715413710323,12.828627905176925,14.44734788106701,4.02102273459961,4191,108,1388,2103,98.7223997849699,56.83885286411246,0.0012815578370583,False
0.42,0.7786317564646837,2.4000000000000004,5092.0,36.23256,0.08,68900.0,0.33,276.0,2700.0,26.384356321539613,5.385545283177217,14540.972264578486,19.360071261416604,6.548504962413355,7.02428506012301,1.1629596792361374,81330,290,11136,53102,82.6831103818174,47.15417805361697,0.0008894045320624,False
0.43,0.9687970176132844,2.4000000000000004,5093.0,36.23256,0.3,68900.0,0.33,276.0,2700.0,38.17641690265479,8.041410562664804,21711.80851919497,26.40350392710274,10.885423102173688,11.772912975552046,2.844012539508883,3599,100,1202,1790,88.68038073964883,50.90592027071345,0.001121619400591,False
0.44,0.7987899505778251,2.4000000000000004,5094.0,36.23256,0.1,68900.0,0.33,276.0,2700.0,27.091731532607703,5.781771984771432,15610.784358882867,20.06363478029881,6.9458431660384505,7.0280967523088975,1.164071181267018,46408,234,7410,29491,280.59295282956646,148.59884201863227,0.0008834667292609,True
0.45,0.8311024313840631,2.4000000000000004,5095.0,36.23256,0.2,68900.0,0.33,276.0,2700.0,28.78473147589902,6.285712828371697,16971.42463660358,21.21271430619284,7.612643125511906,7.572017169706182,1.3269302971402093,7915,122,1980,4451,80.89386298346683,46.62914814484769,0.000905442600615,False
0.46,0.9546893711086906,2.4000000000000004,5096.0,36.23256,0.3,68900.0,0.33,276.0,2700.0,36.38471798120507,8.16462509399062,22044.48775377468,25.84976628027946,10.516843650385526,10.53495170092561,2.352218556394906,3227,94,1066,1618,83.19901678583187,47.75050483353312,0.0010369813819134,False
0.4700000000000001,0.7746739938310471,2.4000000000000004,5097.0,36.23256,0.1,68900.0,0.33,276.0,2700.0,24.984000946570188,5.653793839728225,15265.243367266208,19.22313639271817,6.472153503483463,5.7608645538520165,0.8183596637552384,44204,222,6754,28351,76.2259103266038,43.98481993668879,0.0008110505554675,False
0.4800000000000001,0.9017252312381768,2.4000000000000004,5098.0,36.23256,0.3,68900.0,0.33,276.0,2700.0,32.40994050429083,7.546762377865935,20376.258420238024,23.81551754937436,9.201915305429852,8.594422954916471,1.6551529275639163,3124,88,958,1623,74.84659180783392,43.09517328883532,0.0009386754323,False
0.49,1.0564210281217217,2.4000000000000004,5099.0,36.23256,0.3,68900.0,0.33,276.0,2700.0,42.52797395421511,10.172950129381247,27466.965349329366,29.95484244592349,13.353186214430416,12.573131508291617,3.1802360850491684,3933,104,1280,1979,84.68571224055009,48.46384773686498,0.0011230653313378,False
0.5,0.8689303295819906,2.4000000000000004,5100.0,36.23256,0.08,68900.0,0.33,276.0,2700.0,29.86501393648192,7.20445409632133,19452.02606006759,22.59127210554609,8.44103612559179,7.27374183093583,1.23658202927046,104512,308,12386,69717,89.6745076918407,51.190907098097725,0.0008846840823474,False
0.02,0.4990571525568595,2.4000000000000004,5102.0,39.25194,0.1,68900.0,0.33,276.0,2700.0,20.76330060470085,0.2076162508861709,560.5638773926615,10.655360218335352,2.398495707517468,10.1079403863655,2.190879456631297,17063,206,5644,8591,937.278848583618,536.1373634971076,0.0086255411551395,True
0.03,0.639254558903712,2.4000000000000004,5103.0,39.25194,0.1,68900.0,0.33,276.0,2700.0,28.626801100079064,0.4293454678334201,1159.2327631502342,14.774933645444618,4.17535496355437,13.851867454634446,3.74600949572095,24071,250,7928,12173,938.9287389761844,534.3674504225586,0.0082380168998491,True
0.04,0.3750984074723362,2.4000000000000004,5104.0,39.25194,0.1,68900.0,0.33,276.0,2700.0,13.88867872327702,0.2776395331789876,749.6267395832665,7.424424184097776,1.2819112542008235,6.464254539179245,1.004271721021836,11679,164,3826,5934,381.97870542508,218.5557117626588,0.003148565833993,True
0.05,0.736512778270102,2.4000000000000004,5105.0,39.25194,0.2,68900.0,0.33,276.0,2700.0,34.197888953536435,0.8546854244506114,2307.6506460166506,17.92299225862871,5.763499184682305,16.274896694907724,4.908813760231694,7301,140,2394,3704,570.4765895831438,325.21831741043275,0.00623891927405,True
0.06,0.7597322559456771,2.4000000000000004,5106.0,39.25194,0.2,68900.0,0.33,276.0,2700.0,35.414240868128225,1.0619748367018111,2867.33205909489,18.70971493482908,6.188769129130083,16.70452593329915,5.126794292428272,7217,140,2372,3653,478.453497478082,273.2926537755683,0.0054775808310238,True
0.0699999999999999,0.5275866742972534,2.4000000000000004,5107.0,39.25194,0.1,68900.0,0.33,276.0,2700.0,20.98510105010873,0.7337601592336855,1981.152429930951,11.453639960481429,2.7138266739125023,9.531461089627308,1.9800665146788168,17632,208,5790,8941,311.87837165846173,178.82356919556457,0.0028534244395541,True
0.08,0.5889973198694383,2.4000000000000004,5108.0,39.25194,0.2,68900.0,0.33,276.0,2700.0,24.172540855657022,0.9658293039338552,2607.739120621409,13.241368520339291,3.471609827066522,10.931172335317733,2.505780523132666,4994,112,1634,2537,291.275223445305,167.1068163653071,0.0029099576171847,True
0.09,0.7034941715672847,2.4000000000000004,5109.0,39.25194,0.2,68900.0,0.33,276.0,2700.0,30.80853301957542,1.384857171851249,3739.114363998373,16.827589885621,5.18986667608773,13.980943133954424,3.805009504236481,6650,132,2176,3380,310.60451415791186,177.92059343277947,0.0032893911253494,True
0.0999999999999999,0.460132663074874,2.4000000000000004,5110.0,39.25194,0.08,68900.0,0.33,276.0,2700.0,16.6596898376697,0.8308900967810907,2243.403261308945,9.599215060221695,2.004419723507399,7.060474777448004,1.173529626726308,21928,228,7238,11065,188.30378653072597,108.71506024502494,0.0017300318162084,False
0.11,0.501705653371896,2.4000000000000004,5111.0,39.25194,0.2,68900.0,0.33,276.0,2700.0,18.563488144363458,1.0182042080583449,2749.1513617575306,10.728606100267127,2.4268133947197925,7.83488204409633,1.408609186661448,4035,98,1318,2052,182.04452561936748,105.0965932748305,0.0017640834518297,False
0.12,0.7078992276663174,2.4000000000000004,5112.0,39.25194,0.3,68900.0,0.33,276.0,2700.0,30.1807146942794,1.8072237669198243,4879.504170683525,16.972145049246997,5.2643113613233,13.208569645032403,3.457087594403476,2988,88,980,1512,242.1983888169545,139.80736336236782,0.0025421977448655,False
0.13,0.6332224840684038,2.4000000000000004,5113.0,39.25194,0.3,68900.0,0.33,276.0,2700.0,25.35815106164508,1.6436784329669738,4437.931769010829,14.587516701150552,4.086797174318382,10.770634360494526,2.443118741351408,2576,80,844,1304,202.6732633620749,117.0013215200077,0.0020369473364769,False
0.14,0.6939748224097491,2.4000000000000004,5114.0,39.25194,0.3,68900.0,0.33,276.0,2700.0,28.727084278695774,2.005148879347737,5413.901974238891,16.516871113094236,5.031159699405879,12.210213165601536,3.0260108200581413,2749,84,904,1387,203.4773495540293,117.41312392686244,0.0021448290169174,False
0.15,0.6038571336880179,2.4000000000000004,5115.0,39.25194,0.3,68900.0,0.33,276.0,2700.0,23.120700127979223,1.7269839261278637,4662.856600545232,13.688195630877631,3.671687109571482,9.43250449710159,1.9447031834436184,2393,76,784,1211,170.8385925225382,98.62246948349345,0.0016772259265389,False
0.16,0.5015051879801272,2.4000000000000004,5116.0,39.25194,0.2,68900.0,0.33,276.0,2700.0,17.3383957964029,1.3784930213728297,3721.93115770664,10.72305594246528,2.424663236818497,6.61533985393762,1.0461702154456674,3556,92,1174,1789,127.75695743959542,73.6325380813781,0.0012574207219869,False
0.17,0.5922310107254216,2.4000000000000004,5117.0,39.25194,0.3,68900.0,0.33,276.0,2700.0,21.94554549544504,1.8550816039747704,5008.7203307318805,13.338131537925332,3.5145846993943266,8.607413957519706,1.659503095419556,2243,74,740,1127,148.99786312917826,86.00838781989106,0.0014592099142551,False
0.18,0.6747143488050287,2.4000000000000004,5118.0,39.25194,0.3,68900.0,0.33,276.0,2700.0,26.430799266028608,2.3665574217054206,6389.705038604636,15.89516035727628,4.719039125507246,10.535638908752327,2.3524817038018253,2712,82,894,1365,156.87796840040832,90.57053070365028,0.0016389324499556,False
0.19,0.8386837713106889,2.4000000000000004,5119.0,39.25194,0.3,68900.0,0.33,276.0,2700.0,36.55585051967599,3.458440343361905,9337.788927077145,21.48611862900808,7.774499396354144,15.069731890667905,4.316059052992238,3598,98,1174,1831,177.28470273063064,102.23961855937424,0.0020872011009425,False
0.2,0.6302190615256258,2.4000000000000004,5120.0,39.25194,0.3,68900.0,0.33,276.0,2700.0,23.3079817445668,2.314043013637537,6247.91613682135,14.494541192792248,4.043124376926288,8.813440551774548,1.729081363288751,2492,78,814,1265,131.65206129095847,76.00866506452977,0.0013623517044962,False
0.21,0.7133181854047748,2.4000000000000004,5121.0,39.25194,0.3,68900.0,0.33,276.0,2700.0,27.9239291119816,2.912616363714805,7864.064182029973,17.150641124942734,5.356765996144044,10.773287987038865,2.444149632429239,2609,82,856,1319,140.5617846679205,81.13508279739746,0.0015309663352279,False
0.22,0.6804846160165501,2.4000000000000004,5122.0,39.25194,0.3,68900.0,0.33,276.0,2700.0,25.689035262730982,2.8034927598501254,7569.430451595338,16.080441197684863,4.81129260572861,9.608594065046123,2.007799845878485,2638,80,866,1333,128.24670798858926,74.03208716123729,0.0013788964504772,False
0.23,0.7289093216483482,2.4000000000000004,5123.0,39.25194,0.3,68900.0,0.33,276.0,2700.0,28.31959395779856,3.2312707999360155,8724.431159827242,17.668316897352728,5.62819161768706,10.651277060445828,2.3969208177510444,2834,84,932,1430,129.50621964513826,74.63531805966883,0.0014482873540869,False
0.24,0.6676673125885665,2.4000000000000004,5124.0,39.25194,0.3,68900.0,0.33,276.0,2700.0,24.41746995751931,2.9011434770068343,7833.087387918453,15.670018048833304,4.607819380760145,8.747451908686006,1.706675903753311,2352,76,772,1188,114.94168442099772,66.34182000852711,0.0012494970674996,False
0.25,0.8210963407682317,2.4000000000000004,5125.0,39.25194,0.3,68900.0,0.33,276.0,2700.0,33.5645427935391,4.162842925717497,11239.67589943724,20.854078139271643,7.402183155172842,12.710464654267454,3.2393402294553457,3181,92,1056,1591,133.60350756720155,77.04512155365082,0.0015753417093797,False
0.26,0.9355442315304076,2.4000000000000004,5126.0,39.25194,0.3,68900.0,0.33,276.0,2700.0,41.02805869738829,5.296836542340731,14301.458664319976,25.10630267804841,10.02907782128909,15.921756019339874,4.732241278948358,3940,104,1296,1990,144.56537814177517,83.41976304812982,0.0018137418711313,False
0.27,0.7069413615001265,2.4000000000000004,5127.0,39.25194,0.3,68900.0,0.33,276.0,2700.0,25.92873421968648,3.459155140857272,9339.718880314633,16.940670471308206,5.248069393870251,8.988063748378273,1.7889142530129796,2534,80,832,1280,109.47658340533032,63.17186327844325,0.0012097103196041,False
0.28,0.970349796703359,2.4000000000000004,5128.0,39.25194,0.3,68900.0,0.33,276.0,2700.0,42.86390376061626,5.954970365198544,16078.419986036068,26.46475746330149,10.926469459740204,16.399146297314772,4.97149909454166,4093,108,1350,2062,142.0077470620543,81.93997755805175,0.0017798504466202,False
0.29,0.6517786312321411,2.4000000000000004,5129.0,39.25194,0.1,68900.0,0.33,276.0,2700.0,22.2672050604314,3.17766453161006,8579.69423534716,15.16697776596917,4.362848181344551,7.100227294462231,1.185183649734491,29049,210,6086,17350,101.43485700167332,58.561087124920974,0.0010475077420729,False
0.3,0.6467719603185349,2.4000000000000004,5130.0,39.25194,0.08,68900.0,0.33,276.0,2700.0,21.750093742078217,3.2059653935471166,8656.106562577215,15.009779750879092,4.287305897129797,6.740313991199125,1.0813405035826804,51713,258,9110,32158,97.5609855049138,56.227232440476726,0.001012062915039,False
0.31,0.6709121323409317,2.4000000000000004,5131.0,39.25194,0.08,68900.0,0.33,276.0,2700.0,22.852821770813456,3.4797932499802355,9395.441774946636,15.77353016810358,4.658833632376358,7.079291602709876,1.1790403823961224,55774,268,9658,34785,105.77843943800644,58.812136854221976,0.0010277904964178,False
0.32,0.8723632474116132,2.4000000000000004,5132.0,39.25194,0.3,68900.0,0.33,276.0,2700.0,34.88166352094736,5.512437024636359,14883.57996651817,22.718157503717933,8.51880781523736,12.16350601722943,3.006370790601,3189,94,1058,1596,115.971200979204,66.91544309765,0.0013649790784346,False
0.33,0.7788545264464396,2.4000000000000004,5133.0,39.25194,0.3,68900.0,0.33,276.0,2700.0,28.66810893120406,4.654971696853968,12568.423581505716,19.36779059651236,6.552818664929965,9.300318334691704,1.8978469680759968,2916,86,964,1464,99.29882313975882,57.2420178937348,0.0011501177287542,False
0.34,0.8585163196686654,2.4000000000000004,5134.0,39.25194,0.3,68900.0,0.33,276.0,2700.0,33.40579388187832,5.59666685481485,15111.000508000096,22.208167970245384,8.207767584504905,11.197625911632931,2.6111007296900555,3042,90,1012,1518,110.35712314208943,63.68619677993798,0.0012668174239444,False
0.3500000000000001,0.7192855003878256,2.4000000000000004,5135.0,39.25194,0.08,68900.0,0.33,276.0,2700.0,24.63044596313821,4.22053085353408,11395.433304542015,17.348053471847905,5.4596978396892375,7.282392491290306,1.2391669861551575,65353,278,10306,41632,260.625603973652,141.0706515015878,0.0010094008346378,False
0.36,0.7825136099832024,2.4000000000000004,5136.0,39.25194,0.3,68900.0,0.33,276.0,2700.0,28.10943751961388,4.961982655633241,13397.35317020975,19.49476216887649,6.623919225833504,8.614675350737382,1.6619365702002629,2762,84,920,1376,94.33901455229017,54.38942227642208,0.0010739184406986,False
0.37,1.0612997165939697,2.4000000000000004,5137.0,39.25194,0.3,68900.0,0.33,276.0,2700.0,46.5882068681995,8.512730875495379,22984.373363837523,30.15824330343925,13.49982248046633,16.429963564760254,4.987091604970951,4359,112,1440,2193,119.9559115527017,69.06913005757312,0.0015645753274194,False
0.38,0.9476421972894522,2.4000000000000004,5138.0,39.25194,0.3,68900.0,0.33,276.0,2700.0,38.18398112796785,7.140032766255369,19278.08846888949,25.575031868860155,10.335644637796715,12.608949259107693,3.195611871541346,3303,96,1094,1656,106.00057777601886,60.95880707196587,0.0013131147114112,False
0.39,0.8635014661684921,2.4000000000000004,5139.0,39.25194,0.3,68900.0,0.33,276.0,2700.0,32.34887826081372,6.183793837779814,16696.243362005498,22.391218354412054,8.318934562347172,9.957659906401666,2.135140724567358,3039,90,1010,1518,93.93549589576348,54.10625231943719,0.0011351530997795,False
0.4,0.8512926601323338,2.4000000000000004,5140.0,39.25194,0.3,68900.0,0.33,276.0,2700.0,31.308693204251195,6.127697354297075,16544.7828566021,21.94402952782571,8.048298152711967,9.364663676425486,1.920600798414892,3038,88,1010,1517,92.9820858195214,53.5238438724138,0.0010943180882429,False
0.4100000000000001,0.9012304678367804,2.4000000000000004,5141.0,39.25194,0.3,68900.0,0.33,276.0,2700.0,34.236785846150134,6.874193293608738,18560.321892743592,23.796847031864143,9.190136877959144,10.439938814285991,2.3159435843504044,3085,92,1024,1543,93.26941820832432,53.67610255353803,0.001149243914259,False
0.42,0.9998542255353036,2.4000000000000004,5142.0,39.25194,0.3,68900.0,0.33,276.0,2700.0,40.6093517888511,8.372794331312624,22606.544694544085,27.64015367958965,11.724582917560566,12.969198109261448,3.3517885862479417,3829,104,1268,1919,100.79343163074256,58.033737176690224,0.0012911351377845,False
0.43,0.826732998087259,2.4000000000000004,5143.0,39.25194,0.3,68900.0,0.33,276.0,2700.0,29.016299116438294,6.0719852386282565,16394.360144296294,21.05579651225277,7.5202985809401985,7.960502604185525,1.448313342311942,3086,86,974,1583,83.26397897995308,47.91175194368937,0.0009945682425271,False
0.44,0.9322591337697086,2.4000000000000004,5144.0,39.25194,0.3,68900.0,0.33,276.0,2700.0,35.44782227335921,7.620111947736766,20574.302258889267,24.97965836817196,9.946809256302291,10.468163905187248,2.3266973085655254,3281,94,1094,1634,90.59239497982544,52.12482221934981,0.0011316475417489,False
0.45,0.8510296863489732,2.4000000000000004,5145.0,39.25194,0.3,68900.0,0.33,276.0,2700.0,30.00280779516051,6.55978000020554,17711.406000554958,21.93443843787074,8.042528709385552,8.068369357289772,1.4827487091800116,3106,86,972,1598,82.58333127612467,47.59867942815098,0.000997672455007,False
0.46,1.1221274578238096,2.4000000000000004,5146.0,39.25194,0.3,68900.0,0.33,276.0,2700.0,48.23838488719825,10.890968482369054,29405.614902396446,32.74448069748189,15.412466417663389,15.49390418971636,4.521497935294335,4477,112,1484,2237,107.85478211553188,62.09437327852488,0.0014297879555252,False
0.4700000000000001,1.0997612160157606,2.4000000000000004,5147.0,39.25194,0.3,68900.0,0.33,276.0,2700.0,46.2631039711065,10.65438305049427,28766.834236334525,31.7827161674902,14.690874407051748,14.480387803616306,4.036491356557479,4529,112,1452,2305,104.40303389325535,60.050526708351946,0.0013300263936444,False
0.4800000000000001,0.936165690435486,2.4000000000000004,5148.0,39.25194,0.3,68900.0,0.33,276.0,2700.0,34.624007782570814,8.07813852465313,21810.97401656345,25.13029114422736,10.044687810081928,9.493716638343455,1.9665492854287976,3357,92,1072,1709,85.44543606504011,49.33177668642758,0.0010632440179123,False
0.49,0.8602197887892287,2.4000000000000004,5149.0,39.25194,0.1,68900.0,0.33,276.0,2700.0,29.575811148648217,6.999670242017358,18899.109653446867,22.270647673800188,8.245651718636452,7.30516347484803,1.245981476619094,54048,246,7984,34890,89.90653461790194,51.60035284807733,0.0009614396145993,False
0.5,1.0782811229470273,2.4000000000000004,5150.0,39.25194,0.3,68900.0,0.33,276.0,2700.0,43.79347401508521,10.686569115972151,28853.736613124813,30.870891973765325,14.017992497188343,12.922582041319885,3.33142338121619,4798,108,1396,2550,99.6136169002388,57.33579480440073,0.0012398642795708,False
0.02,0.4700093682757347,2.4000000000000004,5152.0,42.27132,0.1,68900.0,0.33,276.0,2700.0,19.194373633531537,0.1919269811744957,518.2028491711385,9.863596228294682,2.1005319303678136,9.330777405236857,1.908604949193318,16064,198,5316,8084,948.9773956377464,545.5222535398232,0.0086029715308936,True
0.03,0.4557007969426648,2.4000000000000004,5153.0,42.27132,0.1,68900.0,0.33,276.0,2700.0,18.178088212804735,0.2726147745243074,736.05989121563,9.481379063793584,1.9621385863804417,8.696709149011154,1.6895238118561342,15094,190,4958,7651,659.6476544112733,376.5363312106008,0.0056208924523111,True
0.04,0.7319802938092086,2.4000000000000004,5154.0,42.27132,0.1,68900.0,0.33,276.0,2700.0,34.2230599914817,0.6843271585430813,1847.68332806632,17.77100322017054,5.682608139769682,16.452056771311156,4.998280981226601,27664,274,9078,14041,915.8772881774664,522.0469660170277,0.0083067263802053,True
0.05,0.711431544623701,2.4000000000000004,5155.0,42.27132,0.2,68900.0,0.33,276.0,2700.0,32.56024836765239,0.8137444098035115,2197.109906469481,17.088412961813393,5.32446761233589,15.471835405838998,4.510723202532378,6804,136,2234,3447,574.1397223535778,331.4520182894878,0.0063486618691343,True
0.06,0.3831440163209184,2.4000000000000004,5156.0,42.27132,0.1,68900.0,0.33,276.0,2700.0,13.807513739140594,0.4137730228321017,1117.187161646675,7.622410527047144,1.342440636672936,6.18510321209345,0.9286676138408344,11981,166,3934,6074,269.2752779705215,154.66231052061795,0.0023897312356257,False
0.0699999999999999,0.5344274001468776,2.4000000000000004,5157.0,42.27132,0.2,68900.0,0.33,276.0,2700.0,21.361965684043035,0.7469504214213872,2016.7661378377452,11.648089694189412,2.792842303074261,9.713875989853625,2.0458918816528744,4397,106,1444,2225,319.8468594045015,184.66352100159537,0.0031266376791717,True
0.08,0.4467089600081905,2.4000000000000004,5158.0,42.27132,0.1,68900.0,0.33,276.0,2700.0,16.4635271122567,0.6574687541978425,1775.165636334175,9.243817787509068,1.8779531507173208,7.219709324747631,1.2204843965194785,14149,182,4650,7168,232.47781904519852,133.9249831498168,0.002206760327846,False
0.09,0.6637524749208832,2.4000000000000004,5159.0,42.27132,0.2,68900.0,0.33,276.0,2700.0,28.33421502905712,1.2735128622779277,3438.4847281504044,15.545484090360656,4.546717694625882,12.78873093869646,3.273204832347955,6006,126,1966,3051,310.3628542882124,177.912518423162,0.0032806022001782,True
0.0999999999999999,0.6695211392217966,2.4000000000000004,5160.0,42.27132,0.2,68900.0,0.33,276.0,2700.0,28.393257213670744,1.4175684655811478,3827.434857069099,15.729124067586032,4.63692365037476,12.66413314608471,3.219355184793612,6193,126,2026,3148,281.5111316533859,161.23641339458624,0.0030106520625943,True
0.11,0.521032969888813,2.4000000000000004,5161.0,42.27132,0.1,68900.0,0.33,276.0,2700.0,19.589747644593388,1.0746484805713528,2901.5508975426524,11.268452014839063,2.6393703262866697,8.321295629754323,1.564721845715317,16146,198,5322,8157,197.1716140746626,113.68950337737544,0.0019919438998197,False
0.12,0.5528653189394357,2.4000000000000004,5162.0,42.27132,0.2,68900.0,0.33,276.0,2700.0,21.060096257437973,1.259986660709343,3401.9639839152264,12.178050204243725,3.0124813914967787,8.88204605319425,1.7524947307874357,4568,106,1496,2318,197.7322489458109,114.15231051570234,0.0019831005336399,False
0.13,0.6353232739598023,2.4000000000000004,5163.0,42.27132,0.3,68900.0,0.33,276.0,2700.0,25.481623024088663,1.6517041105258068,4459.601098419678,14.652684591938916,4.117510914549782,10.828938432149751,2.465806804023975,2552,80,834,1295,217.35231978283352,125.0552562428701,0.0022026251233182,False
0.14,0.5900684927468247,2.4000000000000004,5164.0,42.27132,0.3,68900.0,0.33,276.0,2700.0,22.605730264370195,1.576654098344949,4256.966065531363,13.27339254325036,3.4858107709432007,9.332337721119837,1.909156672598252,2387,76,784,1205,193.13570556072256,111.50138005001156,0.0018689410589985,False
0.15,0.8197837373768871,2.4000000000000004,5165.0,42.27132,0.3,68900.0,0.33,276.0,2700.0,36.54472232065771,2.7337855905787487,7381.221094562621,20.807218786335007,7.374840780093177,15.737503534322704,4.641055189514428,3761,100,1232,1907,233.05864021133135,134.4855321292282,0.0027155250960431,False
0.16,0.5608712739586087,2.4000000000000004,5166.0,42.27132,0.3,68900.0,0.33,276.0,2700.0,20.47520975577897,1.6294381381229166,4399.482972931874,12.410825520286034,3.110909033281357,8.064384235492936,1.4814708951584403,2025,70,660,1029,162.57142412518144,93.85758547257362,0.0015540105834496,False
0.17,0.8262392814787516,2.4000000000000004,5167.0,42.27132,0.3,68900.0,0.33,276.0,2700.0,36.3456586917728,3.0790912256626304,8313.546309289102,21.038096027798197,7.509907354260377,15.307562663974604,4.430816128597746,3602,98,1180,1826,209.71084866776255,120.99678744452228,0.0024429868880125,False
0.18,0.6673926246131008,2.4000000000000004,5168.0,42.27132,0.3,68900.0,0.33,276.0,2700.0,25.99613615258171,2.3274377414951952,6284.081902037027,15.661267450601088,4.603516217112265,10.33486870198062,2.2760784756170698,2592,80,844,1320,163.0627523840432,94.13755899734608,0.0017382701608517,False
0.19,0.6154863536514745,2.4000000000000004,5169.0,42.27132,0.3,68900.0,0.33,276.0,2700.0,22.73293310649898,2.1452631891100893,5792.210610597241,14.041751443029597,3.832922642720533,8.691181663469385,1.687659453610444,2209,74,730,1108,148.26816003368282,85.55025058118741,0.0014909949519172,False
0.2,0.7534642786901755,2.4000000000000004,5170.0,42.27132,0.3,68900.0,0.33,276.0,2700.0,30.691417413210544,3.052386580501909,8241.443767355155,18.4960080421815,6.072167332184584,12.195409371029044,3.0197807516826747,2878,86,946,1453,166.816872639565,96.25802618759228,0.0018505609420869,False
0.21,0.7367016340567574,2.4000000000000004,5171.0,42.27132,0.3,68900.0,0.33,276.0,2700.0,29.35790475985715,3.0631838067417365,8270.596278202689,17.929336416101062,5.76688464453585,11.428568343756089,2.703700837794113,2924,86,960,1478,154.274256562763,89.05936093413162,0.0017184879860067,False
0.22,0.5553578514715785,2.4000000000000004,5172.0,42.27132,0.3,68900.0,0.33,276.0,2700.0,18.72070130308648,2.0369760242892303,5499.835265580922,12.2503485725121,3.042925648393837,6.47035273057438,1.0059496241046069,1784,66,582,905,116.6876661619728,67.33223961255538,0.0011614911985744,False
0.23,0.7356070161363146,2.4000000000000004,5173.0,42.27132,0.3,68900.0,0.33,276.0,2700.0,28.72939955578189,3.2783984437040985,8851.675798001066,17.89257780991983,5.747278992654585,10.836821745862064,2.4688805489504864,2759,84,912,1385,454.7913776468063,259.3436915871296,0.001616820220115,True
0.24,0.5686525317773701,2.4000000000000004,5174.0,42.27132,0.2,68900.0,0.33,276.0,2700.0,18.95189977147465,2.245275054681476,6062.242647639984,12.638611412137449,3.2083661100223217,6.313288359337205,0.963091055340846,3917,98,1298,1964,107.12512495721766,61.82353266577942,0.0011080098248837,False
0.25,0.8842500003145874,2.4000000000000004,5175.0,42.27132,0.3,68900.0,0.33,276.0,2700.0,37.77917378255161,4.689671799344055,12662.113858228948,23.15979670665604,8.791474250318588,14.61937707589557,4.101802450974533,3629,100,1186,1844,155.20439787942786,89.59450130275462,0.001873322973105,False
0.26,0.6377819197833664,2.4000000000000004,5176.0,42.27132,0.08,68900.0,0.33,276.0,2700.0,22.21937351423529,2.851707468530924,7699.610165033495,14.729094279727509,4.153630577377972,7.490279234507783,1.3019231088470478,49622,264,9340,30474,115.10778909125646,66.42541039816554,0.0012025857483955,False
0.27,0.9094513768282644,2.4000000000000004,5177.0,42.27132,0.3,68900.0,0.33,276.0,2700.0,38.88893570516837,5.20878234139732,14063.712321772766,24.10787150859704,9.387045880012394,14.781064196571336,4.178263538615074,3743,102,1230,1892,148.19104080216496,85.53380390358488,0.0018154009071692,False
0.28,0.957900181726612,2.4000000000000004,5178.0,42.27132,0.3,68900.0,0.33,276.0,2700.0,41.97270641795095,5.830202737225124,15741.547390507836,25.97535377874364,10.600043903939463,15.997352639207303,4.7698411667143406,4122,108,1360,2076,150.84092973522965,87.03171341882788,0.0018807565777768,False
0.29,0.627183636237079,2.4000000000000004,5179.0,42.27132,0.08,68900.0,0.33,276.0,2700.0,20.914120702084105,2.9814672996499274,8049.961709054804,14.400805338309548,3.999269602711043,6.5133153637745576,1.0178023030611154,48715,254,8818,30130,105.148575328738,60.7046495122058,0.001080226679566,False
0.3,0.629675088671986,2.4000000000000004,5180.0,42.27132,0.3,68900.0,0.33,276.0,2700.0,20.814893487050863,3.06568535529302,8277.350459291152,14.477725935728424,4.035244313850257,6.337167551322439,0.9695589585572376,2055,70,680,1029,93.57896269581109,53.96271539663957,0.0010389085899413,False
0.31,0.7852510677013458,2.4000000000000004,5181.0,42.27132,0.3,68900.0,0.33,276.0,2700.0,29.594875702990727,4.524811609468166,12216.991345564047,19.589973019783685,6.677415587871775,10.004902683207042,2.152603978403609,2905,86,960,1459,113.54199315182431,65.48648419750899,0.0013193970540807,False
0.32,0.9088630644821716,2.4000000000000004,5182.0,42.27132,0.3,68900.0,0.33,276.0,2700.0,37.32291408295838,5.903037114558123,15938.200209306931,24.08555725789622,9.372869485866923,13.237356825062156,3.4698323713088,3648,100,1202,1839,127.02254128685269,73.30142526832837,0.0015541305152299,False
0.33,0.90256263750588,2.4000000000000004,5183.0,42.27132,0.3,68900.0,0.33,276.0,2700.0,36.60078112461327,5.9638626087664885,16102.42904366952,23.847132143836788,9.221871804994178,12.753648980776482,3.2580091962276896,3184,94,1054,1597,125.51452192819198,72.3983736667137,0.001495829310301,False
0.34,0.99016860490791,2.4000000000000004,5184.0,42.27132,0.3,68900.0,0.33,276.0,2700.0,42.36824401722083,7.120283377823078,19224.765120122316,27.25188611682149,11.458753084104238,15.116357900399343,4.33846970628116,4061,106,1340,2045,130.39630666688893,75.19008060463264,0.0016526016270486,False
0.3500000000000001,1.0140030550310335,2.4000000000000004,5185.0,42.27132,0.3,68900.0,0.33,276.0,2700.0,43.76501938449271,7.569081202271056,20436.51924613185,28.21157568889659,12.11969528323915,15.55344369559612,4.550614080968094,4067,108,1344,2045,128.07551142097338,73.70154834709774,0.0016630874782943,False
0.36,1.004355540120699,2.4000000000000004,5186.0,42.27132,0.3,68900.0,0.33,276.0,2700.0,42.75553549575324,7.59828029133831,20515.35678661344,27.821400405234687,11.849407677706862,14.934135090518556,4.251127386368553,4101,108,1358,2058,125.81194898283483,72.5033560080901,0.0016021030075527,False
0.37,0.9152067421737616,2.4000000000000004,5187.0,42.27132,0.3,68900.0,0.33,276.0,2700.0,36.28350961342018,6.606361883361218,17837.177085075287,24.326627045583777,9.526424597985256,11.956882567836402,2.9200627146240388,3391,96,1120,1705,112.1197778765318,64.63606424118032,0.0013804833513634,False
0.38,0.8681194221895717,2.4000000000000004,5188.0,42.27132,0.3,68900.0,0.33,276.0,2700.0,32.91608119572054,6.139131779127823,16575.65580364512,22.56134309034483,8.422728831984182,10.354738105375706,2.28359705285636,3151,92,1046,1576,104.94869829644,60.40170443671183,0.0012587178441589,False
0.39,1.0333753559093437,2.4000000000000004,5189.0,42.27132,0.3,68900.0,0.33,276.0,2700.0,43.90560872441517,8.437356278182103,22780.86195109168,29.00211590612545,12.673860480632715,14.903492818289724,4.236504202450615,4190,108,1388,2102,119.24058649678544,68.6572214099092,0.0015515886610646,False
0.4,0.9294749621731782,2.4000000000000004,5190.0,42.27132,0.3,68900.0,0.33,276.0,2700.0,36.379735292534185,7.141905771953671,19283.145584274916,24.872537685138813,9.877410767364994,11.507197607395373,2.735504995411323,3369,96,1118,1686,106.26886104426303,61.179930641393945,0.0013193108091958,False
0.4100000000000001,1.1039844331203337,2.4000000000000004,5191.0,42.27132,0.3,68900.0,0.33,276.0,2700.0,48.48053835496152,9.79416255791508,26444.23890637072,31.9633546894963,14.825480997690908,16.517183665465218,5.031318439775829,4478,114,1488,2240,120.79585984141794,69.42035519284967,0.0016228576276961,False
0.42,0.8900428156750957,2.4000000000000004,5192.0,42.27132,0.3,68900.0,0.33,276.0,2700.0,33.24080507377665,6.825399521146988,18428.578707096865,23.37630935497718,8.926261378199719,9.864495718799468,2.100861857052731,3106,90,1030,1553,97.74058234012652,56.17137500160061,0.0011960476614361,False
0.43,1.0616178952357085,2.4000000000000004,5193.0,42.27132,0.3,68900.0,0.33,276.0,2700.0,44.70934550337015,9.445990211818604,25504.17357191023,30.171529493510405,13.509420302981338,14.537816009859746,4.063430091162735,4218,110,1400,2112,111.89488277112184,64.25616594436282,0.0014766707246772,False
0.44,0.971705031997592,2.4000000000000004,5194.0,42.27132,0.3,68900.0,0.33,276.0,2700.0,38.08883253227177,8.201134204697528,22143.06235268333,26.518267879221305,10.96237168749674,11.570564653050468,2.761237482799212,3581,100,1198,1778,100.67721001258458,58.011570192211614,0.0012883732589091,False
0.45,1.0085535025495267,2.4000000000000004,5195.0,42.27132,0.3,68900.0,0.33,276.0,2700.0,40.33416149671036,8.884334583054248,23987.70337424647,27.990891483379613,11.966556474970623,12.343270013330743,3.082221891916376,3669,102,1224,1825,102.0037621201399,58.59552460882241,0.0013261168720932,False
0.46,0.7940242890291399,2.4000000000000004,5196.0,42.27132,0.2,68900.0,0.33,276.0,2700.0,26.33540687064352,5.853283538561466,15803.86555411596,19.89638132054757,6.850625436617959,6.439025550095952,0.9973418980564928,7076,116,1784,3956,90.27630093904442,52.103938892437455,0.000982389986255,False
0.4700000000000001,1.0361979320369326,2.4000000000000004,5197.0,42.27132,0.3,68900.0,0.33,276.0,2700.0,41.68467815132626,9.578452982845908,25861.82305368395,29.11808615914652,12.75588478097551,12.566591992179738,3.177431798129602,3838,102,1266,1921,107.60290941662105,61.842632084081856,0.0013238040976295,False
0.4800000000000001,0.9492373399520524,2.4000000000000004,5198.0,42.27132,0.3,68900.0,0.33,276.0,2700.0,35.47995142091479,8.283564997855688,22365.62549421036,25.63710929573511,10.376489964903344,9.842842125179676,2.092924967047656,3178,92,1038,1597,90.75744529750244,52.14565197076509,0.001160962890823,False
0.49,1.018439708297303,2.4000000000000004,5199.0,42.27132,0.3,68900.0,0.33,276.0,2700.0,39.86961640046135,9.521652528711574,25708.46182752125,28.391792871791893,12.2452598603376,11.477823528669454,2.7236073316260274,3975,102,1244,2049,102.34214168196566,58.926003946833326,0.0012523902952679,False
0.5,0.9186685003263702,2.4000000000000004,5200.0,42.27132,0.3,68900.0,0.33,276.0,2700.0,32.97465320854803,7.981863914337853,21551.0325687122,24.45860588520622,9.610865850012,8.516047323341805,1.629001935674146,3467,90,1022,1828,95.80966949390844,54.99258039606588,0.0010910362452656,False
0.04,0.3532892458830596,2.4000000000000004,5204.0,45.2907,0.08,68900.0,0.33,276.0,2700.0,12.853608101525907,0.2569381207439645,693.7329260087041,6.895926392929446,1.1257755601134416,5.957681708596463,0.8688374393694771,16632,194,5440,8466,423.8892750261802,242.9547732742126,0.0033820768378736,True
0.05,0.5701960625796263,2.4000000000000004,5205.0,45.2907,0.1,68900.0,0.33,276.0,2700.0,23.92885833770534,0.597959659054834,1614.4910794480516,12.683977076276692,3.2279091999826672,11.244881261428649,2.629949540927833,19500,222,6392,9906,580.6869429336956,331.8482440332985,0.0049581740499275,True
0.06,0.5825575808529226,2.4000000000000004,5206.0,45.2907,0.2,68900.0,0.33,276.0,2700.0,24.360889039352763,0.7303742818384663,1972.010560963859,13.049452462599607,3.386957373560441,11.311436576753154,2.656583091721975,5289,116,1740,2673,429.51087917657526,247.15182799183725,0.0043134211594053,True
0.0699999999999999,0.7537294190470526,2.4000000000000004,5207.0,45.2907,0.2,68900.0,0.33,276.0,2700.0,34.690026055005134,1.213432534405061,3276.2678428936647,18.50502801088884,6.077072566097511,16.1849980441163,4.86364003169245,7218,140,2360,3672,518.4029827408846,296.3544902841772,0.0053333160740223,True
0.08,0.6229070369394174,2.4000000000000004,5208.0,45.2907,0.2,68900.0,0.33,276.0,2700.0,26.159892688719044,1.0453233772563368,2822.3731185921097,14.269134202640656,3.937964844873865,11.890758486078388,2.892641467617528,5573,120,1828,2825,362.150910849838,207.22198630263125,0.0036088935014048,True
0.09,0.7401358243545058,2.4000000000000004,5209.0,45.2907,0.2,68900.0,0.33,276.0,2700.0,33.160184104733936,1.4906814706833815,4024.83997084513,18.04485616119648,5.828655671268463,15.11532794353746,4.337974200585082,7050,138,2310,3579,370.0665125727476,211.9177640182138,0.0040624636597057,True
0.0999999999999999,0.7171349471697468,2.4000000000000004,5210.0,45.2907,0.2,68900.0,0.33,276.0,2700.0,31.3689527976086,1.566353244778074,4229.153760900799,17.276805135258524,5.422466559969099,14.092147662350076,3.856113315191025,6574,132,2158,3331,326.191684687244,187.0246093948456,0.0035347012967715,True
0.11,0.4111724176425109,2.4000000000000004,5211.0,45.2907,0.05,68900.0,0.33,276.0,2700.0,14.00624275775204,0.7675557117950771,2072.400421846708,8.324839245721618,1.5658824787677077,5.681403512030423,0.7983267669726306,60939,322,14912,34611,172.61007687248585,99.571861311379,0.0016052994927923,False
0.12,0.8137109239218121,2.4000000000000004,5212.0,45.2907,0.3,68900.0,0.33,276.0,2700.0,37.09927538205165,2.2223374081861653,6000.311002102646,20.590985671990797,7.24913946262798,16.508289710060858,5.026802054441815,3706,100,1218,1873,307.66081064295344,177.62104095640385,0.0035449549576519,True
0.13,0.7104912968130888,2.4000000000000004,5213.0,45.2907,0.2,68900.0,0.33,276.0,2700.0,30.045527891568884,1.9483579269120184,5260.56640266245,17.05743362603701,5.308414835328959,12.988094265531874,3.3600569084169405,6468,130,2128,3270,244.5060135109416,140.66227164816777,0.0027348032384282,False
0.14,0.5824900661204648,2.4000000000000004,5214.0,45.2907,0.3,68900.0,0.33,276.0,2700.0,22.180502347505357,1.5468881441644078,4176.597989243901,13.047445920345456,3.3860764110049337,9.133056427159898,1.839188266840526,2384,76,780,1208,203.03756114272227,117.22015664527063,0.0019702927624501,False
0.15,0.7654573343265785,2.4000000000000004,5215.0,45.2907,0.3,68900.0,0.33,276.0,2700.0,32.9466394508488,2.4639293753430844,6652.609313426328,18.905774494199267,6.296444548779053,14.040864956649532,3.832515173435968,3289,92,1074,1672,287.7541015489369,165.1084597833271,0.0030861350195019,True
0.16,0.5440886228994317,2.4000000000000004,5216.0,45.2907,0.3,68900.0,0.33,276.0,2700.0,19.570478484841026,1.557059636447881,4204.061018409278,11.92471636272089,2.9067114795186844,7.645762122120136,1.349651843070803,2034,70,664,1032,167.02774070389867,96.42739199709868,0.0016046267134512,False
0.17,0.7221809605385285,2.4000000000000004,5217.0,45.2907,0.3,68900.0,0.33,276.0,2700.0,29.602391386334915,2.505913504700408,6765.966462691102,17.44416435258398,5.510067528981163,12.158227033750936,3.004154024280755,2941,86,968,1483,201.49461502574016,116.3109809433539,0.0021767122750375,False
0.18,0.6236703356764095,2.4000000000000004,5218.0,45.2907,0.3,68900.0,0.33,276.0,2700.0,23.456599257587,2.098879420945672,5666.974436553314,14.292601515464147,3.94886541234242,9.16399774212285,1.849985991396748,2517,78,820,1281,167.88867579654135,96.88982846624492,0.0017054527132594,False
0.19,0.854352634419596,2.4000000000000004,5219.0,45.2907,0.3,68900.0,0.33,276.0,2700.0,37.6203102617859,3.559564018862346,9610.822850928334,22.05575964084016,8.115617204454116,15.564550620945743,4.55605318559177,3556,98,1162,1807,207.59399775440733,119.74029424253742,0.0024694679879601,False
0.2,0.7054857882497717,2.4000000000000004,5220.0,45.2907,0.3,68900.0,0.33,276.0,2700.0,27.7263392324596,2.7558787624268155,7440.872658552402,16.892885853327705,5.223445790553927,10.833453379131893,2.467567028127112,2592,82,854,1305,169.87544615075038,98.05975818270966,0.0018201477906502,False
0.21,0.6186000102079184,2.4000000000000004,5221.0,45.2907,0.3,68900.0,0.33,276.0,2700.0,22.39653925723291,2.3322404289661938,6297.049158208723,14.1369908219461,3.876792042301011,8.25954843528681,1.5445516133348174,2224,74,734,1117,144.4560302496296,83.33232862654862,0.0014706905039665,False
0.22,0.6909520261719302,2.4000000000000004,5222.0,45.2907,0.3,68900.0,0.33,276.0,2700.0,26.307638777268764,2.871539146449281,7753.155695413058,16.418681173138452,4.981381025482807,9.888957604130312,2.109841879033526,2604,80,858,1311,151.80248380320756,87.62041173357642,0.0016225480560941,False
0.23,0.5329242334338227,2.4000000000000004,5223.0,45.2907,0.1,68900.0,0.33,276.0,2700.0,17.326379730820733,1.9670511638335653,5311.038142350626,11.60526089558375,2.775365478900936,5.721118835236982,0.8083143150673708,19018,184,4708,10738,118.69646087681193,68.45639442233785,0.0011551784175687,False
0.24,0.9179399101727136,2.4000000000000004,5224.0,45.2907,0.3,68900.0,0.33,276.0,2700.0,40.42943212954121,4.82257893764946,13020.963131653543,24.43080350665083,9.593055679671542,15.998628622890385,4.7704767420220815,3886,104,1278,1963,177.44347310217046,102.4264949945986,0.0021953106640958,False
0.25,0.6034181046339647,2.4000000000000004,5225.0,45.2907,0.1,68900.0,0.33,276.0,2700.0,20.573928588059943,2.5390161500325403,6855.343605087859,13.674914689046249,3.6656805095290528,6.899013899013694,1.1266643594965124,22839,202,5582,12968,122.0478643632528,70.43525287031432,0.0012449452404942,False
0.26,0.6338471271839159,2.4000000000000004,5226.0,45.2907,0.1,68900.0,0.33,276.0,2700.0,22.000660819858915,2.823274818261996,7622.842009307389,14.606881956394531,4.095915213874405,7.393778863464382,1.272640395612409,24278,208,5822,13887,122.57121441887377,70.76341364631435,0.001278614142017,False
0.27,0.6239198183322407,2.4000000000000004,5227.0,45.2907,0.2,68900.0,0.33,276.0,2700.0,21.211314065675925,2.822303420065668,7620.219234177303,14.300274934588336,3.952432125687247,6.911039131087589,1.130128705621579,4320,104,1432,2166,113.58200310110357,65.25312073932226,0.0012037996034074,False
0.28,0.9451460513951262,2.4000000000000004,5228.0,45.2907,0.3,68900.0,0.33,276.0,2700.0,41.06778951396641,5.703514370667559,15399.48880080241,25.478018850740877,10.271926738897248,15.589770663225536,4.568412368229689,3782,102,1236,1922,157.73597240310778,91.00519342685136,0.0019846223396602,False
0.29,0.709465110540711,2.4000000000000004,5229.0,45.2907,0.3,68900.0,0.33,276.0,2700.0,25.560098201395533,3.655134037050085,9868.86190003523,17.023648143195903,5.290928068462549,8.53645005819963,1.6357940314124635,2457,78,808,1239,118.2278244537702,67.83204046181986,0.0013196254488338,False
0.3,0.7217636381336816,2.4000000000000004,5230.0,45.2907,0.3,68900.0,0.33,276.0,2700.0,26.025708119021385,3.847307550088592,10387.730385239196,17.430298904275997,5.502790581696336,8.595409214745388,1.6554830316077442,2653,80,878,1330,116.8930137586369,67.43788147396177,0.001306248657094,False
0.31,0.7748063210528904,2.4000000000000004,5231.0,45.2907,0.3,68900.0,0.33,276.0,2700.0,28.951723107097084,4.425122957104654,11947.831984182569,19.22770842905601,6.4746975502150095,9.724014678041073,2.0495745931103557,2920,86,966,1465,120.03349106143986,69.26421782471085,0.0013908628828845,False
0.32,0.847514726493414,2.4000000000000004,5232.0,45.2907,0.3,68900.0,0.33,276.0,2700.0,33.25800996764132,5.252652456107394,14182.161631489964,21.806408895680352,7.965655139126328,11.451601071960969,2.713002683018934,3233,92,1074,1616,128.16682156935966,73.92513843373604,0.001516553456445,False
0.33,0.7529284119616275,2.4000000000000004,5233.0,45.2907,0.3,68900.0,0.33,276.0,2700.0,27.103120795262043,4.396748654423535,11871.221366943544,18.47778346468322,6.062260820158459,8.625337330578823,1.665512165734924,2602,80,862,1303,113.61026277230388,65.53775363990712,0.0012671690040751,False
0.34,0.9294303648611328,2.4000000000000004,5234.0,45.2907,0.3,68900.0,0.33,276.0,2700.0,38.12513485127741,6.398954819612701,17277.178012954293,24.8708233939866,9.876301557267068,13.254311457290813,3.4773467376543667,3622,100,1192,1828,131.188217340474,75.67919152197412,0.0016253221004571,False
0.3500000000000001,0.9996310905394998,2.4000000000000004,5235.0,45.2907,0.3,68900.0,0.33,276.0,2700.0,42.73065507365556,7.388067447874617,19947.782109261465,27.631182332188093,11.718416432919309,15.09947274146747,4.330348985044692,3925,106,1300,1969,137.00907027772476,78.98477479172521,0.0017479970320342,False
0.36,1.0592559024874089,2.4000000000000004,5236.0,45.2907,0.3,68900.0,0.33,276.0,2700.0,46.7619286940912,8.31943106703916,22462.463881005733,30.07296039253425,13.438271806462485,16.688968301556955,5.118840739423323,4327,112,1428,2179,140.6238907777406,80.95305850756407,0.0018451461210043,False
0.37,0.8556992422039069,2.4000000000000004,5237.0,45.2907,0.3,68900.0,0.33,276.0,2700.0,32.393629480760204,5.886734058819119,15894.18195881162,22.10500345864037,8.145350813015304,10.288626022119832,2.258616754196185,3112,90,1032,1558,115.66767251439455,66.76040475468533,0.0013521197091894,False
0.38,0.7737048415466723,2.4000000000000004,5238.0,45.2907,0.3,68900.0,0.33,276.0,2700.0,27.074425235514777,5.029217146689289,13578.88629606108,19.189664637774364,6.453539578455987,7.884760597740414,1.424322431766698,2796,84,928,1396,101.42718387166722,58.45997666138074,0.00117379838808,False
0.39,0.8669838255432427,2.4000000000000004,5239.0,45.2907,0.3,68900.0,0.33,276.0,2700.0,32.571224676203414,6.227151388780804,16813.308749708172,22.519458203327957,8.39713203166955,10.05176647287546,2.1699806428887456,3041,90,1010,1520,108.7921010458276,62.66793921418408,0.0013161197511955,False
0.4,0.9629071978182008,2.4000000000000004,5240.0,45.2907,0.3,68900.0,0.33,276.0,2700.0,38.6419925135949,7.59435721616582,20504.764483647712,26.171715041101947,10.73059424739082,12.470277472492953,3.1362370312250007,3586,100,1194,1789,117.78987698073298,67.73335647187017,0.0014800917216458,False
0.4100000000000001,0.7480792537597751,2.4000000000000004,5241.0,45.2907,0.08,68900.0,0.33,276.0,2700.0,24.847614812821988,4.949413231776465,13363.415725796456,18.31319399958648,5.973058423908786,6.53442081323551,1.0236451921323209,71946,276,10162,46779,105.22936596202602,59.7380890964945,0.0010810193912413,False
0.42,0.7347262828919274,2.4000000000000004,5242.0,45.2907,0.2,68900.0,0.33,276.0,2700.0,23.85371620861014,4.854110859462023,13106.099320547462,17.8630235747279,5.731533420679167,5.99069263388224,0.877422561217144,6622,110,1680,3696,96.39196242347032,55.58376990006821,0.0010337486643825,False
0.43,0.7861610434369797,2.4000000000000004,5243.0,45.2907,0.2,68900.0,0.33,276.0,2700.0,26.586499146397266,5.549578245069437,14983.86126168748,19.621664373197973,6.69525640558467,6.964834773199293,1.1456781605152333,7378,118,1836,4154,100.14186498039632,57.79524790569163,0.0010988615367832,False
0.44,0.912552768369659,2.4000000000000004,5244.0,45.2907,0.3,68900.0,0.33,276.0,2700.0,34.157724105002146,7.33629035069821,19807.983946885168,24.225648787918672,9.46199640304093,9.932075317083472,2.12570605234272,3162,92,1056,1570,102.06142482861196,58.71297509189142,0.0012728614702152,False
0.45,1.1185147984144614,2.4000000000000004,5245.0,45.2907,0.3,68900.0,0.33,276.0,2700.0,48.28531029598473,10.673343062890984,28818.026269805658,32.58828236170009,15.29445400581173,15.69702793428464,4.621110942920746,4367,112,1452,2181,119.57839550734698,68.43209541587771,0.0016315932648895,False
0.46,0.9633135991870844,2.4000000000000004,5246.0,45.2907,0.3,68900.0,0.33,276.0,2700.0,36.96084143432693,8.297133488208651,22402.26041816336,26.187680620136483,10.74123371228556,10.773160814190447,2.4441002240769105,3506,98,1156,1752,103.09758742892237,59.16607071788799,0.0013075115160033,False
0.4700000000000001,1.0423228701182767,2.4000000000000004,5247.0,45.2907,0.3,68900.0,0.33,276.0,2700.0,42.11701196840251,9.680051429858826,26136.13886061883,29.370428141387123,12.935003564013584,12.746583827015384,3.254952134154756,3666,102,1218,1827,115.74939475599842,66.65195860546238,0.0014292255634028,False
0.4800000000000001,0.9124754597436402,2.4000000000000004,5248.0,45.2907,0.3,68900.0,0.33,276.0,2700.0,33.094637717650734,7.711089709072132,20819.94221449476,24.22271000673697,9.460123665017186,8.871927710913763,1.7490339559450536,3384,92,1046,1751,99.62814924428422,57.14011569763318,0.0011915829557447,False
0.49,0.932061724675131,2.4000000000000004,5249.0,45.2907,0.3,68900.0,0.33,276.0,2700.0,34.09389257462045,8.10660019138054,21887.820516727457,24.972056658863966,9.941878794900388,9.12183591575648,1.835278603519848,3499,92,1062,1824,104.67451012529284,60.4086191117291,0.0012030497908426,False
0.5,0.8248935787771806,2.4000000000000004,5250.0,45.2907,0.1,68900.0,0.33,276.0,2700.0,27.21561518391806,6.542104408180371,17663.681902087003,20.989881663631454,7.481628777803858,6.225733520286603,0.939524369623487,49620,232,7220,32104,95.74492449541438,55.17672218094751,0.001039180786705,False
0.02,0.3376872878268303,2.4000000000000004,5252.0,48.31008,0.08,68900.0,0.33,276.0,2700.0,12.584056624779697,0.1258238110869782,339.7242899348413,6.525181557851082,1.0210857326448093,6.058875066928613,0.895261921557831,16209,192,5346,8184,788.3993950043674,449.29989927628975,0.0065535132338647,True
0.03,0.3331927600154734,2.4000000000000004,5253.0,48.31008,0.08,68900.0,0.33,276.0,2700.0,12.146727840322894,0.1821443689370778,491.78979613011006,6.419514435694718,0.9919957747248818,5.727213404628176,0.8098514057878039,15688,188,5158,7945,555.7112403387383,317.26972794618644,0.0043993513969125,True
0.04,0.6612600163002823,2.4000000000000004,5254.0,48.31008,0.1,68900.0,0.33,276.0,2700.0,29.6849448749776,0.5935648562129944,1602.6251117750849,15.466397773233387,4.5080698109095625,14.218547101744209,3.914504954696568,24575,254,8076,12455,902.5475398462924,513.9740213680484,0.0080314513830129,True
0.05,0.5992303782022927,2.4000000000000004,5255.0,48.31008,0.1,68900.0,0.33,276.0,2700.0,25.621371508504847,0.6402724883248223,1728.7357184770203,13.548476460208883,3.6086786060042897,12.072895048295964,2.9684061176794674,21255,232,6984,10773,653.8045944860589,373.3666440210223,0.0056361142919247,True
0.06,0.4656173353608978,2.4000000000000004,5256.0,48.31008,0.1,68900.0,0.33,276.0,2700.0,17.92977965850776,0.5374410004131166,1451.0907011154147,9.745726904301888,2.0574697114913656,8.18405275420587,1.520028711078249,15028,190,4936,7618,396.4468709304574,227.25938496622155,0.0034643053167655,True
0.0699999999999999,0.7256333221897759,2.4000000000000004,5257.0,48.31008,0.2,68900.0,0.33,276.0,2700.0,32.8474717016357,1.1489431320371266,3102.146456500242,17.55903621658933,5.570489296458937,15.288435485046367,4.421546164421811,6859,136,2248,3481,517.2886682843891,296.0615672437047,0.0053466249541743,True
0.08,0.6000539942401772,2.4000000000000004,5258.0,48.31008,0.2,68900.0,0.33,276.0,2700.0,24.814190508239808,0.9914952900371666,2677.03728310035,13.573308728063084,3.619847573462722,11.240881780176723,2.628352283425555,5171,116,1698,2618,359.03566237341715,206.54820535774863,0.00366601687342,True
0.09,0.3975443068767555,2.4000000000000004,5259.0,48.31008,0.1,68900.0,0.33,276.0,2700.0,13.807064886350844,0.6197911058561433,1673.4359858115868,7.9808346739884275,1.454780014718545,5.826230212362416,0.8349889088624017,11456,162,3766,5801,212.74128411861756,122.7808879927458,0.0019662528925044,False
0.0999999999999999,0.4309564955613836,2.4000000000000004,5260.0,48.31008,0.2,68900.0,0.33,276.0,2700.0,15.199669816975172,0.7578890957463664,2046.300558515189,8.832541196466321,1.735587736216609,6.367128620508851,0.9776986404702426,3186,88,1042,1617,217.99574499909647,125.85920313341316,0.001969331731768,False
0.11,0.6479674620079103,2.4000000000000004,5261.0,48.31008,0.3,68900.0,0.33,276.0,2700.0,26.796437350839376,1.4710164144148827,3971.744318920184,15.047258513850602,4.305272513562783,11.749178836988774,2.8342560991479004,2660,82,878,1337,302.5948794610393,174.70301535123107,0.0030168331269284,True
0.12,0.6261156249296909,2.4000000000000004,5262.0,48.31008,0.1,68900.0,0.33,276.0,2700.0,25.2188372214327,1.5095111185487229,4075.680020081552,14.367879545363396,3.9839069648854735,10.850957676069305,2.4743958463367512,20466,228,6752,10332,251.1255123496018,144.6432111717726,0.0026581300976011,False
0.13,0.6266483736792829,2.4000000000000004,5263.0,48.31008,0.1,68900.0,0.33,276.0,2700.0,24.973197181767528,1.6186564307749312,4370.372363092314,14.384300109222554,3.991565808448093,10.588897072544974,2.372909377673161,20399,228,6728,10301,230.54899025044543,132.80722281180277,0.0024699108625926,False
0.14,0.7477090353769822,2.4000000000000004,5264.0,48.31008,0.3,68900.0,0.33,276.0,2700.0,32.1055784826335,2.2416434736233777,6052.43737878312,18.3006523799375,5.966280864517831,13.804926102695998,3.724637390894453,3176,90,1038,1613,269.8730672663312,155.80953584785516,0.0029202080593024,False
0.15,0.6296109692520512,2.4000000000000004,5265.0,48.31008,0.3,68900.0,0.33,276.0,2700.0,24.598707933367606,1.837834511531816,4962.153181135904,14.47574436993762,4.034316073991134,10.122963563429987,2.1964815624593177,2627,80,856,1337,213.9032107215368,123.46680501270572,0.0021779159590879,False
0.16,0.7719616397795865,2.4000000000000004,5266.0,48.31008,0.3,68900.0,0.33,276.0,2700.0,33.06375166500125,2.6365214908606984,7118.608025323886,19.1295188381015,6.420140555376119,13.934232826899748,3.783619064515421,3327,94,1090,1686,242.5815373340618,140.03963296299634,0.0026898893605382,False
0.17,0.6199195384626335,2.4000000000000004,5267.0,48.31008,0.3,68900.0,0.33,276.0,2700.0,23.5058325079911,1.9877060000411877,5366.806200111206,14.177425575421369,3.895472873715179,9.328406932569736,1.907766873673992,2378,76,776,1208,191.77911527202627,110.67759420336644,0.0019053282633695,False
0.18,0.6713277188709963,2.4000000000000004,5268.0,48.31008,0.3,68900.0,0.33,276.0,2700.0,26.229412900367446,2.3484326487959133,6340.7681517489655,15.786806798006442,4.665391657689494,10.442606102361005,2.3169590088935803,2705,82,892,1361,192.44107935587212,111.10198062467305,0.0020041482828708,False
0.19,0.494333090433109,2.4000000000000004,5269.0,48.31008,0.2,68900.0,0.33,276.0,2700.0,16.27826602308203,1.532069816185479,4136.588503700794,10.525151108040337,2.3484669026613263,5.753114915041694,0.8163970864758472,3465,90,1142,1746,134.42782008255207,77.18322131326289,0.0013126540144914,False
0.2,0.7995534901878701,2.4000000000000004,5270.0,48.31008,0.3,68900.0,0.33,276.0,2700.0,33.64870101675535,3.348114940856388,9039.910340312246,20.09048466655463,6.961172795458232,13.558216350200723,3.613057854601845,3335,94,1096,1685,199.76643917194576,115.24456972885685,0.0022913457745628,False
0.21,0.6672362943902148,2.4000000000000004,5271.0,48.31008,0.3,68900.0,0.33,276.0,2700.0,25.17843767929854,2.624339763283085,7085.71736086433,15.656288163170322,4.601068276895595,9.522149516128218,1.97672851361251,2489,78,810,1268,161.59514734621166,93.29646975488326,0.0017267680524887,False
0.22,0.6246222581147732,2.4000000000000004,5272.0,48.31008,0.3,68900.0,0.33,276.0,2700.0,22.480804200180145,2.450587342969438,6616.585826017482,14.321888505996547,3.9624847980929694,8.158915694183595,1.5118974551235325,2374,76,782,1195,146.00106596162684,84.28491526109848,0.0015274643655864,False
0.23,0.5500455003195341,2.4000000000000004,5273.0,48.31008,0.3,68900.0,0.33,276.0,2700.0,18.20978157903311,2.06864237637799,5585.334416220574,12.096446822256777,2.9782565991040983,6.113334756776334,0.909614222726108,1763,64,574,896,123.27024664363051,71.0287154353433,0.0012598550205143,False
0.24,0.6879697236962294,2.4000000000000004,5274.0,48.31008,0.3,68900.0,0.33,276.0,2700.0,25.59903590007728,3.042931390113792,8215.91475330724,16.322031649474837,4.932559726583052,9.277004250602438,1.88962833646926,2630,80,866,1325,146.00816960760173,84.27044353395152,0.0015928924358699,False
0.25,0.7416445027473719,2.4000000000000004,5275.0,48.31008,0.3,68900.0,0.33,276.0,2700.0,28.54699512310003,3.535649466912611,9546.25356066405,18.095698993411567,5.855917901410451,10.451296129688462,2.32026843449784,2824,84,932,1420,149.46343014105528,86.26927094449812,0.0016913741272012,False
0.26,0.5835605020405232,2.4000000000000004,5276.0,48.31008,0.2,68900.0,0.33,276.0,2700.0,19.27404117174245,2.468814264006857,6665.798512818514,13.079272836527023,3.4000598975513827,6.194768335215425,0.9312456335445258,4093,100,1360,2047,115.84211326441168,66.71032256496926,0.0012226406804421,False
0.27,0.895961952871275,2.4000000000000004,5277.0,48.31008,0.3,68900.0,0.33,276.0,2700.0,37.96155891409951,5.08358647460255,13725.683481426884,23.59841457584149,9.065285861705812,14.36314433825802,3.981699387103262,3647,100,1196,1847,167.95917645875772,96.94583531194291,0.002031100387687,False
0.28,0.8645467150860782,2.4000000000000004,5278.0,48.31008,0.3,68900.0,0.33,276.0,2700.0,35.53829929439108,4.929385739926611,13309.341497801852,22.429678224180257,8.342359056772768,13.108621070210823,3.4129733168461565,3507,98,1150,1776,157.063779663943,90.6637306913565,0.0018712551361413,False
0.29,0.9737005007493212,2.4000000000000004,5279.0,48.31008,0.3,68900.0,0.33,276.0,2700.0,42.78120648401138,6.1521947380293645,16610.925792679285,26.597141438913265,11.015366740620042,16.184065045098116,4.8631720025906775,4134,108,1362,2085,170.22542270131808,98.2142180659708,0.0021314325247651,False
0.3,0.7954118997783093,2.4000000000000004,5280.0,48.31008,0.3,68900.0,0.33,276.0,2700.0,30.499858227054084,4.518430066293498,12199.761178992443,19.945021363571257,6.878267610335398,10.554836863482826,2.3598375440419,2982,88,984,1500,137.8137569120351,79.49547310479316,0.0015737065098956,False
0.31,0.8626699972249083,2.4000000000000004,5281.0,48.31008,0.3,68900.0,0.33,276.0,2700.0,34.53303541691032,5.290226365125701,14283.611185839392,22.36064411464109,8.300329671645814,12.172391302269226,3.0101033065201133,3191,94,1058,1598,141.4071660569637,81.55975747505185,0.0017016947323563,False
0.32,0.6830636144011147,2.4000000000000004,5282.0,48.31008,0.1,68900.0,0.33,276.0,2700.0,23.294831162272462,3.658543847248373,9878.068387570607,16.163522333797406,4.852871134732196,7.131308828475056,1.1943272874838224,32756,214,6222,20065,119.9435225554572,69.23043259881808,0.0012589365861088,False
0.33,0.8412071208096062,2.4000000000000004,5283.0,48.31008,0.3,68900.0,0.33,276.0,2700.0,32.57026366958344,5.298827228686566,14306.833517453728,21.577438082848385,7.828831564828925,10.992825586735057,2.530004336142359,3058,90,1014,1531,132.5254293100723,76.36491349548096,0.0015584460312986,False
0.34,0.90124584855331,2.4000000000000004,5284.0,48.31008,0.3,68900.0,0.33,276.0,2700.0,36.219183175688826,6.074943034762641,16402.34619385913,23.79742734983872,9.19050289498048,12.42175582585011,3.1155598602178403,3182,94,1054,1595,135.08408285621772,77.80021509104132,0.0016636053361295,False
0.3500000000000001,0.8515479527642573,2.4000000000000004,5285.0,48.31008,0.3,68900.0,0.33,276.0,2700.0,32.67758199519791,5.628779659144523,15197.705079690211,21.953342136101945,8.053901490450423,10.724239859095968,2.4251218313059004,3080,90,1024,1538,126.54422904280804,72.93185314253111,0.0015044975027309,False
0.36,0.9277680303481716,2.4000000000000004,5286.0,48.31008,0.3,68900.0,0.33,276.0,2700.0,37.41960217393736,6.637812293411464,17922.093192210952,24.80696001272308,9.835011019945735,12.612642161214277,3.197198726534271,3374,96,1116,1694,135.54657271539915,78.1491223203496,0.0016444749934442,False
0.37,0.8027180729573857,2.4000000000000004,5287.0,48.31008,0.3,68900.0,0.33,276.0,2700.0,29.08014750227441,5.273739892798958,14239.097710557187,20.20192349631372,7.024927059390217,8.878224005960693,1.7511871665912588,2879,86,952,1445,114.4020296581922,65.94353228716272,0.0013336926619262,False
0.38,0.7927041308048618,2.4000000000000004,5288.0,48.31008,0.3,68900.0,0.33,276.0,2700.0,28.21394559154606,5.245726014335154,14163.460238704916,19.850150617676512,6.82438958592436,8.363794973869549,1.578663571589206,2762,84,920,1376,111.89980036505904,64.48512518651803,0.0012782979435285,False
0.39,0.8678490406366197,2.4000000000000004,5289.0,48.31008,0.3,68900.0,0.33,276.0,2700.0,32.626562644680305,6.237942292633802,16842.444190111266,22.55136750684096,8.416630009650719,10.075195137839348,2.178687717016917,3098,90,1024,1556,119.14812014184298,68.72128213363698,0.0014058557803022,False
0.4,0.7352710685101311,2.4000000000000004,5290.0,48.31008,0.3,68900.0,0.33,276.0,2700.0,24.349615039898087,4.735881721426456,12786.880647851433,17.88130231781218,5.741269917679852,6.468312722085905,1.0053881962533957,2397,76,794,1200,95.59618539744258,54.97844898787986,0.0011184724446142,False
0.4100000000000001,0.7468744558453115,2.4000000000000004,5291.0,48.31008,0.2,68900.0,0.33,276.0,2700.0,24.77842670190321,4.935229669038118,13325.12010640292,18.272392569912583,5.951019308372304,6.506034131990628,1.0157896393341863,6697,112,1686,3750,106.91697984822667,61.61897045272724,0.0011417173652005,False
0.42,1.0237776412076889,2.4000000000000004,5292.0,48.31008,0.3,68900.0,0.33,276.0,2700.0,42.29506633185994,8.726794385344483,23562.344840430105,28.60927576432831,12.397393481887317,13.685790567531631,3.6705990965428335,3972,106,1318,1989,157.1758729018414,90.7278071004835,0.0027804051356052,False
0.43,0.7385668766508278,2.4000000000000004,5293.0,48.31008,0.2,68900.0,0.33,276.0,2700.0,23.84161014111044,4.959427108932769,13390.453194118478,17.9920429168205,5.800385674329197,5.849567224289942,0.840958565396428,6627,110,1658,3724,102.83910889504662,59.31240361283904,0.0010882904363555,False
0.44,0.7730780843656185,2.4000000000000004,5294.0,48.31008,0.2,68900.0,0.33,276.0,2700.0,25.5848558359008,5.450259331495915,14715.700195038971,19.16803080234121,6.441519098438759,6.416825033559583,0.9912597669428438,7129,116,1798,3992,103.00959007319165,59.41770411652631,0.0011251989784053,False
0.45,0.754560783919683,2.4000000000000004,5295.0,48.31008,0.3,68900.0,0.33,276.0,2700.0,24.29161283444844,5.274761134045319,14241.85506192236,18.533322166205583,6.092468756532757,5.75829066824285,0.817707622487438,2340,74,764,1178,85.87529707456912,48.984011416992594,0.001065293278569,False
0.46,1.0804437979118546,2.4000000000000004,5296.0,48.31008,0.3,68900.0,0.33,276.0,2700.0,45.15567474052165,10.18194514863344,27491.251901310283,30.962171957395988,14.084854885684406,14.193502783125666,3.902909737050967,4223,108,1388,2123,122.70709414631,70.4799810707858,0.0016303578825153,False
0.4700000000000001,1.109814854245247,2.4000000000000004,5297.0,48.31008,0.2,68900.0,0.33,276.0,2700.0,47.00586278925811,10.828931372759728,29238.114706451262,32.21347431625267,15.01256955236821,14.792388473005438,4.183638179608483,12758,166,3144,7212,127.3728826015856,73.29860993984391,0.0016802458274864,False
0.4800000000000001,1.0515991801675255,2.4000000000000004,5298.0,48.31008,0.3,68900.0,0.33,276.0,2700.0,42.479666986496525,9.963496733595305,26901.441180707323,29.754399152565394,13.209232007006843,12.725267833931133,3.2457352734115403,3817,104,1270,1898,117.27320781748932,67.41156757875993,0.001509795218091,False
0.49,0.9979345555925204,2.4000000000000004,5299.0,48.31008,0.3,68900.0,0.33,276.0,2700.0,38.464577523869984,9.177418003946688,24779.028610656056,27.56301251278397,11.671597002933838,10.90156501108601,2.4941789989871506,3516,98,1132,1778,115.68653919610348,66.66816242800066,0.001394592614846,False
0.5,0.8332288790593406,2.4000000000000004,5300.0,48.31008,0.08,68900.0,0.33,276.0,2700.0,27.709615769921204,6.6656045546811535,17997.132297639113,21.289254192896827,7.6578322114284125,6.4203615770243765,0.992227656747259,95577,294,11418,63696,114.36196448920418,64.96114214355717,0.0011216289120788,False
0.04,0.4724253015989986,2.4000000000000004,5304.0,51.32946,0.1,68900.0,0.33,276.0,2700.0,18.799265694533965,0.375851272604126,1014.7984360311405,9.92863950261985,2.1244402617565203,8.870626191914115,1.7485889891523942,15696,194,5156,7956,648.2599959280533,370.5005374871746,0.0054517724566416,True
0.05,0.7329337700077017,2.4000000000000004,5305.0,51.32946,0.2,68900.0,0.33,276.0,2700.0,33.96226898077092,0.848794925131474,2291.74629785498,17.8029335150331,5.699567588936073,16.159335465737822,4.850772663804599,7373,140,2416,3743,738.816280123432,421.08906320898217,0.0080906714557507,True
0.06,0.5202307900350928,2.4000000000000004,5306.0,51.32946,0.2,68900.0,0.33,276.0,2700.0,20.847688659260577,0.6249782704357006,1687.4413301763918,11.245858979396283,2.6303400640178043,9.601829679864291,2.005361793582104,4488,106,1480,2262,440.0993675674546,253.97177412588007,0.004231604233009,True
0.0699999999999999,0.5183555063595714,2.4000000000000004,5307.0,51.32946,0.1,68900.0,0.33,276.0,2700.0,20.480272552743592,0.7160911618259073,1933.4461369299495,11.19310555237328,2.6093003658888843,9.287167000370312,1.8932092040629769,17436,206,5724,8844,403.6427316177756,231.54268887516653,0.0036492822784092,True
0.08,0.773212925545489,2.4000000000000004,5308.0,51.32946,0.3,68900.0,0.33,276.0,2700.0,35.66478495166072,1.4255190677740053,3848.901482989814,19.17268429425105,6.4441040520639765,16.49210065740967,5.018584984289971,3584,98,1180,1808,499.761728201474,288.5355667682728,0.0055091422312552,True
0.09,0.5045339373511954,2.4000000000000004,5309.0,51.32946,0.2,68900.0,0.33,276.0,2700.0,19.2174279866992,0.8632574453718211,2330.795102503917,10.807018645521774,2.4572677785621697,8.410409341177425,1.5940103331903486,4182,100,1360,2136,290.4722990222362,167.20888858862486,0.002799931463686,True
0.0999999999999999,0.6609105422442139,2.4000000000000004,5310.0,51.32946,0.2,68900.0,0.33,276.0,2700.0,27.86729258362921,1.3912702340790657,3756.4296320134767,15.455321357282148,4.502666641696381,12.411971226347069,3.1113964076173155,5876,124,1926,2981,350.13355980218466,201.03959012299143,0.0035969166813786,True
0.11,0.6245509458951423,2.4000000000000004,5311.0,51.32946,0.3,68900.0,0.33,276.0,2700.0,25.40604508803846,1.394544839960828,3765.271067894236,14.319693714253424,3.96146355069252,11.086351373785035,2.5669187107316915,2560,80,838,1297,308.4948748046977,177.80040122600946,0.0030573773852353,True
0.12,0.7784832666268784,2.4000000000000004,5312.0,51.32946,0.3,68900.0,0.33,276.0,2700.0,34.73340123849311,2.08038495957265,5617.039390846155,19.354926544518268,6.545630570547791,15.37847469397484,4.465245610975142,3420,96,1128,1722,342.63408661074504,197.81987362168783,0.0037803208337684,True
0.13,0.8192198051147103,2.4000000000000004,5313.0,51.32946,0.3,68900.0,0.33,276.0,2700.0,37.14961664021852,2.410123695574239,6507.333978050446,20.78709995547823,7.363112591337916,16.36251668474029,4.952988895763676,3733,100,1226,1888,325.5248480488386,187.92287365686013,0.0037653209898497,True
0.14,0.6925638662357699,2.4000000000000004,5314.0,51.32946,0.3,68900.0,0.33,276.0,2700.0,28.640327089743614,1.9990758761210887,5397.504865526939,16.471010234869762,5.007887477861681,12.169316854873856,3.008811601740592,2754,84,906,1389,265.4952204922357,153.20034105243784,0.0027979104886802,False
0.15,0.6130570690175827,2.4000000000000004,5315.0,51.32946,0.3,68900.0,0.33,276.0,2700.0,23.644855109468462,1.7662955497395585,4768.997984296808,13.967614591169172,3.798901311490316,9.677240518299293,2.032605761750758,2359,76,772,1195,226.6127322364169,130.80720738742636,0.0022368129250983,False
0.16,0.6329788594026591,2.4000000000000004,5316.0,51.32946,0.3,68900.0,0.33,276.0,2700.0,24.52352987028726,1.953303747283576,5273.920117665654,14.579966480387654,4.083244215178519,9.943563389899603,2.129940467894944,2525,78,824,1283,217.3441433490059,125.44553335280496,0.0021962799531892,False
0.17,0.5965855619079174,2.4000000000000004,5317.0,51.32946,0.3,68900.0,0.33,276.0,2700.0,22.18837679285621,1.87572226425472,5064.450113487744,13.468849740314054,3.572950712469121,8.71952705254216,1.6972284482144016,2249,74,740,1133,196.32858187861467,113.31454405054588,0.0019250145558222,False
0.18,0.7718999105718791,2.4000000000000004,5318.0,51.32946,0.3,68900.0,0.33,276.0,2700.0,32.455602210948925,2.9087896867482423,7853.732154220254,19.12739039149128,6.418959771028572,13.328211819457644,3.5101700842803294,3352,94,1100,1696,226.18201757207945,130.54184063202877,0.0025592131675461,False
0.19,0.5698899048452092,2.4000000000000004,5319.0,51.32946,0.08,68900.0,0.33,276.0,2700.0,20.217111499293573,1.9062601364255745,5146.902368349051,12.674974083291238,3.2240272805256653,7.542137416002335,1.3177671441000909,34695,250,8534,19658,163.75284721790896,94.499828539121,0.0016600221619331,False
0.2,0.8311288872140554,2.4000000000000004,5320.0,51.32946,0.3,68900.0,0.33,276.0,2700.0,35.73634815865517,3.556879655046367,9603.57506862519,21.213665865769844,7.613204338062378,14.522682292885325,4.056324683016011,3628,98,1188,1840,218.62932089620404,126.22499676188298,0.0025695119451115,False
0.21,0.7487298768801087,2.4000000000000004,5321.0,51.32946,0.3,68900.0,0.33,276.0,2700.0,30.10623442471541,3.141758421551858,8482.747738190017,18.335243033533327,5.9849805835608745,11.770991391182084,2.8432221620090163,2925,86,962,1476,191.77105547542396,110.65070482718195,0.002130459423032,False
0.22,0.8352180403630971,2.4000000000000004,5322.0,51.32946,0.3,68900.0,0.33,276.0,2700.0,35.39451121390957,3.871095114479772,10451.956809095384,21.360955435763028,7.700251268239401,14.03355577814654,3.829156153759629,3452,96,1134,1745,201.93948977809188,116.58963506524373,0.0023697790261843,False
0.23,0.7233367874324295,2.4000000000000004,5323.0,51.32946,0.3,68900.0,0.33,276.0,2700.0,27.980350977090527,3.192257857154595,8619.096214317406,17.48258930504848,5.530252166344265,10.497761672042046,2.3379943091896704,2836,84,936,1426,169.548337271922,97.84733349889495,0.0018745337802061,False
0.24,0.7456884704308808,2.4000000000000004,5324.0,51.32946,0.3,68900.0,0.33,276.0,2700.0,29.07134906590607,3.4596089700132344,9340.944219035731,18.232263871476626,5.929372316817193,10.839085194429448,2.4697633468039584,2756,84,912,1382,166.63593017757705,96.14897562364904,0.001877180274522,False
0.25,0.6946745900081372,2.4000000000000004,5325.0,51.32946,0.3,68900.0,0.33,276.0,2700.0,25.729986807122607,3.18352342741543,8595.51325402166,16.539634502621517,5.042725634461123,9.19035230450109,1.8592022070456928,2612,80,858,1319,150.0156989629834,86.4011514589704,0.0016535450801005,False
0.26,0.8774299094645593,2.4000000000000004,5326.0,51.32946,0.3,68900.0,0.33,276.0,2700.0,37.00714114972789,4.774117261144966,12890.116605091407,22.90596951585701,8.634388559360929,14.101171633870884,3.860271298215963,3458,98,1140,1742,181.212836766462,104.60778619301472,0.002171252628338,False
0.27,0.8451416821023428,2.4000000000000004,5327.0,51.32946,0.3,68900.0,0.33,276.0,2700.0,34.549884545861545,4.623010434890444,12482.1281742042,21.72014827527727,7.9140099409364275,12.829736270584274,3.290999506045983,3490,96,1146,1765,167.32015362515,96.50288008540204,0.0019959131244889,False
0.28,0.8636619621583843,2.4000000000000004,5328.0,51.32946,0.3,68900.0,0.33,276.0,2700.0,35.47941302080424,4.9211416616248576,13287.082486387117,22.397122010093515,8.322528736849753,13.082291010710724,3.401387075224896,3507,98,1150,1776,166.72199778650162,96.23908765578076,0.0019853952348443,False
0.29,0.658505661162968,2.4000000000000004,5329.0,51.32946,0.08,68900.0,0.33,276.0,2700.0,22.64258564490307,3.232094716358679,8726.655734168433,15.379183020066195,4.465590012712973,7.263402624836871,1.2334952963542936,52341,264,9406,32438,219.83909111970968,125.6669524856579,0.0017535858532663,False
0.3,0.7713240035087232,2.4000000000000004,5330.0,51.32946,0.3,68900.0,0.33,276.0,2700.0,29.006508981131816,4.294427679405051,11594.954734393636,19.10753751105697,6.407949888909939,9.898971470074844,2.113522209504888,2908,86,962,1459,139.53450884119633,80.26250222005832,0.001611926276073,False
0.31,0.9291136707361092,2.4000000000000004,5331.0,51.32946,0.3,68900.0,0.33,276.0,2700.0,39.011377213904645,5.984369343659825,16157.797227881529,24.85865131929783,9.868427041092485,14.152725894606814,3.88405769743266,3609,100,1188,1821,159.96009025257646,92.2855392692476,0.0020005540359851,False
0.32,0.7809675254365414,2.4000000000000004,5332.0,51.32946,0.3,68900.0,0.33,276.0,2700.0,29.062539326923787,4.5813771535925865,12369.718314699983,19.441071401936323,6.593820188276212,9.621467924987464,2.012443034683626,2892,86,958,1449,133.5160742589498,76.7679681268872,0.0015487201802637,False
0.33,0.7347386972209357,2.4000000000000004,5333.0,51.32946,0.3,68900.0,0.33,276.0,2700.0,26.02529584465106,4.2189075375723615,11391.050351445376,17.863440019433302,5.731755180716861,8.161855825217756,1.5128476431444993,2606,80,864,1304,125.8241131585072,72.5846564515495,0.0013966395260708,False
0.34,0.6668210801137173,2.4000000000000004,5334.0,51.32946,0.08,68900.0,0.33,276.0,2700.0,21.91365130967704,3.643002617540634,9836.107067359711,15.64306611955776,4.594570307673849,6.270585190119276,0.9515676901332152,56593,260,9244,35787,119.80542349459262,69.08556793146371,0.0012416203587425,False
0.3500000000000001,0.9989212819182832,2.4000000000000004,5335.0,51.32946,0.3,68900.0,0.33,276.0,2700.0,42.67983850477802,7.379174548321047,19923.771280466823,27.602652146379512,11.69881370772044,15.077186358398508,4.319639159399393,3917,106,1296,1967,156.0422912446279,89.92778072022449,0.001979061748195,False
0.36,0.8434448864699153,2.4000000000000004,5336.0,51.32946,0.3,68900.0,0.33,276.0,2700.0,31.885732393858227,5.641715732997223,15232.632479092505,21.65855620684036,7.877207553014895,10.227176187017868,2.235491820017671,3145,90,1042,1576,129.8653184137822,74.81092113454088,0.0015404988884058,False
0.37,0.7785314311956255,2.4000000000000004,5337.0,51.32946,0.3,68900.0,0.33,276.0,2700.0,27.61440533122416,5.0025775911549495,13506.959496118365,19.356595238199663,6.546562832423661,8.2578100930245,1.5439852412687118,2765,84,922,1376,119.80606382668364,69.05679250382738,0.0013626643365554,False
0.38,0.7917966880545266,2.4000000000000004,5338.0,51.32946,0.2,68900.0,0.33,276.0,2700.0,28.159107286335598,5.235306736345244,14135.328188132158,19.81839822554478,6.8063911189573,8.340709060790815,1.5710843826120555,7678,122,1944,4290,126.85807908620544,73.23314862972097,0.0013843024062189,False
0.39,0.9608950466447568,2.4000000000000004,5339.0,51.32946,0.3,68900.0,0.33,276.0,2700.0,38.79726883650383,7.441230000039384,20091.32100010633,26.092728335069527,10.678012283918848,12.704540501434298,3.2367822838794647,3571,100,1188,1783,138.61055986145206,79.8818840067811,0.0017094464886205,False
0.4,0.9638599391621075,2.4000000000000004,5340.0,51.32946,0.3,68900.0,0.33,276.0,2700.0,38.70728495720082,7.607415704886996,20540.02240319489,26.209150263235767,10.755546953582073,12.498134693965053,3.1481312486950763,3571,100,1188,1783,135.38488665862172,78.00101736445995,0.0016794804112804,False
0.4100000000000001,1.0827109865764457,2.4000000000000004,5341.0,51.32946,0.3,68900.0,0.33,276.0,2700.0,46.88901830140577,9.467900946935874,25563.33255672686,31.05798935717701,14.155160564631473,15.83102894422876,4.687259617695599,4487,112,1488,2249,142.19555260413875,81.64024102939156,0.0019203225205293,False
0.42,0.7781897202641992,2.4000000000000004,5342.0,51.32946,0.1,68900.0,0.33,276.0,2700.0,26.358395213031983,5.380093450390612,14526.252316054652,19.34475769506028,6.539950494828089,7.013637517971702,1.1598570444374765,43033,230,7126,27106,115.75542867144044,66.75445739757293,0.0012573237024852,False
0.43,1.1186219777169542,2.4000000000000004,5343.0,51.32946,0.3,68900.0,0.33,276.0,2700.0,48.93606228112427,10.354734319035744,27957.782661396508,32.59291168599353,15.297947043265996,16.343150595130744,4.943212724230252,4500,114,1494,2253,142.82000662413265,81.97292187090335,0.0019239855576744,False
0.44,0.9891554521414292,2.4000000000000004,5344.0,51.32946,0.3,68900.0,0.33,276.0,2700.0,39.28213907188944,8.463661643413326,22851.88643721598,27.211408065667744,11.43116326769618,12.070731006221695,2.9675016242828534,3679,100,1230,1828,125.49631842057596,72.19129074858107,0.0016004961524947,False
0.45,0.7775273378871826,2.4000000000000004,5345.0,51.32946,0.08,68900.0,0.33,276.0,2700.0,25.608862528108407,5.571142315118813,15042.084250820795,19.3218198160362,6.527144465675314,6.287042712072207,0.9560021505565012,82196,282,10670,54099,118.47281161514992,67.1411895406793,0.0011922500603167,False
0.46,0.989842416541954,2.4000000000000004,5346.0,51.32946,0.3,68900.0,0.33,276.0,2700.0,38.75648139778545,8.710130679804111,23517.3528354711,27.238851239253037,11.449865961887973,11.517630158532416,2.73973528208386,3720,100,1232,1858,123.7260605877432,71.16956487934533,0.0015435548975826,False
0.4700000000000001,0.9341480295857054,2.4000000000000004,5347.0,51.32946,0.3,68900.0,0.33,276.0,2700.0,34.758847596153565,7.950882802380322,21467.38356642687,25.052444340740344,9.994061956923428,9.70640325541322,2.0431791545431057,3270,92,1072,1640,122.80902691810036,70.57090074403789,0.0014050439304654,False
0.4800000000000001,0.9198238706449612,2.4000000000000004,5348.0,51.32946,0.3,68900.0,0.33,276.0,2700.0,33.566010930656695,7.824219280193732,21125.39205652308,24.5027211835499,9.639150078808886,9.063289747106792,1.814930798615153,3394,92,1046,1759,113.57725269155172,65.10729474516116,0.0013630117003529,False
0.49,0.824785877674413,2.4000000000000004,5349.0,51.32946,0.2,68900.0,0.33,276.0,2700.0,27.44293569391722,6.477115755608265,17488.212540142315,20.986024873336024,7.479368352094626,6.4569108205811965,1.0022525964863611,7454,118,1832,4214,106.8363636523409,61.5059711814118,0.0011860362576119,False
0.5,0.8291150316212708,2.4000000000000004,5350.0,51.32946,0.2,68900.0,0.33,276.0,2700.0,27.46536768673897,6.604542533885592,17832.2648414911,21.141282085526843,7.570555980761272,6.324085601212129,0.9660134468756798,7837,120,1926,4428,104.1885907650555,60.09009395237873,0.0011788712480362,False
0.03,0.3794137692714805,2.4000000000000004,5353.0,54.34884,0.1,68900.0,0.33,276.0,2700.0,14.333677792995092,0.2149486182271618,580.3612692133371,7.5304143220052415,1.3141788552914992,6.803263470989852,1.0992302370643374,11859,164,3892,6015,701.4981647434969,400.62329621677947,0.0057778732747962,True
0.05,0.7263134889684186,2.4000000000000004,5355.0,54.34884,0.2,68900.0,0.33,276.0,2700.0,33.52812726151745,0.8379413821501389,2262.441731805375,17.581703010150825,5.582440077499394,15.946424251366622,4.744498695349255,7104,138,2340,3588,796.1204759473264,454.4279181447069,0.0084472557151834,True
0.06,0.468142582999384,2.4000000000000004,5356.0,54.34884,0.1,68900.0,0.33,276.0,2700.0,18.061393725526795,0.5413894224236858,1461.7514405439515,9.813437929674498,2.082165545168804,8.247955795852297,1.5407761227451182,15194,190,4990,7703,446.07031497978767,255.43241937704545,0.0039232133938991,True
0.0699999999999999,0.5601766763653561,2.4000000000000004,5357.0,54.34884,0.2,68900.0,0.33,276.0,2700.0,22.80161798085651,0.7973382518098594,2152.8132798866204,12.390566088957051,3.102295540522681,10.411051891899458,2.3049572887128216,4917,110,1614,2490,430.5409302974227,248.5631686778929,0.0042713177734414,True
0.08,0.5076058852722496,2.4000000000000004,5358.0,54.34884,0.2,68900.0,0.33,276.0,2700.0,19.6382798067862,0.7844588619790225,2118.0389273433607,10.892414401345269,2.4905974819647763,8.745865405440933,1.7061386199857538,4102,100,1340,2086,345.56321591262804,198.41300167144743,0.0033315136211704,True
0.09,0.5323796720527243,2.4000000000000004,5359.0,54.34884,0.1,68900.0,0.33,276.0,2700.0,20.719923244042096,0.9308697319522526,2513.3482762710823,11.589759058199189,2.769049923188837,9.130164185842908,1.8381801912365847,16862,204,5550,8531,319.90914087460834,184.01316046681367,0.0031685508428256,True
0.0999999999999999,0.4770949466966057,2.4000000000000004,5360.0,54.34884,0.08,68900.0,0.33,276.0,2700.0,17.528177660860052,0.8743144879406104,2360.649117439648,10.05477440606253,2.171097773892177,7.473403254797523,1.2967832859515669,22702,232,7498,11449,255.40851693351968,147.3161479884496,0.002505040043453,False
0.11,0.7192885651687777,2.4000000000000004,5361.0,54.34884,0.3,68900.0,0.33,276.0,2700.0,31.201056075266703,1.7132704442583848,4625.830199497639,17.348155091708154,5.459751007828797,13.852900983558548,3.746480563570412,3210,90,1050,1629,366.80453666460966,211.76160658589689,0.0039033548118793,True
0.12,0.6436458352216833,2.4000000000000004,5362.0,54.34884,0.3,68900.0,0.33,276.0,2700.0,26.25410038655171,1.5716269084561658,4243.392652831648,14.911946062260462,4.240536432111939,11.342154324291249,2.668909523655773,2526,80,828,1278,309.0918124904513,178.4386190991185,0.0031053797613939,True
0.13,0.5688265424271524,2.4000000000000004,5363.0,54.34884,0.2,68900.0,0.33,276.0,2700.0,21.68096118179848,1.4046610907769443,3792.58494509775,12.643722736293055,3.210565807707877,9.037238445505425,1.8059047169309328,4495,106,1470,2284,242.60079038189417,139.9296075738149,0.0024547890849371,False
0.14,0.6409260754717259,2.4000000000000004,5364.0,54.34884,0.3,68900.0,0.33,276.0,2700.0,25.53405767945272,1.7816370174007246,4810.419946981956,14.827029583421634,4.200095039764596,10.707028096031085,2.418458022363872,2554,80,836,1294,264.0292064624527,152.4027743029769,0.0026731808021745,False
0.15,0.7923223820616738,2.4000000000000004,5365.0,54.34884,0.3,68900.0,0.33,276.0,2700.0,34.70739221673512,2.5959858327845557,7009.1617485183,19.836790299104177,6.81681436613288,14.870601917630946,4.220828533348325,3446,96,1134,1739,298.0992248093089,172.0872054720864,0.0033303570863747,True
0.16,0.7584209550241681,2.4000000000000004,5366.0,54.34884,0.3,68900.0,0.33,276.0,2700.0,32.189013130566764,2.566542408105937,6929.66450188603,18.66492440880285,6.1642644343461095,13.52408872176391,3.5977220262401723,3206,90,1046,1631,267.98722987708203,154.71091784501374,0.0029545135521469,False
0.17,0.858901554426308,2.4000000000000004,5367.0,54.34884,0.3,68900.0,0.33,276.0,2700.0,38.57449731533178,3.2685425086651505,8825.064773395907,22.22229119816197,8.216325662970013,16.35220611716981,4.947783154304862,3691,100,1208,1873,275.0600205429884,158.70109823367966,0.0033103077676361,False
0.18,0.7689596108495993,2.4000000000000004,5368.0,54.34884,0.3,68900.0,0.33,276.0,2700.0,32.26636034655303,2.891757918952612,7807.746381172052,19.026118658008382,6.362868448236881,13.240241688544645,3.471110529284269,3368,94,1100,1712,238.60717190319457,137.71385374276431,0.0026959851180257,False
0.19,0.8002700102378708,2.4000000000000004,5369.0,54.34884,0.3,68900.0,0.33,276.0,2700.0,33.998436324916334,3.2154859948597365,8681.81218612129,20.115694435545088,6.975577061418071,13.882741889371246,3.7600910665583354,3331,94,1094,1684,236.6877788170936,136.56196320218564,0.0027060828994842,False
0.2,0.5851685595022071,2.4000000000000004,5370.0,54.34884,0.3,68900.0,0.33,276.0,2700.0,20.799625483306485,2.0632073875115053,5570.659946281065,13.127138801204248,3.4211305967314884,7.672486682102237,1.357923209219983,2248,74,742,1129,171.62385994212784,98.90827311477273,0.001721691571798,False
0.21,0.7516341282912596,2.4000000000000004,5371.0,54.34884,0.3,68900.0,0.33,276.0,2700.0,30.28801057406497,3.160844917233561,8534.281276530615,18.433795247121964,6.0383737979123175,11.854215326943002,2.877528880678756,2952,86,970,1491,202.187479619126,116.66623955857578,0.0022673408097283,False
0.22,0.7263169562456242,2.4000000000000004,5372.0,54.34884,0.3,68900.0,0.33,276.0,2700.0,28.43837372735216,3.1059199909584096,8385.983975587706,17.58181858815273,5.582501038338368,10.856555139199427,2.476581047379958,2761,84,910,1390,186.7813830285145,107.80034345107414,0.0020783135219593,False
0.23,0.6963880825838932,2.4000000000000004,5373.0,54.34884,0.3,68900.0,0.33,276.0,2700.0,26.361802688483674,3.0061248039643265,8116.536970703682,16.59542625582274,5.071113964228255,9.766376432660934,2.0649891602639285,2602,80,856,1312,173.8007578193083,100.13545432138032,0.0018896705611365,False
0.24,0.8260540725116432,2.4000000000000004,5374.0,54.34884,0.3,68900.0,0.33,276.0,2700.0,34.184982606261585,4.073244994855908,10997.76148611095,21.03145758734865,7.506011524987796,13.15352501891293,3.4327665301318886,3502,96,1150,1771,195.515806923763,112.87988233193812,0.0022769145561159,False
0.25,0.5559293152968671,2.4000000000000004,5375.0,54.34884,0.3,68900.0,0.33,276.0,2700.0,18.056372970424,2.224321697828106,6005.668584135888,12.266946448518992,3.049931021602197,5.789426521905007,0.8256093237740902,1675,64,550,844,129.34623077067957,74.65535045644955,0.0013390339707654,False
0.26,0.59636818198308,2.4000000000000004,5376.0,54.34884,0.1,68900.0,0.33,276.0,2700.0,19.95642947985508,2.557524744061394,6905.316808965765,13.462312964329016,3.5700235654285635,6.494116515526063,1.0124988213671693,23071,200,5500,13219,141.20439523226787,81.45982932685433,0.0014268175086405,False
0.27,0.8296539940359589,2.4000000000000004,5377.0,54.34884,0.3,68900.0,0.33,276.0,2700.0,33.53597289159435,4.486132361564832,12112.557376225046,21.16064396052955,7.581955554537248,12.375328931064796,3.095823192972416,3226,92,1066,1621,175.11492024663346,101.00305276932563,0.0020616052866703,False
0.28,0.7158051618078103,2.4000000000000004,5378.0,54.34884,0.3,68900.0,0.33,276.0,2700.0,26.19127645773913,3.620802542795736,9776.166865548488,17.232807190264538,5.3995213762353576,8.958469267474591,1.7787188334396211,2551,80,838,1288,148.81717680894474,85.84988089911874,0.0016489755105989,False
0.29,0.6008852201930561,2.4000000000000004,5379.0,54.34884,0.3,68900.0,0.33,276.0,2700.0,19.50096134366701,2.776559192679428,7496.709820234456,13.598387722752834,3.6311404818967112,5.902573620914177,0.854581289217283,1940,68,640,974,128.6962858390754,73.25697689451128,0.0016467291640655,False
0.3,0.8437721808796148,2.4000000000000004,5380.0,54.34884,0.3,68900.0,0.33,276.0,2700.0,33.58604967101509,4.981358782887649,13449.668713796653,21.67043105015184,7.88429822059504,11.915618620863253,2.902939437707391,3249,92,1076,1629,171.6886171445641,98.67770519084829,0.0025670307182377,False
0.31,0.9641508071154088,2.4000000000000004,5381.0,54.34884,0.3,68900.0,0.33,276.0,2700.0,41.46226224947622,6.364256524173113,17183.492615267405,26.22058362579609,10.763172018225951,15.24167862368013,4.398915494052838,3957,106,1304,1995,177.7336646325967,102.5378391859449,0.0022248956388881,False
0.32,0.8693479293848196,2.4000000000000004,5382.0,54.34884,0.3,68900.0,0.33,276.0,2700.0,34.68298183833381,5.480647955418194,14797.749479629125,22.606691349180803,8.450473455752752,12.076290489153006,2.969825500334558,3208,94,1066,1603,157.2799664096075,90.75093120858529,0.0018833825108698,False
0.33,0.7347957720742464,2.4000000000000004,5383.0,54.34884,0.3,68900.0,0.33,276.0,2700.0,26.028651784061893,4.2194612675755065,11392.545422453868,17.865354672979432,5.732774788573473,8.16329711108246,1.513313520997967,2606,80,864,1304,133.23383330080634,76.85912684699939,0.001478932722023,False
0.34,0.8371674701739709,2.4000000000000004,5384.0,54.34884,0.3,68900.0,0.33,276.0,2700.0,32.034528685198175,5.363551771379229,14481.58978272392,21.43132100322554,7.741961522405997,10.603207681972634,2.3784097510267683,3093,90,1028,1545,144.23342118560592,83.07001237154434,0.0016983858872457,False
0.3500000000000001,0.6616838652133652,2.4000000000000004,5385.0,54.34884,0.1,68900.0,0.33,276.0,2700.0,21.400700634812274,3.6553254210770407,9869.37863690801,15.479835584226556,4.514628074436372,5.92086505058572,0.8593026533593311,31051,204,5786,19086,123.80443823057064,71.37059124020573,0.0012732766392513,False
0.36,0.9334287467473128,2.4000000000000004,5386.0,54.34884,0.3,68900.0,0.33,276.0,2700.0,37.8038996037591,6.706985830779384,18108.86174310434,25.02471720531113,9.976052136255076,12.779182398447965,3.2690663054756914,3360,96,1114,1683,150.9651744067444,87.05563527892899,0.0018650308258675,False
0.37,1.0481721886705873,2.4000000000000004,5387.0,54.34884,0.3,68900.0,0.33,276.0,2700.0,45.61838466182133,8.333313767315314,22499.947171751348,29.61229500922993,13.107507513254228,16.006089652591402,4.774193745938913,4229,110,1398,2126,162.190893373096,93.34612769327384,0.002130840945778,False
0.38,0.7330814940681568,2.4000000000000004,5388.0,54.34884,0.2,68900.0,0.33,276.0,2700.0,24.6988320435305,4.577854440212267,12360.206988573122,17.807882586578078,5.702197876104679,6.890949456952424,1.1243434358924125,6788,114,1766,3755,126.90717690405278,73.20031662187965,0.0013363179599372,False
0.39,1.0344014559360937,2.4000000000000004,5389.0,54.34884,0.3,68900.0,0.33,276.0,2700.0,43.979822865836105,8.451828035759185,22819.9356965498,29.0442517745931,12.703641168084983,14.935571091243006,4.2518131323258,4191,108,1388,2103,153.43438774712178,88.34450228785025,0.001997561175865,False
0.4,0.9856623771812744,2.4000000000000004,5390.0,54.34884,0.3,68900.0,0.33,276.0,2700.0,40.21389954848857,7.908738623144019,21353.59428248885,27.07204856545745,11.336355265407157,13.141850983031116,3.4276166422631364,3949,104,1308,1979,143.31914913728264,82.47165838159535,0.0018307290321225,False
0.4100000000000001,0.8897488781261407,2.4000000000000004,5391.0,54.34884,0.3,68900.0,0.33,276.0,2700.0,33.49200857875805,6.721513953793359,18148.08767524207,23.36530281443428,8.919391820795266,10.126705764323775,2.197877867001907,3220,92,1066,1615,128.82610978621491,74.07996092634191,0.0015653734912997,False
0.42,0.8490702036877491,2.4000000000000004,5392.0,54.34884,0.3,68900.0,0.33,276.0,2700.0,30.64673822823663,6.280645483583577,16957.742805675658,21.86302758075322,7.999618537508391,8.78371064748341,1.718973053924814,2975,86,970,1500,122.18742855013971,70.32092288215705,0.0014559130890059,False
0.43,0.7637570625322495,2.4000000000000004,5393.0,54.34884,0.08,68900.0,0.33,276.0,2700.0,25.280214844145657,5.2687271200853445,14225.563224230433,18.847461429339244,6.264349177981032,6.432753414806413,0.9956220578956874,76259,278,10276,49927,122.49011866518374,69.69267251265339,0.0012815604953459,False
0.44,0.9867867276708172,2.4000000000000004,5394.0,54.34884,0.3,68900.0,0.33,276.0,2700.0,39.11926148692425,8.427828574721074,22755.1371517469,27.11687211456955,11.366818932177155,12.002389372354704,2.938990357456081,3668,100,1226,1823,132.35373236182332,76.10451419290261,0.0016895005491836,False
0.45,1.0233077610215364,2.4000000000000004,5395.0,54.34884,0.3,68900.0,0.33,276.0,2700.0,41.36571727043962,9.116434632143331,24614.373506787,28.590102736288937,12.383955054795756,12.77561453415068,3.2675204226524226,3679,102,1230,1826,159.4848111578112,88.88032743848959,0.001737946186401,False
0.46,1.045994101518004,2.4000000000000004,5396.0,54.34884,0.3,68900.0,0.33,276.0,2700.0,42.67386893672303,9.611129813759725,25950.050497151256,29.522131535375514,13.043107567529477,13.151737401347518,3.4319777537697504,4070,106,1304,2074,133.06956960891765,76.35082164255428,0.0017542010324377,False
0.4700000000000001,1.0356658852746663,2.4000000000000004,5397.0,54.34884,0.3,68900.0,0.33,276.0,2700.0,41.64721220667264,9.569648485852271,25838.05091180113,29.096210815324245,12.740398417179522,12.55100139134839,3.1707499313272507,3832,102,1266,1917,138.2186909596159,79.43855385726597,0.0017007033271838,False
0.4800000000000001,1.0307576046280924,2.4000000000000004,5398.0,54.34884,0.3,68900.0,0.33,276.0,2700.0,41.01177589912923,9.611202872627148,25950.2477560933,28.89474018692222,12.598080733593951,12.117035712207011,2.986877860966805,3910,102,1268,1974,135.9406782487364,78.15469852283084,0.001661779302652,False
0.49,1.025881482684139,2.4000000000000004,5399.0,54.34884,0.3,68900.0,0.33,276.0,2700.0,40.38476312462763,9.647863476132311,26049.231385557247,28.695189120412014,12.457673217389631,11.689574004215618,2.809809741257318,3920,102,1244,2008,127.26152118368816,73.28581046603519,0.0016233989348541,False
0.5,1.1493863769056496,2.4000000000000004,5400.0,54.34884,0.3,68900.0,0.33,276.0,2700.0,49.025420621062224,11.9945557674662,32385.300572158743,33.933632763689964,16.32121064599632,15.09178785737226,4.326654878530119,5090,116,1536,2664,134.85613576088952,77.16599378755025,0.0018657483175683,False
0.05,0.5222452288159731,2.4000000000000004,5405.0,57.36822,0.1,68900.0,0.33,276.0,2700.0,21.22641184123973,0.530398496643302,1432.0759409369152,11.302625430626938,2.6530513176199677,9.923786410612792,2.1226528209766653,17425,208,5730,8824,686.2823424848641,392.1451017874691,0.0056171008723055,True
0.06,0.4865676450996362,2.4000000000000004,5406.0,57.36822,0.1,68900.0,0.33,276.0,2700.0,19.031396046157777,0.5704894920426183,1540.3216285150695,10.312331259526657,2.267561718303692,8.719064786631122,1.6970722262610731,15448,194,5064,7846,492.1272161845804,281.77806393865035,0.0043445006738369,True
0.0699999999999999,0.5233151397839059,2.4000000000000004,5407.0,57.36822,0.2,68900.0,0.33,276.0,2700.0,20.750969525492746,0.7255655558721258,1959.0270008547395,11.332816760168358,2.6651602689868343,9.418152765324384,1.9395947131147089,4459,106,1458,2266,428.75179943566,247.53991862176537,0.0041321068397009,True
0.08,0.7432199469886657,2.4000000000000004,5408.0,57.36822,0.2,68900.0,0.33,276.0,2700.0,33.677426643429875,1.3460247354447716,3634.2667857008832,18.148852909385745,5.884468528507524,15.52857373404413,4.538443793062752,6987,138,2286,3552,528.0956675534932,301.96286185810715,0.0057670246961112,True
0.09,0.5505226398610947,2.4000000000000004,5409.0,57.36822,0.2,68900.0,0.33,276.0,2700.0,21.71984835548477,0.9758663619671684,2634.8391773113544,12.110240827097718,2.9840315828004487,9.609607528387055,2.0081652208332805,4750,108,1554,2413,466.2701338897872,256.95387495297007,0.0037864402536741,True
0.0999999999999999,0.4504720560115926,2.4000000000000004,5410.0,57.36822,0.08,68900.0,0.33,276.0,2700.0,16.171519963122773,0.806481603053745,2177.500328245112,9.342990246076544,1.912925010623125,6.828529717046228,1.10644340756938,20693,220,6828,10445,255.40823864214207,147.41184554713757,0.002464221940142,False
0.11,0.8046870563269897,2.4000000000000004,5411.0,57.36822,0.3,68900.0,0.33,276.0,2700.0,36.81142719320796,2.021840855745149,5458.970310511902,20.2713870505569,7.064772681092102,16.540040142651055,5.042931825346953,3597,98,1176,1827,422.8167664556386,244.1127771832207,0.004792358333481,True
0.12,0.6886495999354247,2.4000000000000004,5412.0,57.36822,0.3,68900.0,0.33,276.0,2700.0,28.98257049435691,1.7353351149240004,4685.404810294801,16.34404519453469,4.943664170662104,12.63852529982222,3.208329055738104,2791,84,914,1414,338.3249963485007,195.28452765956172,0.0035826372604488,True
0.13,0.6197292751882529,2.4000000000000004,5413.0,57.36822,0.2,68900.0,0.33,276.0,2700.0,24.57038857818728,1.5924738715422164,4299.679453163984,14.171592573158213,3.892775985220393,10.39879600502907,2.3003021136781765,5167,114,1690,2626,274.9450535713873,158.44501796726595,0.0028942526968659,False
0.14,0.5409881705108633,2.4000000000000004,5414.0,57.36822,0.3,68900.0,0.33,276.0,2700.0,19.903011392287272,1.387463777299142,3746.152198707684,11.835686494536397,2.869877543044064,8.067324897750877,1.4824137657449217,2062,70,672,1048,243.9458762573343,140.84188903927435,0.0022763313622691,False
0.15,0.6694122686914457,2.4000000000000004,5415.0,57.36822,0.3,68900.0,0.33,276.0,2700.0,26.94847289742139,2.0140668838360285,5437.980586357277,15.725650533917834,4.635211401380995,11.222822363503557,2.6211445175449666,2678,82,882,1349,269.3605204211546,155.5141805764885,0.0028057912497793,False
0.16,0.6993132516890688,2.4000000000000004,5416.0,57.36822,0.3,68900.0,0.33,276.0,2700.0,28.47853252262003,2.2697039594702035,6128.20069056955,16.690841015825896,5.119797892130882,11.787691506794133,2.8500939326606787,2777,84,912,1403,262.35703529525915,151.31235467596616,0.0027972176132355,False
0.17,0.62329422138206,2.4000000000000004,5417.0,57.36822,0.3,68900.0,0.33,276.0,2700.0,23.69863520700936,2.004094229457739,5411.054419535895,14.281036202696646,3.9434919356601714,9.417599004312716,1.9393977062024328,2526,78,824,1284,226.3520060760356,130.6478001660505,0.0022757364228336,False
0.18,0.5936889166051393,2.4000000000000004,5418.0,57.36822,0.3,68900.0,0.33,276.0,2700.0,21.77071494755571,1.947149833042859,5257.304549215719,13.381842988201589,3.5340622968880657,8.388871959354123,1.5869124638452068,2247,74,742,1128,204.6771025213189,118.13475863601252,0.0020325976315575,False
0.19,0.7667088829312677,2.4000000000000004,5419.0,57.36822,0.3,68900.0,0.33,276.0,2700.0,31.824798107468272,3.008990364202172,8124.273983345863,18.948744429666668,6.320132929843386,12.876053677801604,3.311142565641215,3347,94,1098,1694,239.8081876358543,138.38545856488173,0.0026957151193837,False
0.2,0.7231544957376723,2.4000000000000004,5420.0,57.36822,0.3,68900.0,0.33,276.0,2700.0,28.80480865194494,2.863725704375136,7732.059401812866,17.476526868384102,5.527065788089795,11.328281783560836,2.663340083714659,2807,84,926,1412,218.4683343929773,126.10628532752824,0.0023786277870351,False
0.21,0.8342703323642952,2.4000000000000004,5421.0,57.36822,0.3,68900.0,0.33,276.0,2700.0,35.63784043289596,3.722577052410693,10050.958041508871,21.326781981511928,7.680023514921635,14.311058451384037,3.9574464625109433,3611,98,1184,1829,233.92758873515427,135.05813966574186,0.0027585687736815,False
0.22,0.5851165976693337,2.4000000000000004,5422.0,57.36822,0.1,68900.0,0.33,276.0,2700.0,20.306644151606715,2.2114297376264536,5970.860291591424,13.125591072194934,3.4204485267507048,7.181053079411781,1.2090187891242512,22269,200,5536,12563,165.845843272581,95.74566194617024,0.0016910741794672,False
0.23,0.5961798152780585,2.4000000000000004,5423.0,57.36822,0.1,68900.0,0.33,276.0,2700.0,20.66350631635756,2.350820721170104,6347.21594715928,13.456649597874728,3.5674882473022427,7.206856718482834,1.216667526132139,22693,202,5626,12812,162.75792222754572,93.94694704770964,0.0016654963263773,False
0.24,0.859982955351317,2.4000000000000004,5424.0,57.36822,0.3,68900.0,0.33,276.0,2700.0,36.44132673390741,4.344006290173409,11728.816983468205,22.261956751082256,8.24037831376172,14.179369982825154,3.8963720235883113,3451,98,1138,1738,213.4560175995743,123.23364002271929,0.0025405963061948,False
0.25,0.92162221711498,2.4000000000000004,5425.0,57.36822,0.3,68900.0,0.33,276.0,2700.0,40.367671556685785,5.013234021110832,13535.731856999246,24.571453875471608,9.68327625137124,15.796217681214175,4.670042230260408,3882,104,1276,1962,219.0319289340353,126.44326610173424,0.002692234304746,False
0.26,0.6790207814751085,2.4000000000000004,5426.0,57.36822,0.3,68900.0,0.33,276.0,2700.0,24.558426833088497,3.155784399981845,8520.617879950982,16.033358872284623,4.787787967398461,8.525067960803874,1.6320035674166156,2522,78,832,1268,159.9860146941867,92.1745478013371,0.0017399436607879,False
0.27,0.757162226609166,2.4000000000000004,5427.0,57.36822,0.3,68900.0,0.33,276.0,2700.0,28.95054305627615,3.867099333796879,10441.168201251572,18.621970270557203,6.140797401602965,10.328572785718949,2.2736980678060865,2869,84,940,1453,168.84609439875476,97.23669200953871,0.0019276612385675,False
0.28,0.9001122829862397,2.4000000000000004,5428.0,57.36822,0.3,68900.0,0.33,276.0,2700.0,37.93800916276812,5.265345121499804,14216.43182804947,23.754673588425288,9.163551185898443,14.18333557434283,3.89820606439864,3439,98,1130,1738,193.48901618430708,111.674654178376,0.0023479417054886,False
0.29,0.9188715322082646,2.4000000000000004,5429.0,57.36822,0.3,68900.0,0.33,276.0,2700.0,38.91925583783249,5.592211894333447,15098.972114700307,24.466355785487742,9.615832513514292,14.452900052344742,4.023620619180846,3750,102,1232,1896,190.14304767836077,109.71946409947256,0.0023427203410745,False
0.3,0.8239399367156706,2.4000000000000004,5430.0,57.36822,0.3,68900.0,0.33,276.0,2700.0,32.3062026824245,4.789381734599059,12931.330683417458,20.95574175677297,7.4616282242252945,11.350460925651532,2.672246489626236,3085,90,1022,1546,172.272772040688,99.43172416913076,0.0019585036647729,False
0.31,0.9349502041610324,2.4000000000000004,5431.0,57.36822,0.3,68900.0,0.33,276.0,2700.0,39.41536556759188,6.046987538481282,16326.866353899462,25.083382149198812,10.014170798503988,14.331983418393062,3.967183260022704,3787,102,1246,1912,181.07460085145323,104.42780270062022,0.0022587810188471,False
0.32,0.737168680529539,2.4000000000000004,5432.0,57.36822,0.3,68900.0,0.33,276.0,2700.0,26.422706879110255,4.15900396194242,11229.310697244537,17.94502957240324,5.775262142371576,8.477677306707019,1.6162581804291554,2602,80,862,1303,144.71567827237237,83.49149219275128,0.001606610762341,False
0.33,1.0273146585516812,2.4000000000000004,5433.0,57.36822,0.3,68900.0,0.33,276.0,2700.0,45.37940513911859,7.412335571159864,20013.306042131637,28.75377859443556,12.49884044829636,16.62562654468303,5.086504877136497,4312,110,1424,2170,185.859327542518,107.1262629842799,0.0024215740238538,False
0.34,0.8020463954388872,2.4000000000000004,5434.0,57.36822,0.3,68900.0,0.33,276.0,2700.0,29.828500389803917,4.988526961162204,13469.022795137951,20.178249745419887,7.011365832744842,9.650250644384029,2.0228388715826373,2889,86,958,1446,148.20790953820784,85.47685819158599,0.0016994279128439,False
0.3500000000000001,0.7995860041868454,2.4000000000000004,5435.0,57.36822,0.3,68900.0,0.33,276.0,2700.0,29.41123559007818,5.057169038248573,13654.356403271147,20.091628347258272,6.96182603604884,9.31960724281991,1.9046569978002663,2911,86,962,1462,141.9251420977224,81.81571295655512,0.0016523298727982,False
0.36,0.7982732853910057,2.4000000000000004,5436.0,57.36822,0.3,68900.0,0.33,276.0,2700.0,29.06827209833088,5.1345728798023,13863.346775466209,20.04547455013212,6.9354816760946285,9.02279754819876,1.8009087962923287,2859,86,948,1431,139.7868614479678,80.58301057026958,0.0016098880726431,False
0.37,0.7465636928030039,2.4000000000000004,5437.0,57.36822,0.08,68900.0,0.33,276.0,2700.0,25.72223501339102,4.652526082355816,12561.820422360704,18.2618742533956,5.945342558481915,7.460360759995421,1.2928164761260987,70411,284,10620,45289,138.70637315488028,78.89629435610287,0.001479970250705,False
0.38,0.7925401816142723,2.4000000000000004,5438.0,57.36822,0.3,68900.0,0.33,276.0,2700.0,28.204034800202344,5.243842963979558,14158.376002744808,19.84441232841404,6.821135640201439,8.359622471788303,1.577292676221881,2771,84,920,1383,132.85500737864848,76.56123346684639,0.0015312672150116,False
0.39,0.9966040370400338,2.4000000000000004,5439.0,57.36822,0.3,68900.0,0.33,276.0,2700.0,41.2810018900522,7.9255579454813185,21399.00645279956,27.509600500796655,11.634959441192708,13.771401389255544,3.709401495711389,3813,104,1264,1911,156.50376597536075,90.14853327004296,0.0020057917531507,False
0.4,0.9798207685368292,2.4000000000000004,5440.0,57.36822,0.3,68900.0,0.33,276.0,2700.0,39.80788337490784,7.82753538842841,21134.345548756708,26.83967735098341,11.178890080831172,12.968206023924427,3.351354692402761,3865,104,1280,1937,151.8378183009223,87.1225993843515,0.0019175469467075,False
0.4100000000000001,0.7441676153066209,2.4000000000000004,5441.0,57.36822,0.1,68900.0,0.33,276.0,2700.0,24.623246673467943,4.90341776320889,13239.227960664002,18.180856339519654,5.901682783952888,6.442390333948293,0.9982650207439976,39145,220,6586,24570,127.46902673698403,73.5247428281534,0.001360780763688,False
0.42,0.8111489950308978,2.4000000000000004,5442.0,57.36822,0.3,68900.0,0.33,276.0,2700.0,28.32105334266853,5.792251657614287,15639.079475558574,20.500041713876065,7.196503352736984,7.821011628792466,1.4042516951226975,2878,84,926,1461,120.73291780637292,69.50701210721388,0.0014497886107697,False
0.43,0.8781007123319815,2.4000000000000004,5443.0,57.36822,0.2,68900.0,0.33,276.0,2700.0,32.211337822000075,6.758918560324039,18249.080112874904,22.93088333100268,8.649762304890388,9.280454490997396,1.8908437445663484,8767,132,2182,4934,136.68326461129132,78.76807857305316,0.0015887639597204,False
0.44,0.8171555801968837,2.4000000000000004,5444.0,57.36822,0.2,68900.0,0.33,276.0,2700.0,28.188417184100697,6.023042828099891,16262.215635869708,20.71352490172333,7.320279297791796,7.474892282377368,1.2972364696919048,7531,120,1894,4218,128.16573870990678,73.92237083383154,0.0014290025734683,False
0.45,0.8539032713435446,2.4000000000000004,5445.0,57.36822,0.3,68900.0,0.33,276.0,2700.0,30.18010567539866,6.599672023259123,17819.114462799633,22.039337118304957,8.105709850484923,8.140768557093708,1.5060378272258,3061,86,960,1571,119.0486383322085,68.17305886074743,0.0014637042821596,False
0.46,0.8207422263151068,2.4000000000000004,5446.0,57.36822,0.2,68900.0,0.33,276.0,2700.0,27.91662082122088,6.216962747194258,16785.799417424496,20.84143214675012,7.394800663854492,7.075188674470759,1.1778379166602342,7550,120,1876,4252,125.71838736479026,72.5404388926035,0.0013866166773327,False
0.4700000000000001,1.1567797024872657,2.4000000000000004,5447.0,57.36822,0.3,68900.0,0.33,276.0,2700.0,50.542909289121255,11.660137300227726,31482.37071061486,34.259381079946806,16.573296376459385,16.28352820917445,4.91315907623166,4930,118,1594,2499,152.2227836866292,87.35226714655762,0.0020825584262944,False
0.4800000000000001,1.0647296070543355,2.4000000000000004,5448.0,57.36822,0.3,68900.0,0.33,276.0,2700.0,43.415665757105046,10.188136438541353,27507.968384061653,30.301599406950167,13.603507714831828,13.11406635015488,3.4153712762904758,4464,108,1362,2329,137.06075008755255,78.6202970372006,0.0018360642527595,False
0.49,0.9040807008331296,2.4000000000000004,5449.0,57.36822,0.3,68900.0,0.33,276.0,2700.0,32.30334380424022,7.667915742637395,20703.37250512097,23.904488514947644,9.258116789736563,8.398855289292577,1.5902010470991703,3150,88,958,1643,117.50205837725466,67.50318137921721,0.0014684098656874,False
0.5,0.936688436709552,2.4000000000000004,5450.0,57.36822,0.3,68900.0,0.33,276.0,2700.0,34.1319498289897,8.271188069448277,22332.207787510342,25.15047679494618,10.057829851831436,8.981473034043518,1.7866417823831586,3520,92,1062,1841,129.48928353703232,74.68227263858469,0.001506704113687,False
0.05,0.5563567715852127,2.4000000000000004,5455.0,60.3876,0.2,68900.0,0.33,276.0,2700.0,23.13702928045832,0.5781639326236574,1561.042618083875,12.279367064669396,3.0551772594720723,10.857662215788926,2.477013326848415,4883,110,1610,2462,664.5433796858771,380.2965208630179,0.0064242787615917,True
0.06,0.5758127734532028,2.4000000000000004,5456.0,60.3876,0.2,68900.0,0.33,276.0,2700.0,23.9712796418227,0.7186859999126186,1940.4521997640704,12.849562298864216,3.299616082995632,11.121717342958483,2.580930083083013,5313,116,1746,2688,568.4670359257706,328.2041344557218,0.0056676925154213,True
0.0699999999999999,0.5881956712476841,2.4000000000000004,5457.0,60.3876,0.2,68900.0,0.33,276.0,2700.0,24.406034454706106,0.8534928283945928,2304.4306366654005,13.217421121057171,3.461004502020841,11.188613333648934,2.607511673626248,5262,116,1726,2667,497.1674707255928,285.83893862271907,0.0050517154834092,True
0.08,0.7436248747243526,2.4000000000000004,5458.0,60.3876,0.2,68900.0,0.33,276.0,2700.0,33.70395635719024,1.3470859239951842,3637.131994786997,18.162524844025825,5.891820270355148,15.54143151316442,4.544734346359964,6982,138,2286,3547,556.2090159329106,318.0368757457685,0.006075552270703,True
0.09,0.4744786498019034,2.4000000000000004,5459.0,60.3876,0.2,68900.0,0.33,276.0,2700.0,17.639446862613738,0.7922482947879744,2139.070395927531,9.98403635407514,2.144884072217176,7.655410508538598,1.3526357774292015,3795,96,1240,1929,325.78101364582795,188.0675065128408,0.003049877296999,True
0.0999999999999999,0.6041827907914188,2.4000000000000004,5460.0,60.3876,0.2,68900.0,0.33,276.0,2700.0,24.49532249831076,1.2226717298131458,3301.2136704954937,13.698050119735417,3.6761463722312353,10.797272378575345,2.4534746424180893,5009,112,1636,2549,369.427344624603,212.34773036487653,0.0037622081518979,True
0.11,0.4504953693347911,2.4000000000000004,5461.0,60.3876,0.2,68900.0,0.33,276.0,2700.0,15.935063480897927,0.8736408515681002,2358.830299233871,9.343605753602294,1.913142833949109,6.591457727295635,1.0395019823810088,3421,90,1124,1729,260.6553930313124,150.36136764509564,0.0023805722614657,False
0.12,0.421230611269716,2.4000000000000004,5462.0,60.3876,0.05,68900.0,0.33,276.0,2700.0,14.264446382020136,0.8522476681842729,2301.0687040975367,8.58172480385994,1.6509050949859958,5.682721578160196,0.7986574268017229,62362,326,15224,35470,218.3342336828776,126.01310953575477,0.0020392706939034,False
0.13,0.6275092730564844,2.4000000000000004,5463.0,60.3876,0.1,68900.0,0.33,276.0,2700.0,25.023484425926515,1.6219251016452676,4379.197774442223,14.410850120784676,4.003960670561476,10.61263430514184,2.3820355689162085,20306,228,6704,10244,288.7510040852326,166.32563983140687,0.0030934410591403,True
0.14,0.5578293489528596,2.4000000000000004,5464.0,60.3876,0.3,68900.0,0.33,276.0,2700.0,20.816763245988824,1.4514264070582517,3918.85129905728,12.32219096997103,3.0732911015694566,8.494572276017793,1.621864694511205,2010,70,658,1017,264.3778716093229,152.6386310668705,0.0024914533430695,False
0.15,0.772475039852413,2.4000000000000004,5465.0,60.3876,0.3,68900.0,0.33,276.0,2700.0,33.40308389347666,2.498162708540171,6745.039313058463,19.147224778788207,6.429966196572933,14.255859114688455,3.931803488032762,3455,96,1138,1742,319.4560587569964,184.41180563405203,0.0035740469327833,True
0.16,0.5417586440216182,2.4000000000000004,5466.0,60.3876,0.08,68900.0,0.33,276.0,2700.0,19.445991513009464,1.5471006787013568,4177.171832493664,11.85778817630875,2.879005139391953,7.588203336700714,1.331904460690596,33251,244,8158,18860,212.3390320680977,122.4878239211475,0.0021341548872335,False
0.17,0.6847780226103968,2.4000000000000004,5467.0,60.3876,0.3,68900.0,0.33,276.0,2700.0,27.311556460083366,2.3111925359690324,6240.219847116387,16.218843628846184,4.880629421199743,11.092712831237185,2.569436885230711,2668,82,876,1348,256.62582778990816,148.16045235743348,0.0027104091336521,False
0.18,0.7948300283034337,2.4000000000000004,5468.0,60.3876,0.3,68900.0,0.33,276.0,2700.0,33.94632617806871,3.042954843788985,8215.978078230259,19.92461907942737,6.866668107504481,14.021707098641343,3.823713263715496,3312,94,1086,1677,277.2696356796605,159.992343291505,0.0031341934387814,True
0.19,0.679519139588945,2.4000000000000004,5469.0,60.3876,0.3,68900.0,0.33,276.0,2700.0,26.44242325405052,2.497664753127369,6743.694833443896,16.04938186352168,4.79578231421921,10.39304139052884,2.298117561091841,2733,82,898,1380,231.44742253070407,133.6166289091213,0.0024223588781896,False
0.2,0.6459597720844279,2.4000000000000004,5470.0,60.3876,0.3,68900.0,0.33,276.0,2700.0,24.20845449153617,2.40409028833447,6491.043778503069,14.98433828679998,4.275125463370579,9.224116204736188,1.8710351750361087,2498,78,814,1271,207.393414460534,119.6097466061809,0.0021625540753851,False
0.21,0.6101983913174522,2.4000000000000004,5471.0,60.3876,0.3,68900.0,0.33,276.0,2700.0,21.92802729769852,2.283046673215084,6164.226017680725,13.88056349226388,3.75909687757976,8.04746380543464,1.476050204364677,2257,74,742,1138,188.78373960411952,108.90619457871908,0.0019294103079983,False
0.22,0.8479567763715395,2.4000000000000004,5472.0,60.3876,0.3,68900.0,0.33,276.0,2700.0,36.247151547301584,3.964885551152892,10705.190988112809,21.82249313158396,7.975298214357365,14.424658415717628,4.010412663204473,3630,98,1190,1839,237.74619878367827,137.16416112922423,0.0028430854073592,False
0.23,0.8401873869655871,2.4000000000000004,5473.0,60.3876,0.3,68900.0,0.33,276.0,2700.0,35.42074366509449,4.047903016275042,10929.338143942612,21.54051487530651,7.806847149091649,13.88022878978798,3.758944132816607,3481,96,1142,1762,228.4163502448164,131.67868364216025,0.0026956094326929,False
0.24,0.7607456812253919,2.4000000000000004,5474.0,60.3876,0.3,68900.0,0.33,276.0,2700.0,30.00471923238069,3.571613389990203,9643.356152973549,18.744360432616865,6.207747580352833,11.260358799763829,2.63613419036263,2802,84,918,1419,199.01629180742972,114.82693819638423,0.0022662224244748,False
0.25,0.6093221852792967,2.4000000000000004,5475.0,60.3876,0.1,68900.0,0.33,276.0,2700.0,20.894848387054743,2.5791311249069477,6963.654037248758,13.85392280492524,3.7469463168092823,7.040925582129503,1.1678151919023354,23592,204,5746,13417,164.37765730767325,94.80425236370688,0.0016780986276211,False
0.26,0.9151518085016476,2.4000000000000004,5476.0,60.3876,0.3,68900.0,0.33,276.0,2700.0,39.59777816478303,5.110900073102132,13799.430197375756,24.32453513791472,9.525088304489929,15.273243026868313,4.414188231387795,3724,102,1224,1882,220.0919379889401,127.04043054327268,0.0027083991616498,False
0.27,0.6647611940652373,2.4000000000000004,5477.0,60.3876,0.3,68900.0,0.33,276.0,2700.0,23.48869189883936,3.1297494275429103,8450.323454365858,15.57753537441276,4.562414885258334,7.9111565244266,1.4326654577154234,2336,76,770,1175,161.23961004279158,93.04535878674156,0.0017296054019174,False
0.28,0.7969464277903381,2.4000000000000004,5478.0,60.3876,0.3,68900.0,0.33,276.0,2700.0,31.152392712533,4.315358818466889,11651.4688098606,19.99886765938881,6.908915111074915,11.15352505314419,2.5935562926080262,2944,88,976,1474,181.7986143801557,104.8401334539292,0.0020966328898121,False
0.29,0.8862097451080879,2.4000000000000004,5479.0,60.3876,0.3,68900.0,0.33,276.0,2700.0,36.69049925844856,5.269042190322773,14226.413913871487,23.232949860523625,8.836933206325531,13.457549397924929,3.5678910160027577,3519,98,1160,1773,194.5115739317848,112.26927741811372,0.0023441945390878,False
0.3,0.981339544312822,2.4000000000000004,5480.0,60.3876,0.3,68900.0,0.33,276.0,2700.0,43.0079734344306,6.394647347399976,17265.547837979935,26.90000967386217,11.2196993409252,16.107963760568428,4.825051993525223,4213,108,1384,2131,204.53585754281917,117.767966517342,0.0026097418543144,False
0.31,0.6287803625494706,2.4000000000000004,5481.0,60.3876,0.3,68900.0,0.33,276.0,2700.0,20.534185143721825,3.1204045727814864,8425.092346510013,14.450084390068367,4.022303081567554,6.084100753653457,0.9018985087860673,2063,70,682,1034,131.17094924199515,75.56215806434327,0.001443667488687,False
0.32,0.6714194885279934,2.4000000000000004,5482.0,60.3876,0.08,68900.0,0.33,276.0,2700.0,22.64091235821044,3.553916838598266,9595.57546421532,15.789739123381684,4.666840542082406,6.851173234828755,1.1129237034841402,55421,264,9436,34689,146.98112051019493,84.84371487021609,0.0015433512134827,False
0.33,0.8065416697757372,2.4000000000000004,5483.0,60.3876,0.3,68900.0,0.33,276.0,2700.0,30.376705726108828,4.936890168013255,13329.603453635787,20.33690487239326,7.102429009897206,10.039800853715567,2.1655388418839507,2902,86,958,1459,156.86358031929063,90.51751725259729,0.0018472835544012,False
0.34,0.9325017772001986,2.4000000000000004,5484.0,60.3876,0.3,68900.0,0.33,276.0,2700.0,38.33524899048826,6.434674223278545,17373.620402852073,24.989003275551177,9.95287154001148,13.346245714937083,3.518197316732936,3636,100,1202,1827,177.75915578129585,102.37729639832833,0.0021772247494353,False
0.3500000000000001,0.769872270881018,2.4000000000000004,5485.0,60.3876,0.3,68900.0,0.33,276.0,2700.0,27.6044142238468,4.740975299158081,12800.63330772682,19.057529839372545,6.380247158561804,8.54688438447425,1.6392718594037232,2786,84,926,1391,144.62182252559117,83.36281675450407,0.0016573834578836,False
0.36,0.957471190790707,2.4000000000000004,5486.0,60.3876,0.3,68900.0,0.33,276.0,2700.0,39.454052785579066,7.004013403506983,18910.836189468853,25.958559250657864,10.588904315126266,13.495493534921202,3.584890911619283,3861,104,1282,1932,171.88926250313034,99.08805941499608,0.0021471557798498,False
0.37,0.8232175737970739,2.4000000000000004,5487.0,60.3876,0.3,68900.0,0.33,276.0,2700.0,30.34546679113223,5.5078239612379365,14871.124695342429,20.92989674097838,7.446499908978486,9.41557005015385,1.938675947740549,3058,88,1016,1528,145.63639327408046,83.8772249772944,0.0017240207727366,False
0.38,0.7654205576768702,2.4000000000000004,5488.0,60.3876,0.2,68900.0,0.33,276.0,2700.0,26.58323937318581,4.935891832846784,13326.907948686316,18.904512421684537,6.29574928094052,7.678726951501275,1.359857448093735,7669,122,1954,4278,144.48932396066044,83.33558734895107,0.0015622153339616,False
0.39,1.034993486176376,2.4000000000000004,5489.0,60.3876,0.3,68900.0,0.33,276.0,2700.0,44.022666370318746,8.460182519133296,22842.4928016599,29.068574998685992,12.720843443049429,14.954091371632751,4.260660923916133,4185,108,1386,2100,170.56637431520082,98.20806749167136,0.0022210943158782,False
0.4,0.8545006837089171,2.4000000000000004,5490.0,60.3876,0.3,68900.0,0.33,276.0,2700.0,31.5107263668768,6.168103986822192,16653.88076441992,22.061171394419684,8.11888294459072,9.449554972457111,1.9507789577685275,3010,88,998,1507,139.93051817673114,80.60707902912945,0.001691856765179,False
0.4100000000000001,1.0818961579564097,2.4000000000000004,5491.0,60.3876,0.3,68900.0,0.33,276.0,2700.0,46.828511265542616,9.455497004584194,25529.841912377324,31.023537669490697,14.129867663265886,15.80497359605192,4.674370658681692,4473,112,1484,2241,167.15353545272822,95.97202389519482,0.0022570017438125,False
0.42,0.8337667033049245,2.4000000000000004,5492.0,60.3876,0.3,68900.0,0.33,276.0,2700.0,29.69948456920981,6.081722215187956,16420.64998100748,21.308630779086634,7.669287298776853,8.390853790123177,1.5875650835888973,3002,86,970,1519,132.2701411313268,76.11158132676,0.0015826122839076,False
0.43,0.7653754619158994,2.4000000000000004,5493.0,60.3876,0.3,68900.0,0.33,276.0,2700.0,25.37373162944206,5.288833228924069,14279.849718094987,18.902964906763952,6.294896802460455,6.470766722678107,1.0060635735363856,2518,78,836,1256,127.85467431301822,73.76588788344341,0.0013853578041467,False
0.44,0.959322335326412,2.4000000000000004,5494.0,60.3876,0.3,68900.0,0.33,276.0,2700.0,37.25135491515052,8.01688912893085,21645.600648113297,26.03106262620758,10.63702445406608,11.220292288942945,2.6201353251352284,3484,98,1162,1731,143.36104555109316,82.12981706499565,0.0018022019004011,False
0.45,1.0539707083907317,2.4000000000000004,5495.0,60.3876,0.3,68900.0,0.33,276.0,2700.0,43.54454223739251,9.606670249707731,25938.00967421088,29.85291010211184,13.279912187175595,13.691632135280674,3.6732419374678624,4177,108,1368,2105,152.5273970775175,87.55226656253235,0.0020100483890187,False
0.46,0.9676036525379804,2.4000000000000004,5496.0,60.3876,0.3,68900.0,0.33,276.0,2700.0,37.248821871079386,8.363368988661714,22581.096269386628,26.356469622679565,10.853942150828969,10.89235224839982,2.490573162167255,3478,98,1150,1735,140.52369869488385,80.86962037744513,0.0017561051852949,False
0.4700000000000001,0.79952535702247,2.4000000000000004,5497.0,60.3876,0.1,68900.0,0.33,276.0,2700.0,26.423164413844688,5.991997254537735,16178.392587251885,20.08949510321909,6.960607600449961,6.333669310625599,0.9686103459122268,47488,230,7238,30465,128.98610396369787,74.45661659708942,0.0014022050459115,False
0.4800000000000001,1.1557741592667747,2.4000000000000004,5498.0,60.3876,0.3,68900.0,0.33,276.0,2700.0,50.144124037640346,11.80296642586982,31868.00934984851,34.21499634826737,16.538869405588674,15.929127689372976,4.735902979718855,5159,118,1604,2669,166.49434485584163,95.7268007859412,0.0021529535426873,False
0.49,1.11940841488053,2.4000000000000004,5499.0,60.3876,0.3,68900.0,0.33,276.0,2700.0,47.09637382204416,11.292208096999364,30488.96186189829,32.62688857439819,15.323592679610169,14.469485247645975,4.0313845826108015,4775,112,1488,2465,152.03806239989305,87.47692727264403,0.0020285889552436,False
0.5,0.9996682273504568,2.4000000000000004,5500.0,60.3876,0.3,68900.0,0.33,276.0,2700.0,38.30491957863509,9.314430506859638,25148.962368521024,27.632675364973068,11.71944259463723,10.672244213662026,2.4050120877775907,3758,98,1158,1949,136.01070413912015,78.26963563184833,0.0017289987201181,False
0.03,0.412866288551552,2.4000000000000004,5503.0,63.40698,0.08,68900.0,0.33,276.0,2700.0,15.983471640222891,0.2396955259355786,647.1779200260623,8.36792254827686,1.5800201603860418,7.615549091946031,1.3403246344504631,21119,222,6924,10727,968.7820579455616,552.7805211096979,0.0074644927860979,True
0.04,0.4436182747680727,2.4000000000000004,5504.0,63.40698,0.1,68900.0,0.33,276.0,2700.0,17.296211077573762,0.3457901802649227,933.6334867152912,9.162632203121545,1.8495089408961904,8.133578874452219,1.503718760631268,14359,184,4714,7282,749.068128565403,428.2284335810964,0.0062314319334606,True
0.05,0.5056479415723226,2.4000000000000004,5505.0,63.40698,0.1,68900.0,0.33,276.0,2700.0,20.31793566493797,0.5076865922356496,1370.753799036254,10.837958959341092,2.46932407387571,9.479976705596878,1.9616374816400604,16716,202,5486,8481,698.8849130941518,399.0140044644276,0.0059629798935152,True
0.06,0.4385228816628034,2.4000000000000004,5506.0,63.40698,0.1,68900.0,0.33,276.0,2700.0,16.537806242248053,0.4956817979253244,1338.340854398376,9.029311459366204,1.8031616658129477,7.508494782881849,1.307479867887623,13623,178,4466,6918,486.82835399421504,279.3954971856581,0.0042220362433777,True
0.0699999999999999,0.485249560231829,2.4000000000000004,5507.0,63.40698,0.08,68900.0,0.33,276.0,2700.0,18.70502101433128,0.6539573579814738,1765.6848665499792,10.2763582719665,2.2539929030400763,8.428662742364775,1.6000355450586023,24686,242,8118,12503,454.69960764499234,260.5138355397617,0.0041510438489287,True
0.08,0.5690035732373391,2.4000000000000004,5508.0,63.40698,0.2,68900.0,0.33,276.0,2700.0,23.027850736716147,0.9200416991762216,2484.112587775798,12.648923554456973,3.212804596528565,10.378927182259176,2.292762897352344,4881,110,1600,2475,451.2764995357644,260.50963809114074,0.0044937594426014,True
0.09,0.6301200899172198,2.4000000000000004,5509.0,63.40698,0.2,68900.0,0.33,276.0,2700.0,26.30228398048899,1.182075965092363,3191.60510574938,14.491481234762515,4.041689980297845,11.810802745726471,2.8596140152054828,5270,118,1726,2675,445.73247331673673,257.0923721614004,0.004599763326759,True
0.0999999999999999,0.4235376670190288,2.4000000000000004,5510.0,63.40698,0.08,68900.0,0.33,276.0,2700.0,14.835243634601564,0.7396677866276851,1997.1030238947496,8.641005330380752,1.670771968555783,6.194238304220811,0.931104181928098,19153,212,6326,9658,267.7063536497733,154.27711097651624,0.0025282613288935,False
0.11,0.7933206111444671,2.4000000000000004,5511.0,63.40698,0.3,68900.0,0.33,276.0,2700.0,36.04354424319806,1.97960729349461,5344.939692435447,19.87173372965151,6.836633465809744,16.171810513546554,4.857026172315134,3599,98,1180,1823,460.7269883340709,265.99469682497977,0.0051958355103116,True
0.12,0.5439898303120332,2.4000000000000004,5512.0,63.40698,0.2,68900.0,0.33,276.0,2700.0,20.57451528218598,1.2308518021942254,3323.299865924409,11.92187579508067,2.90553354625075,8.652639487105311,1.6746817440565247,4563,106,1488,2325,293.37047673053297,169.2191716807415,0.0029144720525103,True
0.13,0.545155084301237,2.4000000000000004,5513.0,63.40698,0.2,68900.0,0.33,276.0,2700.0,20.381647981202143,1.3202057327381629,3564.5554783930397,11.955395774941833,2.919445085911147,8.426252206260312,1.5992393531729845,4564,106,1492,2320,274.205462565203,158.13870176848116,0.0027147318435311,False
0.14,0.6713553596978492,2.4000000000000004,5514.0,63.40698,0.3,68900.0,0.33,276.0,2700.0,27.34831049881883,1.9086347147563487,5153.313729842143,15.787689985940808,4.665828030288735,11.560620512878025,2.757193315532386,2830,84,928,1432,317.3903886957633,183.1727957426046,0.0033167054988986,True
0.15,0.8420684955625787,2.4000000000000004,5515.0,63.40698,0.3,68900.0,0.33,276.0,2700.0,38.06356854867564,2.847699057680094,7688.787455736254,21.60864767990589,7.847431265468243,16.45492086876975,4.999732207788149,3712,100,1220,1876,360.9228220114264,208.28334379545836,0.0042258182554751,True
0.16,0.5613492009157904,2.4000000000000004,5516.0,63.40698,0.3,68900.0,0.33,276.0,2700.0,20.50118151467599,1.6315158788346789,4405.092872853633,12.424772328897832,3.116843833907648,8.076409185778159,1.4853279550729692,2030,70,662,1031,244.07780322087635,140.91363209955273,0.0023343209825344,False
0.17,0.5812887624326597,2.4000000000000004,5517.0,63.40698,0.2,68900.0,0.33,276.0,2700.0,21.339558398658312,1.8035727007477724,4869.646292018985,13.011762250473618,3.370423903197508,8.327796148184694,1.5668512024497352,4673,106,1538,2360,222.4613337548392,128.31028145100248,0.002305232825871,False
0.18,0.499418343776249,2.4000000000000004,5518.0,63.40698,0.08,68900.0,0.33,276.0,2700.0,16.76417658901988,1.496561380774633,4040.715728091509,10.665338796818434,2.4023461320564707,6.098837792201445,0.9057847512818378,29130,226,7228,16440,189.34972876002703,109.3116571688002,0.0018392775910991,False
0.19,0.5767426732015117,2.4000000000000004,5519.0,63.40698,0.3,68900.0,0.33,276.0,2700.0,20.588545856276795,1.9415464003389808,5242.175280915248,12.87705300289378,3.3115776678583164,7.711492853383014,1.3700312675193358,2243,74,738,1130,207.20055456896705,119.45000314852822,0.0020646896744151,False
0.2,0.63769465260803,2.4000000000000004,5520.0,63.40698,0.3,68900.0,0.33,276.0,2700.0,23.734082127192075,2.3566530519000626,6362.963240130169,14.726379593725463,4.152345329377799,9.007702533466611,1.7956922774777366,2481,78,810,1260,212.88649649213292,122.90791869207582,0.0022335093166799,False
0.21,0.666265231612549,2.4000000000000004,5521.0,63.40698,0.3,68900.0,0.33,276.0,2700.0,25.121731533654085,2.618385617990418,7069.641168574129,15.625372516049758,4.585880050658801,9.496359017604329,1.9674944326683832,2489,78,810,1268,211.7698785180104,122.26470015500408,0.002262203656007,False
0.22,0.6944509143164221,2.4000000000000004,5522.0,63.40698,0.3,68900.0,0.33,276.0,2700.0,26.51564438852391,2.894419763686834,7814.933361954451,16.53235701030114,5.03902693419599,9.98328737822277,2.144607170509156,2606,80,856,1316,211.8119525421736,122.0554541012994,0.0022865639978277,False
0.23,0.9298021706113792,2.4000000000000004,5523.0,63.40698,0.3,68900.0,0.33,276.0,2700.0,41.59192670531494,4.757589065900396,12845.49047793107,24.885116889695023,9.885551329512609,16.706809815619916,5.127962263612213,3832,104,1260,1936,260.7494908978093,150.52527424701054,0.0032539943257391,False
0.24,0.5906908812895784,2.4000000000000004,5524.0,63.40698,0.1,68900.0,0.33,276.0,2700.0,20.125770465433494,2.386139537956537,6442.576752482652,13.292012855364671,3.494077772415109,6.833757610068821,1.1079382344585715,22907,202,5636,12977,172.77158624546615,99.67921625714554,0.001758447670346,False
0.25,0.902358862167751,2.4000000000000004,5525.0,63.40698,0.3,68900.0,0.33,276.0,2700.0,39.02467381853212,4.845359303841466,13082.470120371958,23.839437392008943,9.21701313159632,15.18523642652318,4.371653827754855,3570,100,1172,1806,236.78881971267825,136.6936158311262,0.0028865808621779,False
0.26,0.726549297405216,2.4000000000000004,5526.0,63.40698,0.3,68900.0,0.33,276.0,2700.0,27.36026164119441,3.520022925035612,9504.061897596152,17.589564122278908,5.586586918233272,9.7706975189155,2.0665639931976605,2733,82,900,1377,187.2289858740687,107.66248147872084,0.0020891795377115,False
0.27,0.7418334731650433,2.4000000000000004,5527.0,63.40698,0.3,68900.0,0.33,276.0,2700.0,28.014763733929268,3.740769125280045,10100.07663825612,18.10207137423831,5.859338055288894,9.912692359690958,2.1185689300088484,2745,82,902,1386,183.72404390124333,105.97154156410448,0.0020750908797569,False
0.28,0.7762655465415129,2.4000000000000004,5528.0,63.40698,0.2,68900.0,0.33,276.0,2700.0,29.856502813856487,4.133934232652174,11161.62242816087,19.27815529689735,6.502791912612503,10.578347516959138,2.368857679960329,6319,128,2096,3169,185.7847331171514,107.19062698433004,0.002132867413029,False
0.29,0.6789592805756632,2.4000000000000004,5529.0,63.40698,0.3,68900.0,0.33,276.0,2700.0,23.79790741295283,3.399616372725895,9178.964206359917,16.031381955055124,4.786801962198268,7.766525457897707,1.3871855894723732,2504,78,828,1256,160.35109991398977,92.19597385944267,0.0017518811053893,False
0.3,0.8701313250772242,2.4000000000000004,5530.0,63.40698,0.3,68900.0,0.33,276.0,2700.0,35.31770206191497,5.241106641522626,14150.987932111091,22.63562887812112,8.468194774136043,12.68207318379385,3.2270881326134164,3174,94,1054,1587,197.86085430784985,114.18869217902058,0.0023260608505337,False
0.31,0.8300989399501568,2.4000000000000004,5531.0,63.40698,0.3,68900.0,0.33,276.0,2700.0,32.41878088366336,4.962516912472418,13398.79566367553,21.176633855142637,7.591374453743949,11.242147028520726,2.6288575412715307,3087,90,1022,1548,186.4018775458623,107.5824164573367,0.0021233902440132,False
0.32,0.9145544767017426,2.4000000000000004,5532.0,63.40698,0.3,68900.0,0.33,276.0,2700.0,37.70961306521024,5.964908951718419,16105.254169639731,24.30179327550862,9.510565278799332,13.407819789701616,3.5456563270809127,3608,100,1194,1811,193.41334392522225,111.44335731188971,0.0023509064380474,False
0.33,1.025497537031634,2.4000000000000004,5533.0,63.40698,0.3,68900.0,0.33,276.0,2700.0,45.24592251303192,7.390310937855552,19953.83953220999,28.679501855976387,12.446658835926126,16.566420657055534,5.056347898070574,4227,110,1398,2124,206.7459104836552,119.14808671552036,0.0026698978157492,False
0.34,0.9638580217690792,2.4000000000000004,5534.0,63.40698,0.3,68900.0,0.33,276.0,2700.0,40.50744899376198,6.803948223835076,18370.660204354703,26.209074901899232,10.755496700412325,14.298374091862753,3.9515484765772486,4004,106,1312,2030,191.15215973397932,110.22727357277464,0.0023900297066601,False
0.3500000000000001,0.8911025209064387,2.4000000000000004,5535.0,63.40698,0.3,68900.0,0.33,276.0,2700.0,35.25497400922926,6.079823261600012,16415.522806320034,23.416008220085576,8.951054407567819,11.838965789143682,2.8712311459678066,3323,94,1100,1667,173.48852038836063,99.98888612092044,0.0020996258173962,False
0.36,0.6619592639154914,2.4000000000000004,5536.0,63.40698,0.3,68900.0,0.33,276.0,2700.0,21.187801833733484,3.716088232174771,10033.438226871882,15.488569312867217,4.518892403650416,5.6992325208662695,0.8028041714756444,1996,70,662,997,123.9479087815987,71.46054103358884,0.0014262260736302,False
0.37,0.9265366556060473,2.4000000000000004,5537.0,63.40698,0.3,68900.0,0.33,276.0,2700.0,37.044293308153385,6.74710686688686,18217.18854059452,24.759697972701296,9.80449345850882,12.284595335452089,3.0573865916219614,3302,96,1094,1655,172.88158174019688,99.67213665842392,0.0021078484598705,False
0.38,0.9793049256500466,2.4000000000000004,5538.0,63.40698,0.3,68900.0,0.33,276.0,2700.0,40.36992242227825,7.555361612174356,20399.476352870763,26.819199036126943,11.165050306270135,13.550723386151304,3.6096886940957793,3866,104,1282,1937,175.03063683277708,100.48378789157763,0.0022158378363646,False
0.39,0.7684795915362819,2.4000000000000004,5539.0,63.40698,0.1,68900.0,0.33,276.0,2700.0,26.517036323350908,5.046584659974567,13625.77858193133,19.00960614937183,6.353739507216749,7.507430173979078,1.307154847242182,41285,232,7190,25706,148.73680126805775,85.86741720990359,0.0016224320152325,False
0.4,0.8496362348942027,2.4000000000000004,5540.0,63.40698,0.3,68900.0,0.33,276.0,2700.0,31.204578266693733,6.106874366785584,16488.560790321077,21.883645957672044,8.011999528329188,9.32093230902169,1.905125161543604,3047,88,1012,1523,146.21462894510395,84.24390184703951,0.0017634472252664,False
0.4100000000000001,0.9533117498440852,2.4000000000000004,5541.0,63.40698,0.3,68900.0,0.33,276.0,2700.0,37.69834717358527,7.583813365732937,20476.29608747893,25.795961499209355,10.481269529453812,11.902385674375914,2.897456163720876,3376,96,1118,1693,158.65003526907702,91.33762101328114,0.0019990788033181,False
0.42,1.1076550974717407,2.4000000000000004,5542.0,63.40698,0.3,68900.0,0.33,276.0,2700.0,48.43257151919957,10.015670474685802,27042.310281651666,32.12072314267171,14.943096464102585,16.311848376527863,4.927425989416783,4477,114,1488,2239,177.2420593591893,101.77478800178444,0.0023941017629237,False
0.43,0.7459063262144725,2.4000000000000004,5543.0,63.40698,0.3,68900.0,0.33,276.0,2700.0,24.25747136523754,5.0488372721200925,13631.86063472425,18.239632533512577,5.933345123580483,6.017838831724962,0.8845078514603903,2295,74,762,1144,116.29108763446963,66.8983521770222,0.0014209080657106,False
0.44,0.7828360259844656,2.4000000000000004,5544.0,63.40698,0.08,68900.0,0.33,276.0,2700.0,26.152819462893195,5.575211329434239,15053.070589472449,19.505966256596327,6.630206455215953,6.646853206296868,1.0549951257817138,81229,284,10718,53354,139.63828569528738,80.45735490490851,0.0015104609114352,False
0.45,0.9211061169554128,2.4000000000000004,5545.0,63.40698,0.3,68900.0,0.33,276.0,2700.0,34.444825646864345,7.559234016838896,20409.931845465017,24.55172024297202,9.670600012658664,9.893105403892324,2.111365995819768,3170,92,1056,1576,141.86673618491466,81.57481788082511,0.0017667460670348,False
0.46,1.1156771340640046,2.4000000000000004,5546.0,63.40698,0.3,68900.0,0.33,276.0,2700.0,47.75564012695487,10.77993718751308,29105.83040628532,32.46582202424398,15.202153197234871,15.289818102710887,4.42221600972179,4386,112,1448,2200,167.6922461025709,96.28705858386552,0.0022321834101903,False
0.4700000000000001,0.8413540528877621,2.4000000000000004,5547.0,63.40698,0.2,68900.0,0.33,276.0,2700.0,28.915598311123205,6.577719220398183,17759.841895075097,21.582760452300874,7.832002373654476,7.33283785882233,1.254283153256293,7842,122,1956,4408,137.2539781081354,79.18775643149148,0.0015514311693424,False
0.4800000000000001,0.9874046006823134,2.4000000000000004,5548.0,63.40698,0.2,68900.0,0.33,276.0,2700.0,38.02832958989424,8.895175758410746,24016.97454770901,27.14151787318708,11.383581329093454,10.88681171670716,2.4884055706827084,10230,144,2556,5750,152.20076500404048,87.72925348799974,0.0018588642035181,False
0.49,1.051864923565901,2.4000000000000004,5549.0,63.40698,0.3,68900.0,0.33,276.0,2700.0,42.205259366414296,10.093885055370054,27253.489649499144,29.76543083980404,13.217140507913989,12.439828526610256,3.1232554525439333,3949,104,1286,1988,147.9462934480496,84.5724269367652,0.0019550917131693,False
0.5,0.8285270635591988,2.4000000000000004,5550.0,63.40698,0.2,68900.0,0.33,276.0,2700.0,27.430528222080632,6.595832667721011,17808.748202846728,21.120168040908972,7.558131789721395,6.3103601811716565,0.9622991220003848,7793,120,1928,4393,130.06268004607193,74.57701688326492,0.0014540332551426,False
0.03,0.3842056496698867,2.4000000000000004,5553.0,66.42636,0.1,68900.0,0.33,276.0,2700.0,14.566549554602966,0.2184416946512799,589.792575558456,7.64865669915996,1.350546771287768,6.917892855443006,1.132105076636488,12613,170,4136,6403,850.7743332580258,485.7270254150061,0.0071694941348531,True
0.05,0.5998973693580072,2.4000000000000004,5555.0,66.42636,0.1,68900.0,0.33,276.0,2700.0,25.660750679539746,0.6412569676006922,1731.3938125218688,13.568585128629287,3.617722025507181,12.092165550910458,2.9764650579064886,21182,232,6962,10733,898.8735011694095,513.3602548880201,0.0077611226945891,True
0.06,0.3884361611113359,2.4000000000000004,5556.0,66.42636,0.1,68900.0,0.33,276.0,2700.0,14.061765574011282,0.4214005778782217,1137.7815602711987,7.753526627649363,1.383126169105532,6.30823894636192,0.9617255912273104,11974,166,3942,6055,441.3222030084909,253.60714838329028,0.0038174646493296,True
0.0699999999999999,0.5594233950319958,2.4000000000000004,5557.0,66.42636,0.2,68900.0,0.33,276.0,2700.0,22.75902849646128,0.795847619856025,2148.788573611268,12.368608725890605,3.0929702293091896,10.390419770570674,2.2971226094531647,4929,110,1618,2496,524.9812012818694,303.08509842250845,0.0052107677239482,True
0.08,0.5959025437538178,2.4000000000000004,5558.0,66.42636,0.2,68900.0,0.33,276.0,2700.0,24.57254978482249,0.9818296611004752,2650.940084971283,13.448314873122523,3.563758257092543,11.124234911699965,2.581928595992068,5232,116,1712,2658,491.6697456953606,283.7338200866451,0.0049969840646847,True
0.09,0.6255734308049963,2.4000000000000004,5559.0,66.42636,0.2,68900.0,0.33,276.0,2700.0,26.031956165499057,1.1699112134178151,3158.760276228101,14.35117517695603,3.97612131385048,11.680780988543027,2.806210100432664,5314,118,1738,2701,462.4109741991728,266.82733158063564,0.0047746855118392,True
0.0999999999999999,0.7234082711627583,2.4000000000000004,5560.0,66.42636,0.3,68900.0,0.33,276.0,2700.0,31.76950964911866,1.5863810873535376,4283.228935854551,17.48496685244149,5.531501972020802,14.284542796677169,3.945120884667265,3316,92,1086,1681,494.1751438096884,285.2985766928365,0.0052515237584948,True
0.11,0.7582915701821222,2.4000000000000004,5561.0,66.42636,0.3,68900.0,0.33,276.0,2700.0,33.71793274766594,1.8516986612403392,4999.586385348916,18.66050731167562,6.161849761806923,15.05742543599032,4.310151100566584,3297,92,1076,1677,463.1016725078149,267.3688784807149,0.0051239960536418,True
0.12,0.8084631735738994,2.4000000000000004,5562.0,66.42636,0.3,68900.0,0.33,276.0,2700.0,36.74288469044957,2.20095396668876,5942.575710059652,20.404876905097016,7.141571739253595,16.33800778535255,4.940617772564835,3596,98,1174,1829,453.1788493529874,261.6416854161553,0.0051519178606802,True
0.13,0.8107746117056074,2.4000000000000004,5563.0,66.42636,0.3,68900.0,0.33,276.0,2700.0,36.576540501694005,2.3728737465701504,6406.759115739406,20.48676558027844,7.188830964242976,16.089774921415568,4.815957217672825,3624,98,1186,1839,488.71792398052514,281.9653528538514,0.0053066247976279,True
0.14,0.5983256083620512,2.4000000000000004,5564.0,66.42636,0.3,68900.0,0.33,276.0,2700.0,23.072325889508395,1.6093157921046206,4345.152638682475,13.521217032323174,3.596432686427195,9.551108857185222,1.9871168943225743,2379,76,782,1200,307.5835312768357,177.5808470454924,0.0029899432872888,True
0.15,0.519775342358487,2.4000000000000004,5565.0,66.42636,0.2,68900.0,0.33,276.0,2700.0,18.52736714748845,1.3824839525910564,3732.706671995852,11.233038697867338,2.6252210833557887,7.294328449621114,1.2427371307647324,3896,98,1284,1964,239.22849341281545,138.11467104107086,0.0023511139890174,False
0.16,0.7323852505427795,2.4000000000000004,5566.0,66.42636,0.3,68900.0,0.33,276.0,2700.0,30.532983573765367,2.4340600435618267,6571.962117616932,17.7845617405271,5.689807372353972,12.748421833238268,3.255747328792145,2907,86,952,1473,317.1347005016167,183.0713112125636,0.0034447670492664,True
0.17,0.5627846618156082,2.4000000000000004,5567.0,66.42636,0.3,68900.0,0.33,276.0,2700.0,20.328486480698537,1.7176315877213184,4637.60528684756,12.466696295833207,3.1347091926876898,7.861790184865329,1.4170776049663714,2021,70,660,1025,240.7159577407365,138.96781487235353,0.0023226206273459,False
0.18,0.7474463783882871,2.4000000000000004,5568.0,66.42636,0.3,68900.0,0.33,276.0,2700.0,30.89495985838262,2.7683318750172794,7474.496062546655,18.29175662852328,5.961475238576149,12.603203229859345,3.1931433635588697,2911,86,954,1474,288.53819389128074,166.5285761584317,0.0031740002614138,True
0.19,0.8300633099401638,2.4000000000000004,5569.0,66.42636,0.3,68900.0,0.33,276.0,2700.0,35.97548436109561,3.403305558296768,9188.925007401274,21.17535324635263,7.590619952882198,14.800131114742982,4.18731439458543,3619,98,1184,1837,296.1382681080752,170.83123145856786,0.0034804192754402,True
0.2,0.7447303068394776,2.4000000000000004,5570.0,66.42636,0.3,68900.0,0.33,276.0,2700.0,30.143042081255345,2.997549047306388,8093.382427727247,18.199869510761648,5.911918346777316,11.943172570493696,2.9143692994709283,2927,86,962,1478,259.2018400185438,149.57804966489726,0.002864503351071,False
0.21,0.7357410994979188,2.4000000000000004,5571.0,66.42636,0.3,68900.0,0.33,276.0,2700.0,29.298459258541588,3.0569420291035683,8253.743478579634,17.897078874459854,5.7496783913889935,11.401380384081731,2.692736362285425,2930,86,964,1478,242.106539213817,139.76348977196812,0.0026955890399313,False
0.22,0.7427926776590404,2.4000000000000004,5572.0,66.42636,0.3,68900.0,0.33,276.0,2700.0,29.45250114947697,3.217474007392179,8687.179819958883,18.134431103927454,5.876717161452406,11.318070045549508,2.6592431540602277,2788,84,916,1408,235.2268089301158,135.75028325978093,0.0026141338383403,False
0.23,0.5421693898244719,2.4000000000000004,5573.0,66.42636,0.08,68900.0,0.33,276.0,2700.0,17.801569756671835,2.021698016806446,5458.584645377404,11.8695768626756,2.8838780970480857,5.9319928939962345,0.86218008024164,36269,232,7590,21692,176.22031091067782,101.7261321821979,0.0017295740401998,False
0.24,0.5535592837498282,2.4000000000000004,5574.0,66.42636,0.05,68900.0,0.33,276.0,2700.0,18.16204458338956,2.150492432111265,5806.329566700415,12.19816365445765,3.020939508111093,5.963880928931912,0.8704470759998277,132784,372,19530,85823,192.84605356746272,107.96878696182314,0.0017142141528066,False
0.25,0.920574104229371,2.4000000000000004,5575.0,66.42636,0.3,68900.0,0.33,276.0,2700.0,40.29411966098723,5.004040034148515,13510.90809220099,24.53138518388077,9.65754359461367,15.76273447710646,4.653503560465156,3889,104,1280,1963,253.25200229878843,146.19846106342592,0.0031124711612805,False
0.26,0.608102367993868,2.4000000000000004,5576.0,66.42636,0.2,68900.0,0.33,276.0,2700.0,20.588860137406737,2.639740729543187,7127.299969766605,13.816866886974925,3.73006966682687,6.771993250431812,1.090328937283683,4314,102,1436,2154,166.0836730930426,95.35444270502803,0.0017649668867307,False
0.27,0.6524345477255566,2.4000000000000004,5577.0,66.42636,0.1,68900.0,0.33,276.0,2700.0,22.792505236283823,3.03576422809791,8196.563415864357,15.187618717424115,4.372803220995613,7.604886518859706,1.3370389928977031,26832,214,6236,15532,179.42047078515776,103.56465542242069,0.0018784314902413,False
0.28,0.7240594531027793,2.4000000000000004,5578.0,66.42636,0.3,68900.0,0.33,276.0,2700.0,26.68083737415788,3.6893410710943697,9961.220891954796,17.506631063873932,5.542894919750278,9.174206310283946,1.8535538486559084,2759,82,910,1388,183.42193706003653,105.85812881863764,0.0020435432754421,False
0.29,0.938263729396324,2.4000000000000004,5579.0,66.42636,0.3,68900.0,0.33,276.0,2700.0,40.26789965866771,5.787765248354553,15626.966170557294,25.211347661604,10.09749715052355,15.056551997063709,4.309731902168997,3779,102,1242,1910,222.384659755942,128.32524164805417,0.0027914152212232,False
0.3,0.6662775507649326,2.4000000000000004,5580.0,66.42636,0.08,68900.0,0.33,276.0,2700.0,22.834994696134554,3.368700536655567,9095.491448970031,15.625764571487665,4.586072544418768,7.209230124646892,1.217372007763201,54743,268,9690,34010,171.4790222324585,97.08922043456946,0.0017716516283462,False
0.31,0.815790235285395,2.4000000000000004,5581.0,66.42636,0.3,68900.0,0.33,276.0,2700.0,31.50683209800576,4.821164850695495,13017.145096877835,20.664918831706903,7.292031379324133,10.841913266298851,2.4708665286286378,3044,90,1014,1517,184.82911341410409,106.5712996884902,0.0021762105234549,False
0.32,0.6311430106504237,2.4000000000000004,5582.0,66.42636,0.3,68900.0,0.33,276.0,2700.0,20.43159536165613,3.2004261191497614,8641.150521704356,14.523119297728451,4.056529796281265,5.908476063927681,0.8561036771315038,2055,70,682,1026,139.20781164637208,79.92602381660159,0.0015548575828213,False
0.33,0.6611535108637994,2.4000000000000004,5583.0,66.42636,0.1,68900.0,0.33,276.0,2700.0,21.834760579881085,3.527469218885678,9524.166890991331,15.463021808296556,4.506422735245748,6.371738771584528,0.9789535163600696,31391,208,5934,19246,163.99565070271856,94.44526031798873,0.0016707533825285,False
0.34,0.8461230339343866,2.4000000000000004,5584.0,66.42636,0.3,68900.0,0.33,276.0,2700.0,32.60696708587422,5.460866299494152,14744.339008634211,21.75580344087669,7.93534254138987,10.851163644997529,2.474476241895718,3086,90,1024,1544,177.91242466141944,102.52207211654054,0.0021039489690674,False
0.3500000000000001,0.7965547006992162,2.4000000000000004,5585.0,66.42636,0.3,68900.0,0.33,276.0,2700.0,29.224876443302023,5.024556187562747,13566.301706419415,19.985116404795644,6.901083706316348,9.23976003850638,1.8765275187536004,2901,86,962,1452,164.4694115993902,94.7868850597251,0.0019049745842398,False
0.36,0.7293930418521137,2.4000000000000004,5586.0,66.42636,0.08,68900.0,0.33,276.0,2700.0,24.96948810655312,4.396791761282307,11871.33775546223,17.68447567364911,5.636742047463072,7.285012432904008,1.2399502861807647,68361,282,10564,43749,158.22077552217186,91.33539063842156,0.001703914918513,False
0.37,0.7799849279462858,2.4000000000000004,5587.0,66.42636,0.3,68900.0,0.33,276.0,2700.0,27.70165868822249,5.018719462199643,13550.542547939036,19.40698003287539,6.574734191342576,8.294678655347106,1.556014729142933,2756,84,918,1373,155.39850420602394,89.57810664760765,0.0017625676443095,False
0.38,1.016387501974295,2.4000000000000004,5588.0,66.42636,0.3,68900.0,0.33,276.0,2700.0,42.9941105831876,8.053957362747129,21745.684879417247,28.30837060760341,12.187079661435405,14.685739975584188,4.133122298688274,4092,108,1352,2058,190.16574843778477,109.54546323203697,0.0024400648293997,False
0.39,1.0334473283323156,2.4000000000000004,5589.0,66.42636,0.3,68900.0,0.33,276.0,2700.0,43.91081250621481,8.438371015633034,22783.601742209197,29.005070525560296,12.675947939510582,14.905741980654517,4.237576923877548,4191,108,1388,2103,187.385444910704,107.89410636209674,0.0024384394662,False
0.4,0.8495916212819892,2.4000000000000004,5590.0,66.42636,0.3,68900.0,0.33,276.0,2700.0,31.20177597654196,6.106313908755226,16487.04755363911,21.882020560121948,8.011023256092232,9.319755416420012,1.9047093473370056,3047,88,1012,1523,153.1702116524077,88.251160211335,0.0018472983447995,False
0.4100000000000001,0.8005943645082769,2.4000000000000004,5591.0,66.42636,0.3,68900.0,0.33,276.0,2700.0,27.934310121984517,5.582185770154789,15071.90157941793,20.12711063542086,6.982103524185547,7.807199486563654,1.399917754030758,2852,84,920,1446,145.52345800526732,83.79914284659387,0.0016849702251582,False
0.42,1.1028018763729677,2.4000000000000004,5592.0,66.42636,0.3,68900.0,0.33,276.0,2700.0,48.06781127742544,9.93907082391324,26835.49122456575,31.91272832428439,14.787712454672851,16.15508295314105,4.848641630759612,4509,114,1496,2259,185.2078096056612,106.35652459535852,0.0024936195883001,False
0.43,1.0633479988164904,2.4000000000000004,5593.0,66.42636,0.3,68900.0,0.33,276.0,2700.0,44.83522512136355,9.473054329687187,25577.24669015541,30.243817985309963,13.561682696638863,14.591407136053586,4.088628366951674,4234,110,1404,2122,175.64378120193103,100.8347034454141,0.0023257804330946,False
0.44,0.841189387185444,2.4000000000000004,5594.0,66.42636,0.3,68900.0,0.33,276.0,2700.0,29.649183279044117,6.344411368987444,17129.9106962661,21.57679574858761,7.828448924347049,8.0723875304565,1.4840375553596052,3080,86,966,1583,140.54119424852024,80.82034330048361,0.0016883867455231,False
0.45,0.8487600359736485,2.4000000000000004,5595.0,66.42636,0.3,68900.0,0.33,276.0,2700.0,29.863065577803816,6.52833800130027,17626.512603510728,21.851732758690773,7.992839083927393,8.011332819113044,1.4645010826271232,3123,86,970,1612,138.41171176426002,79.63229657165284,0.0016856413407569,False
0.46,0.9135189298826836,2.4000000000000004,5596.0,66.42636,0.3,68900.0,0.33,276.0,2700.0,33.6859369198051,7.543905449868631,20368.544714645304,24.26238875909024,9.48542003901204,9.423548160714866,1.9415145891434085,3232,92,1058,1623,144.01534069269317,82.91563001957911,0.0018004019292915,False
0.4700000000000001,0.7978562815205403,2.4000000000000004,5597.0,66.42636,0.2,68900.0,0.33,276.0,2700.0,26.32553437858318,5.969054196251229,16116.44632987832,20.030822201558205,6.927125690816832,6.294712177024973,0.958071494565603,7433,118,1862,4168,139.34067666541762,80.42416257949108,0.0015260071109783,False
0.4800000000000001,0.8972968029944313,2.4000000000000004,5598.0,66.42636,0.3,68900.0,0.33,276.0,2700.0,32.12957702688199,7.479475143287812,20194.58288687709,23.648624160805937,9.096819714462027,8.480952866076052,1.6173445711742156,3239,88,982,1692,136.1290363983054,78.08599147577807,0.0017133260472404,False
0.49,1.177451873699342,2.4000000000000004,5599.0,66.42636,0.3,68900.0,0.33,276.0,2700.0,51.48275524240219,12.366871544987085,33390.55317146513,35.177483136052885,17.290983247286785,16.305272106349307,4.924111702299701,5289,118,1634,2744,176.02947969932396,101.07704492402566,0.0024207302670871,False
0.5,0.8488975875144193,2.4000000000000004,5600.0,66.42636,0.2,68900.0,0.33,276.0,2700.0,28.647691443420403,6.900123473055674,18630.33337725032,21.856741428393644,7.995845167906736,6.790950015026759,1.0957216948510613,7635,120,1894,4300,137.24537117214135,79.07274528966535,0.0015618435763996,False
0.05,0.4592370487948877,2.4000000000000004,5605.0,69.44574,0.1,68900.0,0.33,276.0,2700.0,17.85106410901361,0.4460148033375398,1204.2399690113575,9.575362357419683,1.9958332123380305,8.275701751593926,1.5498184090004905,15010,188,4912,7636,683.5840485055472,391.19297821545865,0.0057921123045792,True
0.06,0.4548675849471246,2.4000000000000004,5606.0,69.44574,0.2,68900.0,0.33,276.0,2700.0,17.37309701468022,0.5207405210982902,1405.9994069653835,9.45928046152544,1.954247795231977,7.9138165531547795,1.433507274133687,3883,96,1272,1969,531.5212448509008,306.87347337182734,0.0048436721920126,True
0.0699999999999999,0.4936423383289006,2.4000000000000004,5607.0,69.44574,0.1,68900.0,0.33,276.0,2700.0,19.14985700601328,0.6695266176903099,1807.7218677638368,10.506158941011096,2.3412031925163244,8.643698065002186,1.6716765748260145,15743,196,5172,7979,512.5419863918715,293.9144090882182,0.0046442201159027,True
0.08,0.6950829201065443,2.4000000000000004,5608.0,69.44574,0.2,68900.0,0.33,276.0,2700.0,30.58235233424264,1.222221763077283,3299.998760308664,16.5529231371862,5.049481977977335,14.029429197056436,3.827260214900052,6368,130,2084,3236,603.9451580126222,345.45659001319467,0.0063859284879275,True
0.09,0.4260573414843788,2.4000000000000004,5609.0,69.44574,0.2,68900.0,0.33,276.0,2700.0,15.192704556624737,0.6821448910184685,1841.791205749865,8.705901991545126,1.6926262147680735,6.486802565079611,1.0104813237496053,3218,88,1056,1628,362.94658444175445,209.19554964207416,0.0088539116307821,True
0.0999999999999999,0.4039426208303968,2.4000000000000004,5610.0,69.44574,0.08,68900.0,0.33,276.0,2700.0,13.886003490768145,0.6922057794360151,1868.955604477241,8.141761397202862,1.5063581818248528,5.744242093565283,0.8141524023888377,17516,200,5784,8834,877.0096956727446,482.095849527217,0.0026079999838075,True
0.11,0.7572250608969888,2.4000000000000004,5611.0,69.44574,0.3,68900.0,0.33,276.0,2700.0,33.648093693329784,1.847857513251856,4989.215285780011,18.62411354790408,6.141967567177908,15.023980145425709,4.294110053926051,3296,92,1076,1676,483.4715277981754,279.12921042679733,0.0053468158787082,True
0.12,0.6833468754590718,2.4000000000000004,5612.0,69.44574,0.3,68900.0,0.33,276.0,2700.0,28.655788015007257,1.715728166163498,4632.466048641445,16.172657634736062,4.857450924958681,12.483130380271197,3.1417227587951837,2814,84,922,1425,403.7887762092647,232.49044095772743,0.0042898470509494,True
0.13,0.6173417380681279,2.4000000000000004,5613.0,69.44574,0.2,68900.0,0.33,276.0,2700.0,24.43195196853115,1.5834754919145666,4275.38382816933,14.09847392041023,3.859028097153704,10.333478048120918,2.2755526052391373,5173,114,1692,2629,332.7694682774095,191.84557058629983,0.003486065500306,True
0.14,0.6525697425275767,2.4000000000000004,5614.0,69.44574,0.3,68900.0,0.33,276.0,2700.0,26.22277827310212,1.8298474589561804,4940.588139181687,15.191874489221096,4.37485679577521,11.030903783881024,2.545009336819029,2538,80,830,1287,343.19436007827267,198.07721801823143,0.0035003347235956,True
0.15,0.7654725633177479,2.4000000000000004,5615.0,69.44574,0.3,68900.0,0.33,276.0,2700.0,32.94762729220432,2.464003463444337,6652.80935129971,18.906297120848723,6.296732468631626,14.041330171355591,3.832729005187289,3289,92,1074,1672,365.60972104978606,211.0741526504569,0.0040623934316312,True
0.16,0.5975443442170075,2.4000000000000004,5616.0,69.44574,0.3,68900.0,0.33,276.0,2700.0,22.50147796602148,1.7915395949423183,4837.15690634426,13.497695208196644,3.585878233740136,9.003782757824832,1.7943386387978173,2354,76,772,1190,279.2448243942072,161.22109934676047,0.00276186171723,True
0.17,0.5290008898711993,2.4000000000000004,5617.0,69.44574,0.1,68900.0,0.33,276.0,2700.0,18.52692335483973,1.5644987220233206,4224.146549462966,11.493743035073054,2.7300529411954413,7.0331803197666805,1.1655542191721209,16224,192,5060,8396,229.14116347370168,132.27515270266983,0.0022521494514111,False
0.18,0.6547991299992222,2.4000000000000004,5618.0,69.44574,0.3,68900.0,0.33,276.0,2700.0,25.254811285798265,2.2607185034846853,6103.93995940865,15.262119203492736,4.408803648568461,9.99269208230553,2.148085145083776,2479,78,810,1258,269.5797693563192,155.50334303694004,0.0027852376415604,False
0.19,0.6848321877121306,2.4000000000000004,5619.0,69.44574,0.3,68900.0,0.33,276.0,2700.0,26.75947386192253,2.5277845608753244,6825.018314363376,16.2205926565013,4.881507963882704,10.53888120542123,2.353723403007379,2686,82,884,1354,263.81489843810385,152.30537773372976,0.0028129964769121,False
0.2,0.8541979366481709,2.4000000000000004,5620.0,69.44574,0.3,68900.0,0.33,276.0,2700.0,37.293269635122655,3.712571802693117,10023.943867271417,22.050105448985605,8.112205664943785,15.24316418613705,4.399633862250669,3564,98,1166,1809,302.7568980492758,174.5871171458412,0.0036091985826561,True
0.21,0.6520212173923242,2.4000000000000004,5621.0,69.44574,0.3,68900.0,0.33,276.0,2700.0,24.295385474518657,2.5316192817811967,6835.372060809231,15.174610418519258,4.366528406000288,9.1207750559994,1.834909124219092,2487,78,810,1266,228.421752643781,131.87916646924086,0.002408738518292,False
0.22,0.6893129664257699,2.4000000000000004,5622.0,69.44574,0.3,68900.0,0.33,276.0,2700.0,26.2104098690242,2.860843966542378,7724.278709664421,16.36553537192572,4.954513389880982,9.84487449709848,2.093669423338604,2605,80,858,1312,232.1601335845897,134.00369582912884,0.0024801504156312,False
0.23,0.5603435315487437,2.4000000000000004,5623.0,69.44574,0.1,68900.0,0.33,276.0,2700.0,18.7482231958094,2.1305631623072645,5752.520538229614,12.395431672360557,3.104363376613909,6.352791523448847,0.9738002143066448,20525,192,5096,11587,188.4092548053296,108.66043734234694,0.0018772910613019,False
0.24,0.8851307218589375,2.4000000000000004,5624.0,69.44574,0.3,68900.0,0.33,276.0,2700.0,38.151045975031465,4.549172599108293,12282.766017592392,23.19266024861823,8.811886052624839,14.958385726413235,4.262713453516546,3618,100,1188,1830,265.1022612533524,153.0490154838708,0.0031991163713266,False
0.25,0.9171096125802384,2.4000000000000004,5625.0,69.44574,0.3,68900.0,0.33,276.0,2700.0,40.05138998462148,4.973698824602662,13428.986826427188,24.3991363241846,9.572783990130343,15.652253660436884,4.599085165527681,3731,102,1222,1892,264.520610323103,152.69514223070152,0.0032392944020428,False
0.26,0.9231619412980931,2.4000000000000004,5626.0,69.44574,0.3,68900.0,0.33,276.0,2700.0,40.15709882812522,5.183611759336615,13995.75175020886,24.630366626907318,9.721154860166422,15.526732201217907,4.537543100829807,3709,102,1216,1879,255.9662749456365,147.74917502419777,0.0031525192314864,False
0.27,0.9415903427317588,2.4000000000000004,5627.0,69.44574,0.3,68900.0,0.33,276.0,2700.0,41.13529521533521,5.512040875269846,14882.510363228585,25.340096205990964,10.181579627069285,15.795199009344248,4.669538751799437,3938,104,1296,1988,249.28131728779783,143.86101142404573,0.0031268238898656,False
0.28,0.701807148713204,2.4000000000000004,5628.0,69.44574,0.3,68900.0,0.33,276.0,2700.0,25.368884715526164,3.505667698885927,9465.302786992004,16.772358137442843,5.161524746038228,8.59652657808332,1.6558570471523004,2436,78,802,1227,184.6968185680822,106.40551321103132,0.0020553442526289,False
0.29,0.7527840154691965,2.4000000000000004,5629.0,69.44574,0.3,68900.0,0.33,276.0,2700.0,28.142819978298693,4.029628694701045,10879.99747569282,18.47287384168995,6.059593047510733,9.669946136608743,2.029964352809688,2727,82,900,1371,194.05314587286787,111.87155290383514,0.002175924501258,False
0.3,0.7602098840528281,2.4000000000000004,5630.0,69.44574,0.3,68900.0,0.33,276.0,2700.0,28.327312782446803,4.192548249602397,11319.880273926472,18.72604016847394,6.197709313326535,9.601272613972863,2.005161063724138,2757,82,908,1389,186.22867061896645,107.43309023326508,0.0021385041491158,False
0.31,0.8533974658952852,2.4000000000000004,5631.0,69.44574,0.3,68900.0,0.33,276.0,2700.0,33.925706691092714,5.196090412623977,14029.444114084738,22.020857911513684,8.094566907407224,11.90484877957903,2.898476494783247,3223,92,1066,1618,201.84230233488023,116.3870576429182,0.0024133641587392,False
0.32,0.6603811014572971,2.4000000000000004,5632.0,69.44574,0.1,68900.0,0.33,276.0,2700.0,22.027303743580816,3.4557394602577096,9330.496542695815,15.438546827934138,4.49448840506576,6.588756915646679,1.0387489448080505,31616,210,6024,19356,167.77100813727102,96.83282200771218,0.0017408844720453,False
0.33,0.7935859312280305,2.4000000000000004,5633.0,69.44574,0.3,68900.0,0.33,276.0,2700.0,29.57239951339885,4.804179642916106,12971.285035873483,19.881025584021103,6.841907068482114,9.691373929377749,2.0377274255660085,2893,86,958,1450,179.40280907918364,103.35194591927646,0.0020827686427778,False
0.34,1.036305470133836,2.4000000000000004,5634.0,69.44574,0.3,68900.0,0.33,276.0,2700.0,45.71524318146135,7.689273235743969,20761.03773650872,29.122508501062416,12.759016322329042,16.59273468039893,5.069743086585073,4341,110,1432,2187,220.5938752873928,127.00128305834018,0.0028886584588584,False
0.3500000000000001,0.6818696166251238,2.4000000000000004,5635.0,69.44574,0.08,68900.0,0.33,276.0,2700.0,22.5135413529852,3.8500725467573127,10395.195876244745,16.125037514992346,4.833594903972573,6.388503837992854,0.9835223572152604,59641,264,9446,37958,161.76995853108846,93.38823316300208,0.0016846965197007,False
0.36,0.8412008080316133,2.4000000000000004,5636.0,69.44574,0.3,68900.0,0.33,276.0,2700.0,31.74334277384846,5.616085601395463,15163.43112376775,21.57720942515185,7.828695351974384,10.166133348696611,2.2126097505789213,3133,90,1038,1570,175.50473068449864,101.12289077418832,0.0020771482822396,False
0.37,0.7718186753779321,2.4000000000000004,5637.0,69.44574,0.08,68900.0,0.33,276.0,2700.0,27.2128165721035,4.928283670717626,13306.36591093759,19.124589516983264,6.417406067526335,8.088227055120235,1.4891223968087086,74693,294,11268,48037,172.78581611903218,97.82800496429884,0.0018632614711751,False
0.38,1.0411081513342066,2.4000000000000004,5638.0,69.44574,0.3,68900.0,0.33,276.0,2700.0,44.78189196649124,8.39363582557481,22662.81672905199,29.320307859095244,12.89935719803217,15.461584107395993,4.50572137245736,4021,108,1330,2020,200.6425754291969,115.49916295852591,0.002634099809028,False
0.39,0.7132078694634836,2.4000000000000004,5639.0,69.44574,0.2,68900.0,0.33,276.0,2700.0,23.33358477704357,4.42581160844459,11949.691342800394,17.14700004803447,5.354874207861855,6.186584729009098,0.9290625994172644,6408,110,1624,3582,157.32968581678125,90.74219382742793,0.0016217912120777,False
0.4,0.7971427318340961,2.4000000000000004,5640.0,69.44574,0.3,68900.0,0.33,276.0,2700.0,27.976529003952447,5.461264514237326,14745.414188440782,20.005760200581683,6.912841646168048,7.970768803370763,1.4515771319307218,2815,84,920,1417,154.74624563564058,89.135182340858,0.0017860217232141,False
0.4100000000000001,1.0484109419015706,2.4000000000000004,5641.0,69.44574,0.3,68900.0,0.33,276.0,2700.0,44.37085302922224,8.95167706613852,24169.528078574007,29.62218562096124,13.114578725043676,14.748667408261,4.162901658905156,4068,108,1346,2043,190.18213815646257,109.33515382574843,0.0024876393142189,False
0.42,0.8132113710683022,2.4000000000000004,5642.0,69.44574,0.3,68900.0,0.33,276.0,2700.0,28.445678946071,5.818423034328805,15709.742192687772,20.57323947986282,7.238857609820514,7.872439466208178,1.4204345754917096,3037,86,966,1548,148.5952750965629,85.6726270042472,0.0017574812538122,False
0.43,0.9940816877037684,2.4000000000000004,5643.0,69.44574,0.3,68900.0,0.33,276.0,2700.0,39.91308772465628,8.414794789395124,22719.945931366838,27.408466048247583,11.565698200448676,12.504621676408696,3.150903411053553,3525,100,1178,1752,177.13104309095556,101.98966690127666,0.0022230788421494,False
0.44,0.7940916398331535,2.4000000000000004,5644.0,69.44574,0.1,68900.0,0.33,276.0,2700.0,26.813899914125447,5.720649028705341,15445.75237750442,19.89874105686293,6.851965553361286,6.915158857262512,1.1313165246559451,45669,232,7250,29056,153.94721010243478,88.83964461867772,0.0016809036040603,False
0.45,1.037328349423368,2.4000000000000004,5645.0,69.44574,0.3,68900.0,0.33,276.0,2700.0,42.35611747507844,9.339274678187069,25216.04163110508,29.164587398148317,12.788826651708725,13.191530076930128,3.449551973521657,4165,106,1352,2107,171.61414728107255,98.52547246784526,0.0022570811521431,False
0.46,0.956812631790552,2.4000000000000004,5646.0,69.44574,0.1,68900.0,0.33,276.0,2700.0,36.52621104051601,8.197168497632136,22132.35494360677,25.93278638302894,10.57181755937585,10.59342465748707,2.374649061743714,64515,282,9852,41375,179.90565331677217,101.97532579862914,0.0020357531945654,False
0.4700000000000001,0.9022382709652044,2.4000000000000004,5647.0,69.44574,0.3,68900.0,0.33,276.0,2700.0,32.70065786515022,7.4672082155945345,20161.46218210524,23.834884244309897,9.214138579711529,8.865773620840322,1.7469303641169924,3154,90,994,1619,148.05579388666035,85.20938521095808,0.0018290863450783,False
0.4800000000000001,1.1053354231770458,2.4000000000000004,5648.0,69.44574,0.3,68900.0,0.33,276.0,2700.0,46.36507962815249,10.895995767592735,29419.18857250039,32.02123485503221,14.8687022646553,14.34384477312028,3.9727064970625614,4555,112,1450,2326,171.9281561949523,98.5075818417102,0.0023310184299342,False
0.49,1.0112039219296476,2.4000000000000004,5649.0,69.44574,0.3,68900.0,0.33,276.0,2700.0,39.37139810709966,9.39958904683796,25378.89042646249,28.098129214251728,12.040886149710712,11.27326889284793,2.641297102872752,3750,100,1190,1915,156.5985002776125,89.75477390759785,0.002043843440339,False
0.5,0.9941175092853136,2.4000000000000004,5650.0,69.44574,0.3,68900.0,0.33,276.0,2700.0,37.929123643894016,9.220481523174382,24895.30011257083,27.40990120741133,11.566680040754996,10.519222436482682,2.346198517580616,3780,98,1152,1972,169.5873625139812,97.77859147167436,0.001974677690391,False
0.04,0.4726550002241533,2.4000000000000004,5654.0,72.46512,0.1,68900.0,0.33,276.0,2700.0,18.811418230717265,0.3760943233277922,1015.4546729850392,9.934831229833634,2.12672156769016,8.876587000883628,1.7506272443623674,15750,194,5166,7995,904.0296918187146,515.9192764367668,0.0077027320766082,True
0.06,0.376832143649615,2.4000000000000004,5656.0,72.46512,0.1,68900.0,0.33,276.0,2700.0,13.506111662214304,0.4047309605243118,1092.773593415642,7.466950448708506,1.294820100751382,6.0391612135058,0.8900891402270702,11003,158,3608,5585,452.2414320301695,259.8382141101321,0.0040166499364595,True
0.0699999999999999,0.4111610519363745,2.4000000000000004,5657.0,72.46512,0.08,68900.0,0.33,276.0,2700.0,14.931748591044128,0.521892823166424,1409.110622549345,8.32455040457753,1.5657878627326522,6.607198186466599,1.043895039566228,19444,212,6408,9826,427.78138988824657,245.88085337274327,0.003869072426483,True
0.08,0.5081835704410376,2.4000000000000004,5658.0,72.46512,0.2,68900.0,0.33,276.0,2700.0,19.66928893206375,0.7856992269901241,2121.387912873335,10.908499716458394,2.4968945139369456,8.760789215605357,1.7111952869468214,4094,100,1338,2081,461.7162349195654,266.571518708179,0.004449194435837,True
0.09,0.7465389412507304,2.4000000000000004,5659.0,72.46512,0.2,68900.0,0.33,276.0,2700.0,33.578061469838374,1.5094859521130828,4075.612070705324,18.26103659834915,5.944890559113384,15.317024871489224,4.435404607000301,7047,138,2306,3582,600.5063578585749,343.8529471680108,0.0065764791250073,True
0.0999999999999999,0.6252413749015892,2.4000000000000004,5660.0,72.46512,0.2,68900.0,0.33,276.0,2700.0,25.728193404323036,1.28431527511376,3467.6512428071524,14.340948569995758,3.971357619391429,11.387244834327277,2.687042344277669,5313,118,1738,2700,455.3562129711849,262.66834880142505,0.0047196278753045,True
0.11,0.4480163191076822,2.4000000000000004,5661.0,72.46512,0.1,68900.0,0.33,276.0,2700.0,15.811168608214128,0.8668266335704923,2340.431910640329,9.278231524228593,1.8900606308918155,6.532937083985535,1.0232339973213231,13597,178,4488,6859,295.45653941376605,170.45200179452277,0.0028357738000572,True
0.12,0.6121877078821285,2.4000000000000004,5662.0,72.46512,0.3,68900.0,0.33,276.0,2700.0,24.40732270901428,1.4608202478039214,3944.214669070588,13.94111948505384,3.786769928493648,10.46620322396044,2.3259496806897264,2427,78,802,1218,400.39750440331113,231.169466409495,0.0038686328974559,True
0.13,0.823550167704918,2.4000000000000004,5663.0,72.46512,0.3,68900.0,0.33,276.0,2700.0,37.4448579284354,2.4293143793083445,6559.1488241325305,20.94179480194308,7.45346304366058,16.503063126492318,5.024148664352236,3721,100,1226,1876,462.9354267487369,267.2416365610096,0.005353962740438,True
0.14,0.6892878807937082,2.4000000000000004,5664.0,72.46512,0.3,68900.0,0.33,276.0,2700.0,28.43927846079032,1.9850024720943569,5359.506674654763,16.364722505786204,4.954102860277809,12.074555955004111,2.969100388183452,2804,84,918,1421,368.9214420645529,212.99687962087853,0.0039240507798597,True
0.15,0.8096005393188641,2.4000000000000004,5665.0,72.46512,0.3,68900.0,0.33,276.0,2700.0,35.858982996874545,2.682355141295014,7242.35888149654,20.445154248317948,7.164802449228964,15.413828748556597,4.482447307933949,3460,96,1132,1756,397.1350893145847,229.2492329591905,0.0045733003435159,True
0.16,0.6460605902759201,2.4000000000000004,5666.0,72.46512,0.3,68900.0,0.33,276.0,2700.0,25.28598309670373,2.014300005396896,5438.61001457162,14.987495474144763,4.276636316406176,10.298487622558966,2.26233631100928,2590,80,848,1312,309.4568560879404,178.57004891561692,0.003183361972424,True
0.17,0.7029123641500701,2.4000000000000004,5667.0,72.46512,0.3,68900.0,0.33,276.0,2700.0,28.41345684367081,2.4048540685739592,6493.10598514969,16.80853390626783,5.180081803345969,11.604922937402986,2.7752277347720096,2745,84,902,1386,312.1523006419153,180.1417652645641,0.0033605749192213,True
0.18,0.6634114929451456,2.4000000000000004,5668.0,72.46512,0.3,68900.0,0.33,276.0,2700.0,25.76092232797147,2.3062684972802523,6226.924942656681,15.53465543061521,4.541418811018895,10.22626689735626,2.2351503137386426,2571,80,842,1302,281.59271381293667,162.40363627291947,0.0029559440870574,True
0.19,0.8310266264254278,2.4000000000000004,5669.0,72.46512,0.3,68900.0,0.33,276.0,2700.0,36.04015354244396,3.409449130524863,9205.51265241713,21.209987861501627,7.611035199921309,14.830165680942333,4.201586069396447,3610,98,1182,1831,324.241349644218,187.0088263025397,0.0038036781247085,True
0.2,0.562754153874875,2.4000000000000004,5670.0,72.46512,0.1,68900.0,0.33,276.0,2700.0,19.58962446119573,1.942207285300426,5243.95967031115,12.465804744506135,3.1343288730557166,7.123819716689591,1.1921215877552906,21333,196,5272,12059,219.86594731852716,126.76886413716592,0.0022091628699256,False
0.21,0.8164431087473978,2.4000000000000004,5671.0,72.46512,0.3,68900.0,0.33,276.0,2700.0,34.45467670305365,3.598344860777374,9715.531124098909,20.68815518180193,7.3055305410391265,13.766521521251722,3.7071856802617527,3467,96,1142,1748,293.75552770286475,169.45375321705308,0.0033808898424161,True
0.22,0.8633595858042802,2.4000000000000004,5672.0,72.46512,0.3,68900.0,0.33,276.0,2700.0,37.28900000628264,4.07948888164027,11014.619980428728,22.38599999167757,8.315758058329742,14.90300001460507,4.236269176689472,3625,100,1186,1840,291.25928305637177,168.15817369513388,0.0034973964142296,True
0.23,0.5581491832027561,2.4000000000000004,5673.0,72.46512,0.2,68900.0,0.33,276.0,2700.0,18.633042845260665,2.1173174219941577,5716.757039384226,12.331499248334463,3.077233648760009,6.3015435969262,0.9599162267658512,3963,98,1316,1983,189.0397307374202,109.1091578236798,0.0019267440948519,False
0.24,0.5978682774767381,2.4000000000000004,5674.0,72.46512,0.1,68900.0,0.33,276.0,2700.0,20.513343983778544,2.43264836015784,6568.150572426168,13.507446131465224,3.590252165400808,7.005897852313321,1.1576038052429678,22799,202,5624,12897,200.73587794838184,115.845685073228,0.0020376866596053,False
0.25,0.9471463738259076,2.4000000000000004,5675.0,72.46512,0.3,68900.0,0.33,276.0,2700.0,42.17588913005954,5.239261217782552,14146.00528801289,25.55574916537061,10.322968717578943,16.620139964688928,5.083707499796391,3800,104,1248,1922,283.94553403288086,163.86261837054514,0.0035318450658719,True
0.26,0.8857625411267196,2.4000000000000004,5676.0,72.46512,0.3,68900.0,0.33,276.0,2700.0,37.573248782079695,4.847711253350703,13088.820384046896,23.216248175824425,8.82654707336624,14.357000606255273,3.978835820015538,3653,100,1196,1853,257.60267656498263,148.69840285296527,0.0031026314248966,False
0.27,0.722240818788725,2.4000000000000004,5677.0,72.46512,0.3,68900.0,0.33,276.0,2700.0,26.835880584157525,3.5816199000608617,9670.373730164329,17.446153489175238,5.511111765668118,9.389727094982288,1.929491865607256,2800,82,924,1408,206.39650062158736,119.08441570858852,0.0022932757510145,False
0.28,0.6752013434867966,2.4000000000000004,5678.0,72.46512,0.3,68900.0,0.33,276.0,2700.0,23.832928386187657,3.2906338127785357,8884.711294502045,15.910765218262418,4.726783783567347,7.922163167925239,1.436149970788812,2512,78,830,1261,189.67684608557283,109.0264082860857,0.0020479252319763,False
0.29,0.6432776078880074,2.4000000000000004,5679.0,72.46512,0.08,68900.0,0.33,276.0,2700.0,21.79608593086458,3.109352257823099,8395.251096122367,14.90043836830233,4.235047564801814,6.895647562562251,1.1256953069787148,50411,258,9094,31206,184.08545260818707,106.21121697314024,0.0019065203675253,False
0.3,0.830778142875557,2.4000000000000004,5680.0,72.46512,0.3,68900.0,0.33,276.0,2700.0,32.7452638531114,4.855240910202097,13109.150457545662,21.20105177199918,7.605765977112517,11.544212081112216,2.75052506691042,3196,92,1062,1597,213.23872599566124,122.96897754713282,0.0025025574018342,False
0.31,0.6146051898454691,2.4000000000000004,5681.0,72.46512,0.05,68900.0,0.33,276.0,2700.0,19.774143185566405,3.002598069267398,8107.014787021974,14.014842964137143,3.820561416397792,5.759300221429262,0.8179633471303935,177136,390,21208,118016,217.5792283989214,121.89220072688894,0.0017209000228442,False
0.32,0.7175237134919172,2.4000000000000004,5682.0,72.46512,0.2,68900.0,0.33,276.0,2700.0,25.26999483052359,3.974570034168556,10731.3390922551,17.28967644842939,5.429185701803445,7.9803183820942,1.4546156676348896,5642,116,1786,2893,186.57431417797596,107.70658287662688,0.0019788057615306,False
0.33,0.642071823783054,2.4000000000000004,5683.0,72.46512,0.05,68900.0,0.33,276.0,2700.0,20.79253581485484,3.355502132656344,9059.855758172129,14.86277953368815,4.217103560944275,5.929756281166688,0.8616014282879307,194096,400,22222,130101,201.1960192551033,114.56048519305924,0.0017212111501278,False
0.34,0.667745460283908,2.4000000000000004,5684.0,72.46512,0.1,68900.0,0.33,276.0,2700.0,21.964635935167088,3.651670003873941,9859.509010459642,15.672507907597222,4.609044053843983,6.292128027569866,0.957374049970042,31885,208,5956,19597,169.7466663157682,97.98884047643712,0.0017540488180055,False
0.3500000000000001,0.8889467118711827,2.4000000000000004,5685.0,72.46512,0.3,68900.0,0.33,276.0,2700.0,35.11247428439403,6.054885809753851,16348.191686335398,23.33527661430918,8.900661007423968,11.777197670084853,2.8457751976701173,3291,94,1090,1650,199.03228156455825,114.72410349887028,0.0023926703753515,False
0.36,0.7839232513375054,2.4000000000000004,5686.0,72.46512,0.3,68900.0,0.33,276.0,2700.0,28.19469312903037,4.977328665328209,13438.787396386166,19.54376704083368,6.651434382559516,8.650926088196687,1.6741057172313063,2751,84,916,1371,172.96441701186075,99.69866248291432,0.0019814937853306,False
0.37,0.8944456207128564,2.4000000000000004,5687.0,72.46512,0.3,68900.0,0.33,276.0,2700.0,34.90618152656829,6.351556187293553,17149.20170569259,23.54143298189822,9.029546035609952,11.364748544670068,2.6779898483163995,3127,92,1038,1564,189.11666323348032,108.87374613889236,0.0022939889723967,False
0.38,0.7631171630215133,2.4000000000000004,5688.0,72.46512,0.08,68900.0,0.33,276.0,2700.0,26.44728106416521,4.910059754132872,13257.161336158755,18.825534049028303,6.252295712842519,7.621747015136908,1.3422359587096464,73004,288,10798,47125,172.41537997907582,99.41917891449278,0.0018783234120787,False
0.39,0.743227549289241,2.4000000000000004,5689.0,72.46512,0.1,68900.0,0.33,276.0,2700.0,25.043557820794582,4.759256351976004,12849.992150335209,18.149109554651726,5.884606502518015,6.894448266142859,1.125350150542011,38884,224,6796,24196,165.90604393818847,95.76521419777065,0.0017839303370827,False
0.4,1.0389968273613512,2.4000000000000004,5690.0,72.46512,0.3,68900.0,0.33,276.0,2700.0,44.000188373544425,8.665996388155728,23398.190248020463,29.233281164976127,12.83754441964221,14.766907208568298,4.171548031486482,4113,108,1362,2064,201.89774301543216,116.22663491268932,0.0026199699136419,False
0.4100000000000001,0.7639612531821038,2.4000000000000004,5691.0,72.46512,0.2,68900.0,0.33,276.0,2700.0,25.76649311571749,5.137783283870049,13872.014866449132,18.854460578277823,6.268198367940949,6.912032537439668,1.1304150840708995,6877,114,1710,3868,223.69822516269548,126.52765710870142,0.0017622534049848,False
0.42,0.803253185151408,2.4000000000000004,5692.0,72.46512,0.2,68900.0,0.33,276.0,2700.0,27.84590016118456,5.69246948950265,15369.667621657154,20.22079202037068,7.035742403063284,7.625108140813875,1.343272913560634,7986,124,1992,4490,169.22417178369307,97.65173245075582,0.001831044794972,False
0.43,0.8794495298837983,2.4000000000000004,5693.0,72.46512,0.3,68900.0,0.33,276.0,2700.0,32.29702046719019,6.777340329039914,18298.818888407768,22.981013042334062,8.680725685583694,9.316007424856124,1.9033853565437795,3080,90,1018,1541,166.9230071885262,96.23545032580896,0.0019801521555196,False
0.44,0.8438664917975964,2.4000000000000004,5694.0,72.46512,0.3,68900.0,0.33,276.0,2700.0,29.8136939186368,6.380603709697833,17227.63001618415,21.673853323425035,7.886342140217549,8.139840595211762,1.505738430519716,3063,86,970,1566,153.80452812993346,88.44771647338318,0.001847499363332,False
0.45,0.8902056702660828,2.4000000000000004,5695.0,72.46512,0.3,68900.0,0.33,276.0,2700.0,32.45567779388063,7.111675749917234,19201.52452477653,23.382408407118604,8.930068814118972,9.073269386762028,1.8183930642017376,3132,90,1022,1579,158.82495984217974,91.29272870735464,0.0019365268955054,False
0.46,0.9871829554238912,2.4000000000000004,5696.0,72.46512,0.3,68900.0,0.33,276.0,2700.0,38.57487664977933,8.668361587762705,23404.576286959305,27.132675769189717,11.377566520278505,11.442200880589612,2.7092049325157976,3716,100,1230,1857,169.66451772304063,97.41901211468598,0.0021718202720826,False
0.4700000000000001,1.128419968486886,2.4000000000000004,5697.0,72.46512,0.3,68900.0,0.33,276.0,2700.0,48.39380203638617,11.15509709583498,30118.76215875444,33.01732935743176,15.619369341328518,15.376472678954409,4.46427224549354,4523,112,1484,2275,186.16065206566876,106.81850953684904,0.0025420154663497,False
0.4800000000000001,0.8913321768385614,2.4000000000000004,5698.0,72.46512,0.3,68900.0,0.33,276.0,2700.0,31.753514964647568,7.38922024835155,19950.894670549184,23.42461535232036,8.956433021076316,8.32889961232721,1.5672127727247664,3274,88,992,1710,150.01631385514852,86.19873066890774,0.0018565530848828,False
0.49,1.1837870661691867,2.4000000000000004,5699.0,72.46512,0.3,68900.0,0.33,276.0,2700.0,51.97176021898565,12.486677764250036,33714.0299634751,35.4609947088244,17.514736891226253,16.51076551016125,5.028059126976217,5066,118,1586,2611,190.57563214218413,109.21740120215443,0.0026197818415607,False
0.5,1.1027997258669515,2.4000000000000004,5700.0,72.46512,0.3,68900.0,0.33,276.0,2700.0,45.568852798551134,11.130413811838634,30052.117291964318,31.912636291117327,14.78764382625757,13.656216507433808,3.657230014418936,4697,110,1412,2465,184.33463421719168,105.95221744371206,0.0023512591218932,False
0.06,0.6345952913823365,2.4000000000000004,5706.0,75.4845,0.1,68900.0,0.33,276.0,2700.0,27.44369216078974,0.8228583754815737,2221.717613800249,14.630089532704211,4.106852240666498,12.813602628085528,3.2839938651849243,22579,242,7414,11452,930.6153149793284,532.536158258575,0.0080153772298757,True
0.0699999999999999,0.4511663166262794,2.4000000000000004,5707.0,75.4845,0.05,68900.0,0.33,276.0,2700.0,16.934918135888747,0.5920037572359853,1598.4101445371602,9.361325645783158,1.9194178448464616,7.573592490105589,1.3274140876104763,54416,360,17980,27440,512.12393016889,293.93665842759333,0.0045148505164733,True
0.08,0.6710981129277973,2.4000000000000004,5708.0,75.4845,0.2,68900.0,0.33,276.0,2700.0,29.083672581535087,1.1622745729689776,3138.14134701624,15.779471102742656,4.661767755209503,13.30420147879243,3.499493182240525,6240,128,2052,3156,629.4429808322117,360.2631930097507,0.006624746934105,True
0.09,0.4559336823966116,2.4000000000000004,5709.0,75.4845,0.1,68900.0,0.33,276.0,2700.0,16.688439511943418,0.7494529640078093,2023.523002821085,9.487558814729832,1.9643473812083507,7.200880697213586,1.2148944172005414,13886,180,4566,7031,376.20336568759,216.80032575899816,0.0036254657981581,True
0.0999999999999999,0.4332194668989318,2.4000000000000004,5710.0,75.4845,0.2,68900.0,0.33,276.0,2700.0,15.31138168262254,0.7634746890287338,2061.3816603775813,8.89124086294173,1.7556419173418518,6.4201408196808085,0.992167228313118,3175,88,1040,1609,341.12244843564355,196.94706869065283,0.003096740303585,True
0.11,0.421540057012699,2.4000000000000004,5711.0,75.4845,0.1,68900.0,0.33,276.0,2700.0,14.507238558762817,0.7951104808506713,2146.7982982968124,8.589668342086409,1.653561902178987,5.917570216676408,0.8584514213283154,11992,166,3950,6061,292.2753551402261,168.6963800006675,0.0027470985886539,True
0.12,0.539277333428265,2.4000000000000004,5712.0,75.4845,0.3,68900.0,0.33,276.0,2700.0,20.31830232216506,1.2154790245929692,3281.793366401017,11.786663037186957,2.849670557753383,8.531639284978104,1.634191533160414,2061,70,676,1041,376.1382346546253,217.15137327079228,0.0034338634551047,True
0.13,0.534535378360075,2.4000000000000004,5713.0,75.4845,0.3,68900.0,0.33,276.0,2700.0,19.807890606545996,1.2829115033855325,3463.861059140938,11.651168436726396,2.794100209202525,8.156722169819595,1.5111887058169924,2056,70,670,1045,339.78705586875407,196.17142111158145,0.0031558399928498,True
0.14,0.4636008835183463,2.4000000000000004,5714.0,75.4845,0.2,68900.0,0.33,276.0,2700.0,15.8874792940221,1.10637653042058,2987.2166321355658,9.691773619317525,2.037872336790693,6.195705674704575,0.9314958063701128,3307,90,1086,1672,259.9901799909812,149.91867750790297,0.0024795634102635,False
0.15,0.4994540043063076,2.4000000000000004,5715.0,75.4845,0.1,68900.0,0.33,276.0,2700.0,17.470547717462047,1.303222495339076,3518.700737415505,10.666324163052629,2.402726481260466,6.80422355440942,1.0995039859213902,14392,184,4762,7239,257.8551557203604,148.8246647007144,0.0025491931077545,False
0.16,0.6720167413571662,2.4000000000000004,5716.0,75.4845,0.3,68900.0,0.33,276.0,2700.0,26.824273024545672,2.1373631996242484,5770.880638985471,15.808828376339209,4.676276708554357,11.015444648206463,2.5389135089301087,2680,82,882,1351,334.6801647245195,193.22249253232707,0.0034959626126401,True
0.17,0.6187135131968229,2.4000000000000004,5717.0,75.4845,0.3,68900.0,0.33,276.0,2700.0,23.43706860469029,1.9818610682606197,5351.024884303672,14.140467212492686,3.878396830300714,9.296601392197603,1.8965357620400949,2378,76,776,1208,299.0689853348721,172.59699010516437,0.0029697384800563,True
0.18,0.7963715659041493,2.4000000000000004,5718.0,75.4845,0.3,68900.0,0.33,276.0,2700.0,34.04749213276167,3.052059779711393,8240.561405220762,19.978688932679045,6.897424324678928,14.068803200082623,3.845364544967535,3311,94,1086,1676,344.84823151109924,198.9968154283602,0.0039280733299708,True
0.19,0.7309215757695605,2.4000000000000004,5719.0,75.4845,0.3,68900.0,0.33,276.0,2700.0,29.56935219469475,2.7947230024886887,7545.752106719459,17.735575325913963,5.663812414638642,11.833776868780788,2.869089412149953,2933,86,966,1478,304.32975649248766,175.6474052211954,0.0033280306432377,True
0.2,0.8349725149384806,2.4000000000000004,5720.0,75.4845,0.3,68900.0,0.33,276.0,2700.0,35.99389595620046,3.582634434800901,9673.112973962434,21.35209985464025,7.695007697751977,14.64179610156021,4.112373262951076,3611,98,1180,1835,320.55634908029504,185.07302675911012,0.0038031755593264,True
0.21,0.6454242728830386,2.4000000000000004,5721.0,75.4845,0.3,68900.0,0.33,276.0,2700.0,23.916128615153657,2.49179731154787,6727.852741179249,14.96757306241529,4.267105851388401,8.948555552738366,1.7753085398405304,2462,78,804,1250,246.89302766733744,142.54154689142445,0.0025869419802812,False
0.22,0.8557410323518655,2.4000000000000004,5722.0,75.4845,0.2,68900.0,0.33,276.0,2700.0,36.77218935790555,4.022639710319328,10861.127217862184,22.10653240291923,8.146274616327714,14.665656954986323,4.123634906008387,7296,142,2412,3672,296.9869775090401,171.39820863765567,0.0035981337074929,True
0.23,0.6487030761153798,2.4000000000000004,5723.0,75.4845,0.3,68900.0,0.33,276.0,2700.0,23.587270280423137,2.6870535770378425,7255.044658002174,15.070337735065698,4.31634997707097,8.51693254535744,1.6292964000331271,2358,76,780,1182,226.42870925770828,130.52819541648515,0.0024055407869252,False
0.24,0.6466177810570045,2.4000000000000004,5724.0,75.4845,0.3,68900.0,0.33,276.0,2700.0,23.21429939026116,2.756763008935859,7443.260124126819,15.00494887372801,4.284992072790288,8.209350516533148,1.5282290638544285,2366,76,780,1190,215.9048911352192,124.4488082648708,0.0023114229797759,False
0.25,0.5782188317304575,2.4000000000000004,5725.0,75.4845,0.2,68900.0,0.33,276.0,2700.0,19.22390577765525,2.3702632987320125,6399.710906576433,12.920737433214455,3.3306184753115646,6.303168344440795,0.9603551765795522,4123,100,1364,2071,189.68591325857253,109.4771153219204,0.0019519856312154,False
0.26,0.6937138823557925,2.4000000000000004,5726.0,75.4845,0.3,68900.0,0.33,276.0,2700.0,25.41246863828211,3.266809834657012,8820.386553573931,16.50838590217805,5.026850893269341,8.904082736104062,1.760041058612329,2584,80,848,1306,215.23611671095796,124.2233355809076,0.0023475397934068,False
0.27,0.911065821605416,2.4000000000000004,5727.0,75.4845,0.3,68900.0,0.33,276.0,2700.0,39.00053910344704,5.22384880016495,14104.391760445364,24.16915088981603,9.42601616453308,14.831388213631008,4.202167364368131,3738,102,1230,1887,265.0279263328708,152.9693807920903,0.0032495512232163,False
0.28,0.7596523263068796,2.4000000000000004,5728.0,75.4845,0.3,68900.0,0.33,276.0,2700.0,28.831069265713545,3.990373535912162,10774.008546962836,18.706983515707293,6.18727377753486,10.124085750006252,2.1969002416226977,2866,84,940,1450,215.5361051965257,124.26753530444071,0.0024689412157759,False
0.29,0.9132245314656644,2.4000000000000004,5729.0,75.4845,0.3,68900.0,0.33,276.0,2700.0,38.53008492784927,5.535782112385882,14946.611703441882,24.251191262280727,9.478278878484367,14.278893665568546,3.942496766098485,3756,102,1232,1902,247.9187444609976,142.83656893339227,0.003056250781035,False
0.3,0.9101389537400392,2.4000000000000004,5730.0,75.4845,0.3,68900.0,0.33,276.0,2700.0,38.01271752163552,5.645358960480716,15242.469193297931,24.133961814734985,9.403630864718998,13.878755706900538,3.758271904238282,3617,100,1194,1820,240.82854525283787,138.97208675262772,0.0029470979949662,False
0.31,0.9000660695189827,2.4000000000000004,5731.0,75.4845,0.3,68900.0,0.33,276.0,2700.0,37.02625134352538,5.67667483375099,15327.022051127671,23.75293127817888,9.162453440327676,13.2733200653465,3.4857786065766856,3457,98,1134,1750,232.2095952876369,133.9968191205681,0.0028181686635603,False
0.32,0.7822277087605913,2.4000000000000004,5732.0,75.4845,0.3,68900.0,0.33,276.0,2700.0,29.13991986771569,4.593758040119266,12403.14670832202,19.48482917015371,6.618347069472123,9.65509069756198,2.024589029352857,2892,86,958,1449,196.5842245745492,113.05306025644002,0.0022821122083085,False
0.33,0.7813135409833745,2.4000000000000004,5733.0,75.4845,0.3,68900.0,0.33,276.0,2700.0,28.81829763383345,4.6797528327878055,12635.332648527075,19.45308224087272,6.600549179110115,9.365215392960728,1.9207963463223097,2915,86,962,1466,192.2078284373001,110.52034095294032,0.0022217123889066,False
0.34,0.9395198459043732,2.4000000000000004,5734.0,75.4845,0.3,68900.0,0.33,276.0,2700.0,38.81713199279422,6.516594333670556,17594.8047009105,25.259929938497613,10.129196048860512,13.55720205429661,3.6126017151899568,3686,100,1212,1862,221.52569190961552,127.53976383593256,0.0027489234034877,False
0.3500000000000001,0.914672545949311,2.4000000000000004,5735.0,75.4845,0.3,68900.0,0.33,276.0,2700.0,36.828200290938895,6.355137860899094,17158.872224427556,24.30628774546778,9.51343483857192,12.521912545471114,3.1582969776728254,3350,96,1108,1682,212.01259591709368,121.90398374144804,0.0025845727866525,False
0.36,0.7947521980207192,2.4000000000000004,5736.0,75.4845,0.3,68900.0,0.33,276.0,2700.0,28.85296253559205,5.09581715850931,13758.706327975136,19.921890744772934,6.865117474943067,8.93107179081911,1.7693003164337568,2860,86,948,1432,183.36785265921043,105.70707145335778,0.0021077637227675,False
0.37,1.0673118548042326,2.4000000000000004,5737.0,75.4845,0.3,68900.0,0.33,276.0,2700.0,47.03525755559057,8.59543525266273,23207.67518218937,30.4097224272007,13.681893515869374,16.62553512838987,5.086458263206644,4375,112,1442,2206,231.79637757073792,133.44973724486317,0.0030325585950892,False
0.38,0.7851538923977582,2.4000000000000004,5738.0,75.4845,0.3,68900.0,0.33,276.0,2700.0,27.75893239773981,5.159273507512047,13930.038470282529,19.586589965034293,6.675512090672915,8.17234243270552,1.5162385831608676,2770,84,920,1382,173.58596823298447,100.0318268276032,0.0019921788173186,False
0.39,1.0216880023905348,2.4000000000000004,5739.0,75.4845,0.3,68900.0,0.33,276.0,2700.0,43.06403867521096,8.273250118587272,22337.77532018564,28.524052511354167,12.337699490738787,14.539986163856792,4.0644493721515165,4122,108,1362,2073,211.1348019655109,121.57180102824518,0.0027284482599857,False
0.4,0.9988014626775498,2.4000000000000004,5740.0,75.4845,0.3,68900.0,0.33,276.0,2700.0,41.13338863861412,8.092636441169654,21850.118391158067,27.597837357672585,11.695506667353875,13.53555128094153,3.602870226184221,3812,104,1262,1911,202.24016195644987,116.38484141158509,0.0025877837079873,False
0.4100000000000001,0.8168394868415562,2.4000000000000004,5741.0,75.4845,0.3,68900.0,0.33,276.0,2700.0,28.91722794193245,5.783683923244111,15615.9465927591,20.702267858840216,7.313733669409321,8.214960083092233,1.5300497461652096,2984,86,970,1507,165.1150593942751,95.0670797922776,0.0019680834137975,False
0.42,0.9626608769088284,2.4000000000000004,5742.0,75.4845,0.3,68900.0,0.33,276.0,2700.0,38.045728734814205,7.834433489964876,21152.970422905168,26.162040283214875,10.724148798320936,11.88368845159933,2.88971530835606,3617,100,1206,1802,667.2257997503318,357.0661895130188,0.0023490763675817,True
0.43,0.9677622322938152,2.4000000000000004,5743.0,75.4845,0.3,68900.0,0.33,276.0,2700.0,38.10602743881111,8.026276827938409,21670.947435433704,26.36271769197368,10.858122248746698,11.743309746837433,2.831845420808289,3599,100,1202,1790,184.58074803675763,105.9575760107126,0.0023334751274443,False
0.44,1.111893729606849,2.4000000000000004,5744.0,75.4845,0.3,68900.0,0.33,276.0,2700.0,48.10775872251768,10.405297966551634,28094.304509689413,32.30286275158925,15.079630245326884,15.804895970928428,4.67433227877525,4535,114,1502,2274,203.2026289135698,116.4636883642079,0.0027494446985124,False
0.45,0.962320284271868,2.4000000000000004,5745.0,75.4845,0.3,68900.0,0.33,276.0,2700.0,37.17259455450259,8.172982021057502,22067.051456855253,26.1486653222685,10.715240477821968,11.023929232234089,2.5422584567644666,3483,98,1152,1741,176.7574198166649,101.25194883193043,0.0022201059380799,False
0.46,1.1007137201806516,2.4000000000000004,5746.0,75.4845,0.3,68900.0,0.33,276.0,2700.0,46.64382546148188,10.524219814454293,28415.393499026584,31.823418221430927,14.721166959200817,14.820407240050956,4.196947144746524,4423,112,1448,2227,193.88181010479505,111.1623551222494,0.0026086038905444,False
0.4700000000000001,1.1526850878050872,2.4000000000000004,5747.0,75.4845,0.3,68900.0,0.33,276.0,2700.0,50.23012133759644,11.586632131618453,31283.90675536982,34.07880351474282,16.433387253242326,16.151317822853613,4.846755121623875,4977,118,1596,2533,199.6611273769564,114.6266799273085,0.0027280056352749,False
0.4800000000000001,1.141438365455231,2.4000000000000004,5748.0,75.4845,0.3,68900.0,0.33,276.0,2700.0,49.05702901439511,11.542063620290936,31163.57177478553,33.58497736556303,16.05289235434357,15.472051648832084,4.510828734052632,4382,112,1432,2208,193.7932681441308,111.09022822919232,0.0026390295984319,False
0.49,1.1581333847674125,2.4000000000000004,5749.0,75.4845,0.3,68900.0,0.33,276.0,2700.0,50.00404263784386,12.00458695687028,32412.38478354975,34.31917282087598,16.619713157870933,15.684869816967884,4.615126201000654,4916,116,1538,2533,191.2428062374968,109.5860321400984,0.0026565975305285,False
0.5,1.0873190966402415,2.4000000000000004,5750.0,75.4845,0.2,68900.0,0.33,276.0,2700.0,44.44439239428867,10.849298710773024,29293.106519087163,31.253138426882945,14.298728627205158,13.191253967405723,3.449429916432134,12281,160,3012,6957,191.314201883287,110.04530511624392,0.0024238913793148,False
0.05,0.454255541473826,2.4000000000000004,5755.0,78.50388,0.1,68900.0,0.33,276.0,2700.0,17.592717035509395,0.4395561264999345,1186.801541549823,9.44305884730685,1.948463269010135,8.149658188202546,1.5089071425102003,14851,188,4882,7522,765.1653799302197,438.18493895706087,0.0064591065178393,True
0.06,0.7361467653229586,2.4000000000000004,5756.0,78.50388,0.2,68900.0,0.33,276.0,2700.0,33.851776046589336,1.015100892055566,2740.772408550028,17.910699483082354,5.756941387224294,15.941076563506982,4.741840495168728,7429,140,2432,3775,985.593425639455,562.5661591100597,0.0103710266779813,True
0.0699999999999999,0.5181034722950622,2.4000000000000004,5757.0,78.50388,0.1,68900.0,0.33,276.0,2700.0,20.466549536634258,0.7156108562620793,1932.1493119076144,11.186022343576264,2.606480214640521,9.280527193057994,1.8908693583784413,17455,206,5730,8854,616.8782890565595,353.86644456801764,0.0055783304967519,True
0.08,0.4794876400784347,2.4000000000000004,5758.0,78.50388,0.1,68900.0,0.33,276.0,2700.0,18.14922087487734,0.7248965047026563,1957.220562697172,10.119617392180349,2.195233312071934,8.029603482696992,1.4703368073692775,15236,192,5018,7703,483.22512364370647,277.6316393106822,0.0044752221514875,True
0.09,0.4382792107972679,2.4000000000000004,5759.0,78.50388,0.2,68900.0,0.33,276.0,2700.0,15.799159696576783,0.7094353723159103,1915.4755052529576,9.02295217006527,1.800962260491615,6.776207526511513,1.0915268881757043,3191,88,1046,1616,395.58895749405184,227.97803593034268,0.0035965764919796,True
0.0999999999999999,0.4317888422636796,2.4000000000000004,5760.0,78.50388,0.2,68900.0,0.33,276.0,2700.0,15.24072878951225,0.7599420443732074,2051.84351980766,8.85411664044891,1.7429484506714732,6.386612149063341,0.9830064062982656,3204,88,1050,1623,353.880259185354,204.3127663327856,0.0032048928013032,True
0.11,0.7835913277285866,2.4000000000000004,5761.0,78.50388,0.3,68900.0,0.33,276.0,2700.0,35.391421435211896,1.9437405390553717,5248.099455449503,19.532223529724654,6.644949260729977,15.859197905487244,4.701208721674606,3605,98,1182,1826,570.328426060253,329.1412758570798,0.0063257224664965,True
0.12,0.6921908258612175,2.4000000000000004,5762.0,78.50388,0.3,68900.0,0.33,276.0,2700.0,29.201587051322107,1.7484761083423892,4720.8854925244505,16.458893515907295,5.001745386155823,12.742693535414812,3.253269277813434,2773,84,910,1402,465.47491076313776,268.4552842138007,0.0049345105151731,True
0.13,0.7605938837876547,2.4000000000000004,5763.0,78.50388,0.3,68900.0,0.33,276.0,2700.0,33.245301365078106,2.1563432026901186,5822.126647263321,18.739169360757494,6.20490262847017,14.506132004320612,4.048559425780051,3343,92,1088,1705,468.355595951712,269.97896665932444,0.0052054880724388,True
0.14,0.7134536286764275,2.4000000000000004,5764.0,78.50388,0.3,68900.0,0.33,276.0,2700.0,29.93502818146105,2.089704952540976,5642.203371860635,17.15511197029075,5.359089237857237,12.779916211170296,3.269384285316261,2847,86,934,1440,410.0080374088946,236.7180851395041,0.004454414026276,True
0.15,0.4741453455596062,2.4000000000000004,5765.0,78.50388,0.2,68900.0,0.33,276.0,2700.0,16.183384795824555,1.2066852762162632,3258.0502457839107,9.975037004399372,2.1415578503833754,6.208347791425183,0.9348725741671122,3328,90,1092,1684,263.74570094962803,152.17225065811854,0.00249144060843,False
0.16,0.8099243358220954,2.4000000000000004,5766.0,78.50388,0.3,68900.0,0.33,276.0,2700.0,35.56531042067024,2.83664619131422,7658.944716548392,20.456626745214468,7.171424375988681,15.108683675455769,4.3347781846744615,3466,96,1134,1759,407.7161947791842,235.32827951792797,0.0046675216929663,True
0.17,0.8422592386720837,2.4000000000000004,5767.0,78.50388,0.3,68900.0,0.33,276.0,2700.0,37.43214284210487,3.171442378440853,8562.894421790304,21.61556126524821,7.851553625463756,15.816581576856656,4.680111247022904,3748,100,1230,1897,393.0909015885792,226.74656700807455,0.0046567527882946,True
0.18,0.7613219034714256,2.4000000000000004,5768.0,78.50388,0.3,68900.0,0.33,276.0,2700.0,31.776817174096152,2.8476990334314967,7688.787390265041,18.764070984699487,6.218554176250368,13.012746189396664,3.370855142818872,3184,90,1038,1621,346.0322019447104,199.7417181226039,0.0038433493343399,True
0.19,0.5161412492679411,2.4000000000000004,5769.0,78.50388,0.2,68900.0,0.33,276.0,2700.0,17.385685609703643,1.6372746769145294,4420.64162766923,11.130930288554849,2.584584811289094,6.254755321148796,0.9473101343745648,3765,96,1240,1899,225.12939140248903,129.8671574642308,0.0022384607352617,False
0.2,0.7755288525574244,2.4000000000000004,5770.0,78.50388,0.3,68900.0,0.33,276.0,2700.0,32.09385342104369,3.192630181285226,8620.10148947011,19.252680368630823,6.48859919603153,12.841173052412866,3.2959690147463045,3373,94,1104,1711,313.14067729760427,180.68642822216464,0.0035729530562801,True
0.21,0.8466053231099206,2.4000000000000004,5771.0,78.50388,0.3,68900.0,0.33,276.0,2700.0,36.46584428506539,3.8095174568886025,10285.697133599228,21.77333518129593,7.945839357343812,14.692509103769456,4.13632190045521,3639,98,1188,1851,323.93304398660456,186.8248261232412,0.0038507098958291,True
0.22,0.735137016826968,2.4000000000000004,5772.0,78.50388,0.3,68900.0,0.33,276.0,2700.0,28.97957644542428,3.1654522899463857,8546.72118285524,17.876803900212114,5.7388732005222725,11.102772545212169,2.5734209105758867,2801,84,920,1415,275.2167630839802,158.83428238104332,0.0030479743266886,False
0.23,0.5470547173650894,2.4000000000000004,5773.0,78.50388,0.1,68900.0,0.33,276.0,2700.0,18.05440473742008,2.0507740395924907,5537.089906899725,12.010114245432746,2.942207909167391,6.044290491987333,0.8914338695749002,19751,186,4878,11164,615.2385877735499,342.928458856092,0.0019394041909586,True
0.24,0.9016578572595972,2.4000000000000004,5774.0,78.50388,0.3,68900.0,0.33,276.0,2700.0,39.29198563753044,4.686085358608172,12652.430468242064,23.81297474594093,9.200310844920653,15.479010891589509,4.514225486312481,3557,100,1164,1805,304.7386909703732,175.92787840901408,0.0037094896731229,True
0.25,0.8027802519774975,2.4000000000000004,5775.0,78.50388,0.3,68900.0,0.33,276.0,2700.0,32.379701121812886,4.014737716751712,10839.791835229624,20.204115613421056,7.026183263348671,12.17558550839183,3.011445546596958,3066,90,1010,1545,261.4041064388082,150.8059682307793,0.0030503178853068,False
0.26,0.6369449049385649,2.4000000000000004,5776.0,78.50388,0.08,68900.0,0.33,276.0,2700.0,22.17278346322061,2.845650761899018,7683.257057127349,14.703064512145296,4.141313001694465,7.469718951075315,1.2956622397954471,49523,264,9356,30387,217.73678012021523,123.4576983866273,0.0022303330780656,False
0.27,0.8932955422887993,2.4000000000000004,5777.0,78.50388,0.3,68900.0,0.33,276.0,2700.0,37.77933002894387,5.058985575107017,13659.261052788946,23.49825321529485,9.00249637471097,14.28107681364902,3.9435107996039536,3665,100,1202,1856,272.2146407262516,157.12366635975192,0.0032875304897766,False
0.28,0.846290024255846,2.4000000000000004,5778.0,78.50388,0.3,68900.0,0.33,276.0,2700.0,34.33116435929169,4.760386849012693,12853.04449233427,21.76187306054449,7.93897605677441,12.569291298747196,3.1785892077617177,3220,92,1068,1612,248.6843075792216,143.44543268587154,0.0029572526820497,False
0.29,0.7232047168400142,2.4000000000000004,5779.0,78.50388,0.3,68900.0,0.33,276.0,2700.0,26.369054819197995,3.772432746631041,10185.56841590381,17.478196977703966,5.527943520471558,8.890857841494029,1.7555107738405171,2727,82,902,1368,211.9527523657334,121.84825876523584,0.002339309586003,False
0.3,0.6935494646858298,2.4000000000000004,5780.0,78.50388,0.3,68900.0,0.33,276.0,2700.0,24.38392070859277,3.601039438523831,9722.806484014343,16.50304027102419,5.024137062392285,7.880880437568582,1.4230976238684536,2487,78,820,1251,192.63190657757585,111.00740657898328,0.0021637868009742,False
0.31,0.6371163849680921,2.4000000000000004,5781.0,78.50388,0.1,68900.0,0.33,276.0,2700.0,20.98586080695681,3.19041430058291,8614.118611573858,14.708395821306086,4.143834740727113,6.277464985650729,0.9534204401442028,29784,204,5762,18167,188.87855709443696,108.92228387416364,0.0019365817686428,False
0.32,0.7024599448380917,2.4000000000000004,5782.0,78.50388,0.1,68900.0,0.33,276.0,2700.0,24.39923527851501,3.835248505847185,10355.170965787398,16.79372166450416,5.172480648866791,7.605513614010853,1.337232143019606,35290,224,6752,21578,197.6405070637269,114.10562926138525,0.0021144786304525,False
0.33,0.8322374296278727,2.4000000000000004,5783.0,78.50388,0.3,68900.0,0.33,276.0,2700.0,31.996887518969903,5.20422016383533,14051.39444235539,21.253553574525228,7.636742692182513,10.74333394444468,2.4325225283471834,3104,90,1028,1556,212.88696588761664,122.65013636642962,0.0024979869024225,False
0.34,0.8317730544464235,2.4000000000000004,5784.0,78.50388,0.3,68900.0,0.33,276.0,2700.0,31.691663895075585,5.305264757058386,14324.214844057642,21.236840610888947,7.626876950137391,10.454823284186634,2.321612193079005,3133,90,1038,1570,207.78477452784367,119.67198197641056,0.0024330561429057,False
0.3500000000000001,0.724456736634417,2.4000000000000004,5785.0,78.50388,0.1,68900.0,0.33,276.0,2700.0,24.928557545876263,4.272700380513239,11536.291027385743,17.51985354814011,5.549852642372706,7.408703997736158,1.2771522618594666,36257,224,6712,22325,189.5769132188292,109.39664683070389,0.0020416801365252,False
0.36,0.6790776922956419,2.4000000000000004,5786.0,78.50388,0.3,68900.0,0.33,276.0,2700.0,22.126155973520767,3.884991977335776,10489.478338806595,16.035188328289845,4.788700491065678,6.090967645230922,0.9037085137299026,2219,72,742,1100,160.01114893027292,92.19196062503848,0.0018163760825891,False
0.37,0.87185783880189,2.4000000000000004,5787.0,78.50388,0.3,68900.0,0.33,276.0,2700.0,33.43227854425617,6.078884135565869,16412.987166027848,22.69945830836788,8.507330588475481,10.73282023588829,2.428446452909612,3086,92,1024,1544,198.8171257641129,114.66908295404411,0.0024038477376951,False
0.38,0.9707791252509425,2.4000000000000004,5788.0,78.50388,0.3,68900.0,0.33,276.0,2700.0,39.77635785562607,7.442584344510435,20094.977730178176,26.481704173113155,10.937835173311486,13.294653682512912,3.4952508288010504,3846,104,1276,1926,214.02879490468612,123.23389737336196,0.0027111181958918,False
0.39,1.0645571100170137,2.4000000000000004,5789.0,78.50388,0.3,68900.0,0.33,276.0,2700.0,46.18450583820124,8.88174121537038,23980.701281500023,30.29438263964237,13.598281401154248,15.890123198558868,4.7165401857838685,4394,112,1454,2207,229.3982894850089,132.014891384865,0.0030003063213128,False
0.4,1.0382769651941304,2.4000000000000004,5790.0,78.50388,0.3,68900.0,0.33,276.0,2700.0,43.94813242082954,8.655585197612654,23370.080033554164,29.20363476670481,12.816511157949432,14.744497654124732,4.16092596033678,4189,108,1386,2104,216.76178234756492,124.6366689348304,0.0028362176312836,False
0.4100000000000001,1.0643791177960251,2.4000000000000004,5791.0,78.50388,0.3,68900.0,0.33,276.0,2700.0,45.5358124419169,9.190493745740898,24814.333113500423,30.28693675400184,13.592889899371633,15.248875687915064,4.402396153630733,4192,110,1392,2098,217.5627609287903,125.24143758405376,0.0028695326560744,False
0.42,0.7978995430939753,2.4000000000000004,5792.0,78.50388,0.08,68900.0,0.33,276.0,2700.0,27.525512012542613,5.625187978287843,15188.007541377176,20.032342088952973,6.92799228857864,7.49316992358964,1.302804310290797,81477,294,11242,53142,203.35387571139773,116.2134251498803,0.0019832003480059,False
0.43,1.0917077786039906,2.4000000000000004,5793.0,78.50388,0.3,68900.0,0.33,276.0,2700.0,46.92008497182768,9.921299197536984,26787.507833349857,31.43949109698311,14.436297456395115,15.480593874844573,4.514998258858133,4165,110,1386,2080,215.6320931885373,124.20977857253708,0.0028485978062646,False
0.44,0.7574647499799886,2.4000000000000004,5794.0,78.50388,0.1,68900.0,0.33,276.0,2700.0,24.686033329921383,5.252518380180385,14181.79962648704,18.632290252928588,6.146432543780712,6.053743076992795,0.8939141636003267,40975,218,6542,26030,169.32496185753,97.72476290512708,0.0017993837762441,False
0.45,1.0087701443511692,2.4000000000000004,5795.0,78.50388,0.3,68900.0,0.33,276.0,2700.0,40.34922902697855,8.887724777364594,23996.856898884405,27.99965032904021,11.97262142087592,12.349578697938334,3.0848966435113265,3666,102,1222,1825,194.0969620677548,111.39331587541196,0.0024629741483648,False
0.46,1.0997341884356138,2.4000000000000004,5796.0,78.50388,0.3,68900.0,0.33,276.0,2700.0,46.57143658017754,10.50757037175429,28370.440003736585,31.78156156766788,14.690015412746265,14.789875012509658,4.182445040991972,4434,112,1450,2235,201.5534224641229,115.56462249369356,0.0027095204615295,False
0.4700000000000001,1.0636236703902844,2.4000000000000004,5797.0,78.50388,0.3,68900.0,0.33,276.0,2700.0,43.63522886240333,10.036832399949017,27099.44747986234,30.25534325116976,13.57002164609062,13.379885611233568,3.533189246141605,4304,108,1362,2205,205.6359077565617,118.4001994487898,0.0025494117696372,False
0.4800000000000001,1.1496167504349275,2.4000000000000004,5798.0,78.50388,0.3,68900.0,0.33,276.0,2700.0,49.6759370408612,11.690601546642826,31564.62417593563,33.94376223480333,16.32902922349174,15.73217480605787,4.638427676848915,5250,118,1598,2741,215.07287262612007,123.57209515130516,0.0027856187294833,False
0.49,0.9177302691422926,2.4000000000000004,5799.0,78.50388,0.3,68900.0,0.33,276.0,2700.0,33.171884261965474,7.880708154780078,21277.91201790621,24.422806255518758,9.58793481914568,8.74907800644672,1.707226664365602,3368,90,1018,1757,179.79373902194678,103.27804588542024,0.0020462047451271,False
0.5,1.167102346857479,2.4000000000000004,5800.0,78.50388,0.3,68900.0,0.33,276.0,2700.0,50.36851490520937,12.330329338503203,33291.88921395865,34.716492627867275,16.92930077993501,15.652022277342098,4.598971441431804,5093,116,1576,2635,196.70167713104632,112.65495705444476,0.0027459106761478,False
0.0699999999999999,0.5147083796570053,2.4000000000000004,5807.0,81.52326,0.2,68900.0,0.33,276.0,2700.0,20.28200115997908,0.7091516630791465,1914.7094903136956,11.09076167578348,2.568664423890846,9.1912394841956,1.8595127608116997,4342,104,1424,2200,599.9790170617325,346.27111190210604,0.0057507863884168,True
0.08,0.5050919757030523,2.4000000000000004,5808.0,81.52326,0.2,68900.0,0.33,276.0,2700.0,19.50353288767158,0.7790689852142737,2103.486260078539,10.822513684240755,2.4633028324846857,8.681019203430822,1.684233847270412,4105,100,1340,2089,523.0112627077807,301.9175250598537,0.0049675268816656,True
0.09,0.6116069160559439,2.4000000000000004,5809.0,81.52326,0.2,68900.0,0.33,276.0,2700.0,25.208056428645204,1.13283572525936,3058.656458200272,13.923429552481602,3.778678177743397,11.2846268761636,2.645842452484037,5419,118,1774,2752,550.6539423189213,316.0969209147676,0.0056844749603729,True
0.0999999999999999,0.5690417486580651,2.4000000000000004,5810.0,81.52326,0.2,68900.0,0.33,276.0,2700.0,22.48763168412801,1.1222871891038435,3030.175410580377,12.65004517672159,3.2132874959161226,9.837586507406424,2.091000306812279,4642,108,1520,2356,462.8887834788507,267.1345386942265,0.0046925520460993,True
0.11,0.7330525734330122,2.4000000000000004,5811.0,81.52326,0.3,68900.0,0.33,276.0,2700.0,32.08052117418012,1.7616410246986216,4756.430766686279,17.80691364035348,5.701682874840984,14.273607533826642,3.9400418501423617,3309,92,1076,1689,553.0999674025861,319.11489340024804,0.0060098580572041,True
0.12,0.69252238488574,2.4000000000000004,5812.0,81.52326,0.3,68900.0,0.33,276.0,2700.0,29.22212547487363,1.7497084137554677,4724.212717139762,16.469662706912963,5.007204266069577,12.752462767960663,3.257495852314109,2767,84,908,1399,483.6295055333674,278.80925622465065,0.0051290901107441,True
0.13,0.6704402638259181,2.4000000000000004,5813.0,81.52326,0.2,68900.0,0.33,276.0,2700.0,27.578439182229783,1.7879971608049616,4827.592334173396,15.758460775246895,4.651394155725679,11.81997840698289,2.8633969949207176,5881,124,1932,2977,421.25700602023807,242.4546449500127,0.0045555410409503,True
0.14,0.7965813220682545,2.4000000000000004,5814.0,81.52326,0.3,68900.0,0.33,276.0,2700.0,35.30441409537071,2.46556196651498,6657.017309590446,19.986050803732827,6.901615749912884,15.318363291637883,4.436053783397904,3421,96,1126,1726,480.5449994930118,277.42397036814003,0.0053662464503447,True
0.15,0.7924074583313904,2.4000000000000004,5815.0,81.52326,0.3,68900.0,0.33,276.0,2700.0,34.713025795741274,2.596408351210016,7010.302548267042,19.83976745359761,6.818502132895988,14.873258342143664,4.222093781685972,3446,96,1134,1739,447.1963031564069,258.1581657448384,0.0049962606297648,True
0.16,0.7819145816943927,2.4000000000000004,5816.0,81.52326,0.3,68900.0,0.33,276.0,2700.0,33.712596089560016,2.688429044825333,7258.758421028399,19.47395262746957,6.612247545012942,14.238643462090444,3.92381850018761,3450,96,1134,1743,411.4548255968588,237.46559505070573,0.0046207828250726,True
0.17,0.6096313289942934,2.4000000000000004,5817.0,81.52326,0.3,68900.0,0.33,276.0,2700.0,22.92157839241912,1.9380444002175663,5232.7198805874295,13.86331999060203,3.751230622451041,9.058258401817088,1.8131862222334745,2349,76,770,1188,314.8230757090095,181.7631813659174,0.003147548371931,True
0.18,0.558434436920688,2.4000000000000004,5818.0,81.52326,0.1,68900.0,0.33,276.0,2700.0,19.846123046070545,1.7739365619091922,4789.628717154819,12.33980328310339,3.080752439098054,7.506319762967156,1.3068158771888616,18786,198,5376,10086,269.7058285502152,155.50627436920104,0.0026887542072476,False
0.19,0.5768827086466534,2.4000000000000004,5819.0,81.52326,0.2,68900.0,0.33,276.0,2700.0,20.59616068086471,1.9422698086748336,5244.128483422051,12.8811947652753,3.3133812016988204,7.71496591558941,1.3711113930239869,4569,106,1502,2310,257.09667811186733,148.41202701221331,0.0026605366267732,False
0.2,0.8065003894805689,2.4000000000000004,5820.0,81.52326,0.3,68900.0,0.33,276.0,2700.0,34.103704009479245,3.39361524012878,9162.761148347705,20.33544562514311,7.101589526580488,13.768258384336136,3.7079742864517087,3354,94,1096,1704,339.38501274553295,195.78175450739,0.0039098420200285,True
0.21,0.5524079961017785,2.4000000000000004,5821.0,81.52326,0.2,68900.0,0.33,276.0,2700.0,18.801514945495608,1.9547628762337763,5277.8597658311965,12.16480205607403,3.006915120560921,6.636712889421577,1.0521522443271452,3973,98,1316,1993,228.0111587854148,131.5326107055902,0.002312647566091,False
0.22,0.873198505547071,2.4000000000000004,5822.0,81.52326,0.3,68900.0,0.33,276.0,2700.0,37.96074783938477,4.153381143282045,11214.129086861522,22.749074600854296,8.537796251772955,15.211673238530476,4.384415108490909,3591,100,1176,1821,332.20014385778404,191.794157511391,0.0039949126344675,True
0.23,0.6052517552477381,2.4000000000000004,5823.0,81.52326,0.2,68900.0,0.33,276.0,2700.0,21.15859862008004,2.407756336098388,6500.942107465648,13.73041606250172,3.690806397393035,7.428182557578317,1.2830500612946474,4490,104,1488,2252,227.52630550078956,131.14616402349787,0.002389491552265,False
0.24,0.580477404370213,2.4000000000000004,5824.0,81.52326,0.2,68900.0,0.33,276.0,2700.0,19.578715182727542,2.320492904031496,6265.33084088504,12.98768209331612,3.3598764749225967,6.591033089411425,1.0393835708911006,4146,100,1376,2076,211.7675121208763,121.8035624626848,0.0021903943179187,False
0.25,0.6392760511403569,2.4000000000000004,5825.0,81.52326,0.3,68900.0,0.33,276.0,2700.0,22.550003178396725,2.786025473824698,7522.268779326685,14.775603045531954,4.175672517118124,7.774400132864772,1.3896470432934258,2365,76,780,1189,224.08969443080977,129.34213603405206,0.0023786871447751,False
0.26,0.8689447904054628,2.4000000000000004,5826.0,81.52326,0.3,68900.0,0.33,276.0,2700.0,36.43426018925202,4.699642736283105,12689.035387964384,22.59180597641015,8.441362817849821,13.842454212841872,3.741720081566717,3479,98,1144,1757,282.1299764556707,162.71751568172343,0.0034029524533153,True
0.27,0.8794988784585824,2.4000000000000004,5827.0,81.52326,0.3,68900.0,0.33,276.0,2700.0,36.842141518155366,4.932465126150508,13317.655840606372,22.98284798234885,8.68185981110004,13.859293535806517,3.749394684949531,3505,98,1154,1768,277.14549634726933,159.97433523035895,0.0033414769559222,True
0.28,0.8918553626545531,2.4000000000000004,5828.0,81.52326,0.3,68900.0,0.33,276.0,2700.0,37.37522423489472,5.186555231597518,14003.6991253133,23.444228458602645,8.968693577923284,13.930995776292072,3.782138346325766,3510,98,1158,1767,270.2672966811102,155.99355472202456,0.0032946983759417,False
0.29,0.6122609609970147,2.4000000000000004,5829.0,81.52326,0.2,68900.0,0.33,276.0,2700.0,20.107976373848818,2.864576372055813,7734.356204550695,13.94335125258084,3.787791240662066,6.164625121267978,0.9232148686062532,4309,102,1432,2155,184.5621486593,106.3908641112436,0.0019965650317595,False
0.3,0.713797055789565,2.4000000000000004,5830.0,81.52326,0.3,68900.0,0.33,276.0,2700.0,25.55807736307111,3.777162936696048,10198.339929079328,17.16645021842107,5.36498271528229,8.391627144650041,1.5878197785862422,2415,78,798,1212,208.3535103238804,120.24072820026812,0.0023244123534777,False
0.31,0.644591454445375,2.4000000000000004,5831.0,81.52326,0.2,68900.0,0.33,276.0,2700.0,21.393857358458263,3.2536537660656344,8784.865168377213,14.941513790016897,4.254651433105996,6.452343568441371,1.000997667040362,4596,106,1512,2306,183.46427839657989,105.32650734002142,0.0020132014879442,False
0.32,0.7000348148773056,2.4000000000000004,5832.0,81.52326,0.05,68900.0,0.33,276.0,2700.0,24.26011684915081,3.812989557148913,10295.071804302066,16.71441042362199,5.131849891210301,7.54570642552882,1.3188603340613878,218690,436,25318,146387,271.4174369751141,152.49432410948418,0.0021910898547648,False
0.33,0.7875186145893813,2.4000000000000004,5833.0,81.52326,0.3,68900.0,0.33,276.0,2700.0,29.19863475045788,4.742508457030846,12804.772833983285,19.66898263321035,6.721926324812036,9.529652117247526,1.9794178677811896,2881,86,954,1444,212.6867211900296,122.68408150536504,0.0024214283328805,False
0.34,0.8991485454964878,2.4000000000000004,5834.0,81.52326,0.3,68900.0,0.33,276.0,2700.0,36.078951193280254,6.051103597753146,16337.979713933497,23.71835049288353,9.140675421243772,12.360600700396724,3.089571823490626,3170,94,1050,1589,229.4128575249764,132.11749671535375,0.0028020180254347,False
0.3500000000000001,0.7527963017204515,2.4000000000000004,5835.0,81.52326,0.3,68900.0,0.33,276.0,2700.0,26.58614574693007,4.562778315697658,12319.501452383676,18.473291565939316,6.059820012446286,8.112854180990759,1.497041696748628,2610,80,862,1311,194.41107606501592,112.10799616821733,0.0021808169429351,False
0.36,0.8368282231410915,2.4000000000000004,5836.0,81.52326,0.3,68900.0,0.33,276.0,2700.0,31.46662386127923,5.566276197133005,15028.945732259112,21.419068860847503,7.734693088678214,10.047555000431728,2.168416891545209,3023,88,1002,1514,204.7122926721924,118.12827513933016,0.0024319251644176,False
0.37,1.0260710862853546,2.4000000000000004,5837.0,81.52326,0.3,68900.0,0.33,276.0,2700.0,44.00518995421172,8.03487274640764,21694.156415300626,28.70293731730846,12.463114663113169,15.302252636903257,4.428241916705527,4075,108,1348,2047,240.7083504091124,138.6869541340147,0.003103810984434,False
0.38,0.8697849140595251,2.4000000000000004,5838.0,81.52326,0.3,68900.0,0.33,276.0,2700.0,33.02315091767341,6.159475026299435,16630.582571008475,22.62283104279707,8.460355759642756,10.400319874876342,2.3008807333433205,3104,92,1032,1550,204.14483617650345,117.77719467367464,0.0024327898960463,False
0.39,0.8138067195592646,2.4000000000000004,5839.0,81.52326,0.3,68900.0,0.33,276.0,2700.0,29.242316877861786,5.5780143681041885,15060.63879388131,20.59438944757958,7.25111215225779,8.647927430282206,1.673097784153602,2896,86,962,1445,188.2475331146573,108.44256377861896,0.0021861255172903,False
0.4,0.7368428491736593,2.4000000000000004,5840.0,81.52326,0.3,68900.0,0.33,276.0,2700.0,24.439370711993973,4.753832855845631,12835.348710783202,17.93408078519708,5.769416872856239,6.505289926796895,1.0155840170106083,2408,76,798,1205,163.20214169505806,93.98529978031443,0.0018917001323112,False
0.4100000000000001,0.8866887803761883,2.4000000000000004,5841.0,81.52326,0.3,68900.0,0.33,276.0,2700.0,33.29462733626302,6.681050799081877,18038.83715752107,23.250845920985512,8.848066894882562,10.043781415277508,2.167016095800685,3060,90,1020,1524,190.9045741815327,109.91604701787958,0.0023340571600333,False
0.42,0.93928227950467,2.4000000000000004,5842.0,81.52326,0.3,68900.0,0.33,276.0,2700.0,36.469904117706925,7.503510320372356,20259.47786500536,25.250738644502928,10.123196230047656,11.219165473203995,2.619685909675302,3273,94,1090,1632,195.25441601262463,112.39698278358784,0.002470508840058,False
0.43,1.0848040646742942,2.4000000000000004,5843.0,81.52326,0.3,68900.0,0.33,276.0,2700.0,46.40883789495343,9.811381076009011,26490.728905224336,31.14656306856787,14.220260038560628,15.26227482638556,4.408878962551615,4293,110,1426,2148,220.15592565477056,126.49604191785426,0.0029322488227457,False
0.44,0.8498504332643436,2.4000000000000004,5844.0,81.52326,0.3,68900.0,0.33,276.0,2700.0,30.182715406007368,6.461788436919356,17446.828779682262,21.891450494640857,8.016687805465029,8.291264911366511,1.554899368545673,3042,86,970,1549,173.59613596174884,99.87723294068984,0.002096056365499,False
0.45,0.7916179932810865,2.4000000000000004,5845.0,81.52326,0.2,68900.0,0.33,276.0,2700.0,26.43015722458554,5.755933621826166,15541.02077893065,19.81214794332032,6.802850233234774,6.61800928126522,1.0469166114086077,7147,116,1782,4016,174.483159820154,100.50271163058731,0.0019205539721835,False
0.46,1.1316673583369297,2.4000000000000004,5846.0,81.52326,0.3,68900.0,0.33,276.0,2700.0,48.95618866125701,11.056063350402576,29851.371046086955,33.15852827022839,15.726818673793948,15.797660391028622,4.67075532339137,4679,114,1538,2354,231.3881927766177,133.1999803257421,0.002953352473777,False
0.4700000000000001,1.1275752748590495,2.4000000000000004,5847.0,81.52326,0.3,68900.0,0.33,276.0,2700.0,48.330410950798594,11.14020019072191,30078.54051494916,32.98064489004197,15.591495308442312,15.349766060756622,4.451295117720402,4534,112,1488,2280,501.5494342650882,268.2598262136563,0.0028300135592767,True
0.4800000000000001,1.0709284425040606,2.4000000000000004,5848.0,81.52326,0.3,68900.0,0.33,276.0,2700.0,43.86055936847529,10.294910905270214,27796.259444229578,30.56143670718186,13.792147188881136,13.299122661293437,3.4972362836109223,4399,108,1362,2282,197.37176188986209,113.27157647088592,0.002628741303046,False
0.49,0.9861239055945646,2.4000000000000004,5849.0,81.52326,0.3,68900.0,0.33,276.0,2700.0,37.66488934727996,8.981494400682129,24250.034881841748,27.09044409200427,11.348854029848985,10.574445255275691,2.367359629166854,3851,98,1196,1987,201.0519051183485,115.61304919249436,0.0024001666591853,False
0.5,0.8790139201719446,2.4000000000000004,5850.0,81.52326,0.08,68900.0,0.33,276.0,2700.0,30.485392219983883,7.359548667196821,19870.781401431417,22.96481831553549,8.670718460577474,7.520573904448394,1.3111697933806523,105197,312,12492,70159,218.33018440102023,122.7645618129825,0.0020153093530939,False
0.05,0.3659834181810297,2.4000000000000004,5855.0,84.54263999999999,0.1,68900.0,0.33,276.0,2700.0,13.221701646750647,0.3302807417809673,891.7580028086116,7.202088142116791,1.2152525886768706,6.019613504633858,0.8849718468959034,10821,156,3548,5493,627.8239715680633,359.5229104544712,0.0053553141700505,True
0.06,0.5745295256873216,2.4000000000000004,5856.0,84.54263999999999,0.2,68900.0,0.33,276.0,2700.0,23.89741258921579,0.7164699883343554,1934.4689685027597,12.811661226539712,3.28315123354185,11.085751362676078,2.5666812452074947,5306,116,1742,2687,794.0397805995877,458.4385730009154,0.0079124222094502,True
0.0699999999999999,0.4273766625473101,2.4000000000000004,5857.0,84.54263999999999,0.1,68900.0,0.33,276.0,2700.0,15.73401185553043,0.5499720374234437,1484.924501043298,8.739946032907936,1.7041345473381406,6.994065822622494,1.154162509914697,12814,174,4212,6490,510.54599284784325,293.22807253449946,0.0047318023482025,True
0.08,0.6074432099006901,2.4000000000000004,5858.0,84.54263999999999,0.2,68900.0,0.33,276.0,2700.0,25.246432911938392,1.0087849861851093,2723.719462699795,13.796858379715529,3.7209687621805214,11.449574532222863,2.7121837759954124,5465,118,1790,2774,639.1802512138634,368.9302120009359,0.0065172624602097,True
0.09,0.6218143697487833,2.4000000000000004,5859.0,84.54263999999999,0.2,68900.0,0.33,276.0,2700.0,25.809240753629364,1.1598890198836738,3131.7003536859197,14.235566073125684,3.922391772221035,11.57367468050368,2.762502752337361,5331,118,1750,2700,583.9173135063661,336.8751664229068,0.0060249852479167,True
0.0999999999999999,0.5267338370002712,2.4000000000000004,5860.0,84.54263999999999,0.2,68900.0,0.33,276.0,2700.0,20.152833211805145,1.0055472654878643,2714.977616817234,11.429480250779214,2.7040688860179025,8.723352961025931,1.6985216205300382,4304,104,1408,2186,448.46719259457046,258.6278066765563,0.0044109149333726,True
0.11,0.4906759617965933,2.4000000000000004,5861.0,84.54263999999999,0.2,68900.0,0.33,276.0,2700.0,17.98623866630611,0.9864554867655488,2663.4298142669813,10.42473501010813,2.3101587908764154,7.561503656197981,1.3237033041108668,3738,94,1228,1890,391.7186362165858,226.0915923927464,0.0036984385062315,True
0.12,0.5084798139393885,2.4000000000000004,5862.0,84.54263999999999,0.1,68900.0,0.33,276.0,2700.0,18.67136278159966,1.116662652159046,3014.9891608294247,10.916751701636272,2.500127308298901,7.754611079963389,1.383464656139855,15284,192,5036,7724,356.86737560443675,206.02453137940927,0.003565971152489,True
0.13,0.6115371698183811,2.4000000000000004,5863.0,84.54263999999999,0.3,68900.0,0.33,276.0,2700.0,24.096580681670755,1.5616763582686408,4216.52616732533,13.921305770715286,3.777707144981653,10.17527491095547,2.2160307867130125,2464,78,810,1243,419.887528865115,242.41730078075048,0.0041856157535158,True
0.14,0.4928158554597288,2.4000000000000004,5864.0,84.54263999999999,0.1,68900.0,0.33,276.0,2700.0,17.36803798248054,1.2100156386126493,3267.042224254153,10.483450626633298,2.332529417329906,6.884587355847243,1.1225137787172563,14239,184,4712,7165,303.33966876073623,174.77012916217564,0.0029851952480484,True
0.15,0.5139630721083484,2.4000000000000004,5865.0,84.54263999999999,0.2,68900.0,0.33,276.0,2700.0,18.222978215292446,1.359654782676339,3671.0679132261153,11.06988836045834,2.560406174880935,7.153089854834107,1.200751392204596,3910,98,1290,1969,300.26918714662963,173.3388542455414,0.0029540622453544,True
0.16,0.4975380543129426,2.4000000000000004,5866.0,84.54263999999999,0.1,68900.0,0.33,276.0,2700.0,17.135093104367304,1.362228806009984,3678.017776226957,10.613428200937326,2.382341025290492,6.521664903429977,1.020112219280508,14338,184,4686,7255,278.7415902334754,160.93153196645054,0.0026873943428788,True
0.17,0.8349958760632135,2.4000000000000004,5867.0,84.54263999999999,0.3,68900.0,0.33,276.0,2700.0,36.937938259048046,3.129434988881024,8449.474469978764,21.352942375623385,7.695506516661083,15.584995883424664,4.566071527780059,3593,98,1174,1826,422.26023998536994,243.64892429363425,0.0049575341148293,True
0.18,0.7424511231576032,2.4000000000000004,5868.0,84.54263999999999,0.3,68900.0,0.33,276.0,2700.0,30.579856139214105,2.7399725402921136,7397.925858788707,18.122905767801445,5.870525233226527,12.45695037141266,3.130552692934413,2911,86,956,1471,364.9930705309882,210.6646453348182,0.0039963835677322,True
0.19,0.8869135088152139,2.4000000000000004,5869.0,84.54263999999999,0.3,68900.0,0.33,276.0,2700.0,39.87179248604984,3.77345483016742,10188.328041452034,23.259243435856884,8.853292964748844,16.612549050192957,5.079838134581424,3781,102,1240,1915,402.8822330936192,232.3545936417679,0.0048557596594299,True
0.2,0.7950591715513589,2.4000000000000004,5870.0,84.54263999999999,0.3,68900.0,0.33,276.0,2700.0,33.355627718153514,3.318807610996206,8960.780549689756,19.932652562524623,6.871234619817887,13.42297515562889,3.552427008821681,3337,94,1096,1687,346.78403234845507,200.06504320143432,0.0039800011974689,True
0.21,0.5253224044471784,2.4000000000000004,5871.0,84.54263999999999,0.08,68900.0,0.33,276.0,2700.0,17.39393814786553,1.8069673124826164,4878.811743703064,11.3895364648204,2.6879651403958835,6.0044016830451294,0.8809978279132671,31511,230,7468,18107,233.9892667008168,134.9212178544654,0.0022860214965593,False
0.22,0.6158848884753976,2.4000000000000004,5872.0,84.54263999999999,0.3,68900.0,0.33,276.0,2700.0,21.993194042436365,2.3969502256177178,6471.765609167838,14.053928081606427,3.838521195934135,7.939265960829937,1.4415709703164177,2229,74,734,1122,254.1286942566103,146.576887328564,0.0026230700698248,False
0.23,0.663832971832155,2.4000000000000004,5873.0,84.54263999999999,0.3,68900.0,0.33,276.0,2700.0,24.45521774606449,2.786867535586599,7524.542346083817,15.548040879581109,4.547969160985105,8.907176866483388,1.7611016253985063,2447,78,798,1244,257.4271222394527,148.49223566059686,0.0027673340614079,False
0.24,0.8679786054104957,2.4000000000000004,5874.0,84.54263999999999,0.3,68900.0,0.33,276.0,2700.0,36.98147960870604,4.408824635149246,11903.826514902965,22.556147500948697,8.419552182137204,14.425332107757342,4.010727546987958,3634,100,1188,1846,314.0831743333736,181.32606084434389,0.0037877217930863,True
0.25,0.8371023877416737,2.4000000000000004,5875.0,84.54263999999999,0.3,68900.0,0.33,276.0,2700.0,34.613758119276454,4.293994841434574,11593.78607187335,21.428970281725167,7.74056679640458,13.184787837551289,3.446571954970006,3477,96,1142,1758,296.1187992407748,170.9583813114927,0.003478206574049,True
0.26,0.8122186621769247,2.4000000000000004,5876.0,84.54263999999999,0.3,68900.0,0.33,276.0,2700.0,32.69731174817811,4.213839438943325,11377.366485146978,20.53799295265531,7.218451868883945,12.1593187955228,3.00461242994062,3181,92,1054,1594,275.8954448937855,159.2839442943115,0.0032221631814584,False
0.27,0.9458105321872085,2.4000000000000004,5877.0,84.54263999999999,0.3,68900.0,0.33,276.0,2700.0,41.43412264056301,5.552382577675599,14991.432959724116,25.503828684090056,10.288864967498649,15.930293956472948,4.73648238982305,3857,104,1268,1949,309.1734772398996,178.3950113763569,0.0038306440672681,True
0.28,0.6502542821874897,2.4000000000000004,5878.0,84.54263999999999,0.1,68900.0,0.33,276.0,2700.0,22.42505457340319,3.0935314789887127,8352.534993269524,15.11904998682284,4.339764950027222,7.30600458658035,1.2462334710385092,27162,212,6036,15952,404.1255275757769,221.7036223530476,0.0023080285292412,True
0.29,0.6025765844519937,2.4000000000000004,5879.0,84.54263999999999,0.1,68900.0,0.33,276.0,2700.0,19.590801688919434,2.7895860427410515,7531.882315400839,13.649471645314362,3.654183499496799,5.941330043605072,0.8645974567557473,25122,194,5272,14996,204.9551907158604,118.32011753256504,0.0020601770906189,False
0.3,0.6284484759500404,2.4000000000000004,5880.0,84.54263999999999,0.1,68900.0,0.33,276.0,2700.0,20.74836255138605,3.0557057149432927,8250.405430346891,14.439836246876734,4.017508992885117,6.308526304509321,0.961803277941824,28477,202,5616,17291,206.3549303388419,119.03364157088586,0.0021060211928158,False
0.31,0.8137533448153811,2.4000000000000004,5881.0,84.54263999999999,0.3,68900.0,0.33,276.0,2700.0,31.377850007788695,4.801172626711854,12963.166092122006,20.592492927228797,7.250012982609049,10.785357080559905,2.448840355897195,3089,90,1024,1547,238.77722773267087,137.59768973126967,0.0027594340791013,False
0.32,0.9976781167543404,2.4000000000000004,5882.0,84.54263999999999,0.3,68900.0,0.33,276.0,2700.0,43.5429358017227,6.89824058956041,18625.249591813103,27.55271463343382,11.664530096451742,15.99022116828888,4.766289506891332,4074,108,1344,2052,278.10443945493864,160.31333562490502,0.0035237421464469,True
0.33,0.8010963095885703,2.4000000000000004,5883.0,84.54263999999999,0.3,68900.0,0.33,276.0,2700.0,30.037624050128397,4.88094169147648,13178.542566986494,20.14478265770363,6.99221066327697,9.892841392424764,2.1112689718004907,2893,86,958,1450,223.12433801297044,128.6967474279599,0.0025648054936516,False
0.34,1.0028073417786127,2.4000000000000004,5884.0,84.54263999999999,0.3,68900.0,0.33,276.0,2700.0,43.27448070929256,7.27434361547527,19640.72776178323,27.75900430040632,11.806382940270083,15.515476408886231,4.532039324794813,3933,106,1296,1983,263.44369225632664,151.87792789711222,0.0033617185026203,False
0.3500000000000001,0.7730005600396177,2.4000000000000004,5885.0,84.54263999999999,0.3,68900.0,0.33,276.0,2700.0,27.79254782471284,4.773898679309636,12889.526434136018,19.165355574140108,6.44003321346865,8.627192250572733,1.6661345341590144,2804,84,928,1406,204.4740559036532,117.93216680493018,0.0023278189085927,False
0.36,0.6882430031196359,2.4000000000000004,5886.0,84.54263999999999,0.2,68900.0,0.33,276.0,2700.0,22.634610938690745,3.976513871067077,10736.587451881109,16.330878700215205,4.937021410796762,6.30373223847554,0.9605075397296844,5614,108,1558,3037,195.4801320552523,112.7614694623912,0.0020139865600984,False
0.37,0.8489942569135105,2.4000000000000004,5887.0,84.54263999999999,0.3,68900.0,0.33,276.0,2700.0,31.96649646692896,5.807714451260332,15680.829018402896,21.86026173957925,7.997958216117796,10.106234727349705,2.190243764857464,3143,90,1042,1574,210.97756769562363,121.53013154502868,0.0024983546735463,False
0.38,0.9011913660608152,2.4000000000000004,5888.0,84.54263999999999,0.3,68900.0,0.33,276.0,2700.0,35.06828682353332,6.54805084841281,17679.737290714587,23.79537173962853,9.189206407821226,11.272915083904792,2.641155559408416,3064,92,1014,1537,214.3305233867568,123.36652454731428,0.0026412596076086,False
0.39,0.7739121397411339,2.4000000000000004,5889.0,84.54263999999999,0.1,68900.0,0.33,276.0,2700.0,26.838219724348946,5.1092154231685365,13794.881642555049,19.196822141378107,6.457518303138396,7.641397582970839,1.348302879969859,42510,236,7408,26478,199.37962247786757,115.07447973636016,0.0021820519304156,False
0.4,1.0279689326320476,2.4000000000000004,5890.0,84.54263999999999,0.3,68900.0,0.33,276.0,2700.0,43.20557663282156,8.507074040011146,22969.099908030094,28.780543049708857,12.517662055401376,14.425033583112704,4.01058801539023,4187,108,1386,2102,232.9313119945081,134.14513405521924,0.0030133173262016,False
0.4100000000000001,0.9195724340933484,2.4000000000000004,5891.0,84.54263999999999,0.3,68900.0,0.33,276.0,2700.0,35.4403239279577,7.120918600379289,19226.48022102408,24.493117770536127,9.632990406447188,10.947206157421572,2.512071806067897,3213,94,1070,1602,205.64906348567877,118.02538259445798,0.002545237269101,False
0.42,1.0966190291908144,2.4000000000000004,5892.0,84.54263999999999,0.3,68900.0,0.33,276.0,2700.0,47.6048334071176,9.841845471148586,26572.982772101182,31.648607090490454,14.591217937912887,15.956226316627143,4.749372466764301,4372,112,1448,2194,237.43249979302385,136.52070733022393,0.0031517208721998,False
0.43,0.9252612027752856,2.4000000000000004,5893.0,84.54263999999999,0.3,68900.0,0.33,276.0,2700.0,35.26147268170105,7.414697555159751,20019.683398931327,24.71078432739733,9.772944829510038,10.550688354303716,2.358247274350287,3220,94,1074,1603,196.5853726363524,113.0858848131311,0.00246203200519,False
0.44,0.8499738195476872,2.4000000000000004,5894.0,84.54263999999999,0.3,68900.0,0.33,276.0,2700.0,30.190343408413984,6.46346659744882,17451.359813111812,21.89594672366087,8.019389187561123,8.294396684753114,1.5559225901123028,3042,86,970,1549,180.04928639137174,103.59097008555509,0.002174063780243,False
0.45,0.9250679572306874,2.4000000000000004,5895.0,84.54263999999999,0.3,68900.0,0.33,276.0,2700.0,34.70333164884998,7.617397867285666,20566.974241671294,24.703376922911144,9.768170296274311,9.99995472593884,2.1507724289886454,3146,92,1046,1567,191.78093714412083,110.06404932080136,0.002368908272912,False
0.46,0.8224611784599618,2.4000000000000004,5896.0,84.54263999999999,0.1,68900.0,0.33,276.0,2700.0,28.01957992571813,6.24064334122863,16849.7370213173,20.90284815427022,7.430678863296172,7.11673177144791,1.190035522067542,48317,236,7414,30968,187.3029827509316,108.04587171443494,0.0020588504008463,False
0.4700000000000001,1.0515768432867387,2.4000000000000004,5897.0,84.54263999999999,0.3,68900.0,0.33,276.0,2700.0,42.773788105432416,9.83439382206085,26552.86331956429,29.75347197245248,13.208567396895273,13.020316132979936,3.3741735748344226,4360,108,1360,2254,205.78564125278675,117.76838276633164,0.00270644468086,False
0.4800000000000001,0.9158277065685052,2.4000000000000004,5898.0,84.54263999999999,0.3,68900.0,0.33,276.0,2700.0,33.30933519501454,7.762617103639626,20959.06617982699,24.350279021894977,9.541537910240864,8.959056173119563,1.7789208066012376,3411,92,1046,1772,186.5929951870444,106.97056821675056,0.0022348355187294,False
0.49,0.8033232191302386,2.4000000000000004,5899.0,84.54263999999999,0.2,68900.0,0.33,276.0,2700.0,26.181723539048257,6.168118777665363,16653.92069969648,20.223262012300115,7.037158632074536,5.958461526748142,0.8690398544091726,7283,116,1820,4089,172.4578202353871,99.54191547640688,0.0019037047114184,False
0.5,1.0757853937413464,2.4000000000000004,5900.0,84.54263999999999,0.3,68900.0,0.33,276.0,2700.0,43.6144540733284,10.641814130532952,28732.89815243897,30.765700873811085,13.941078407291664,12.848753199517311,3.2992642767587093,4824,108,1396,2570,216.12079783304844,124.39699882123811,0.0026631563766909,False
0.0699999999999999,0.5219637261573757,2.4000000000000004,5907.0,87.56201999999999,0.2,68900.0,0.33,276.0,2700.0,20.67708676838016,0.7229796593731923,1952.0450803076192,11.29468661609818,2.649870715957541,9.38240015228198,1.926891056584349,4548,106,1490,2307,650.8883305249243,373.3491962114378,0.0062834300389911,True
0.08,0.4127678857837626,2.4000000000000004,5908.0,87.56201999999999,0.1,68900.0,0.33,276.0,2700.0,14.774969553356827,0.5899264518417991,1592.8014199728575,8.365417718638797,1.5791968568898511,6.40955183471803,0.9892704050480522,12151,168,3986,6166,442.3961943623678,255.1588282595785,0.0041528130805879,True
0.09,0.6015656302943189,2.4000000000000004,5909.0,87.56201999999999,0.2,68900.0,0.33,276.0,2700.0,24.62176890383954,1.1064527866431346,2987.422523936464,13.61892936342952,3.640399949974311,11.002839540410022,2.5339471633311765,5226,116,1708,2658,584.4153977214975,337.1035585899123,0.0059799338783806,True
0.0999999999999999,0.4622292055270803,2.4000000000000004,5910.0,87.56201999999999,0.1,68900.0,0.33,276.0,2700.0,16.766251843948055,0.8362181970950088,2257.789132156524,9.65513065630719,2.024603480798933,7.111121187640865,1.1883852837039246,14046,182,4630,7095,399.4697625688236,230.46239523923583,0.0038819312028123,True
0.11,0.6116538918368188,2.4000000000000004,5911.0,87.56201999999999,0.1,68900.0,0.33,276.0,2700.0,24.65203295470145,1.3530741726272928,3653.3002660936895,13.924860039860588,3.779332275317904,10.727172914840867,2.426258102690611,20261,226,6678,10238,486.81386520095634,280.39727008105586,0.0050679310294166,True
0.12,0.5208409869325765,2.4000000000000004,5912.0,87.56201999999999,0.1,68900.0,0.33,276.0,2700.0,19.326665816771403,1.1559808342693498,3121.1482525272445,11.263043428949382,2.6372074947496253,8.06362238782202,1.4812266604802755,16142,198,5330,8141,378.4838066507907,218.1773427182476,0.0038064407359931,True
0.13,0.7082704482371496,2.4000000000000004,5913.0,87.56201999999999,0.3,68900.0,0.33,276.0,2700.0,29.906615134730277,1.939328597717512,5236.187213837282,16.98434920680084,5.270614035806754,12.922265927929434,3.3312854380892425,2979,88,976,1509,493.5424195350754,284.94475774200674,0.0052691637398995,True
0.14,0.6802468903655222,2.4000000000000004,5914.0,87.56201999999999,0.2,68900.0,0.33,276.0,2700.0,27.88722773124904,1.946358921026464,5255.169086771452,16.072791399913758,4.807470781680792,11.81443633133528,2.861111860654328,5859,124,1920,2973,423.40098922032223,244.440297637173,0.0046588796686338,True
0.15,0.5635183708345928,2.4000000000000004,5915.0,87.56201999999999,0.2,68900.0,0.33,276.0,2700.0,20.872672315680653,1.558381840205403,4207.630968554588,12.488144948107228,3.1438639879049104,8.384527367573424,1.5854821476995071,4490,104,1476,2270,337.2209022923762,194.4974013406745,0.0034265735253965,True
0.16,0.6607543594859565,2.4000000000000004,5916.0,87.56201999999999,0.3,68900.0,0.33,276.0,2700.0,26.152649417725332,2.0836333110786223,5625.80993991228,15.450372210593994,4.500253173470715,10.702277207131342,2.4166198623920927,2531,80,830,1280,383.6477674430109,221.4908947528833,0.0039621393383949,True
0.17,0.8330284278703413,2.4000000000000004,5917.0,87.56201999999999,0.3,68900.0,0.33,276.0,2700.0,36.80452806297177,3.11809512221454,8418.856829979259,21.28203425144869,7.6535654787523315,15.52249381152308,4.535470356537791,3575,98,1172,1811,437.82921554057606,252.60184095469455,0.0051178054037616,True
0.18,0.6331754901751447,2.4000000000000004,5918.0,87.56201999999999,0.3,68900.0,0.33,276.0,2700.0,24.000516296519898,2.147831954449634,5799.146277014012,14.586060187882612,4.086111684339445,9.414456108637284,1.9382797298898116,2547,78,828,1299,331.13283243382017,191.0997762554321,0.0033643401672908,True
0.19,0.7732146758490879,2.4000000000000004,5919.0,87.56201999999999,0.3,68900.0,0.33,276.0,2700.0,32.24173205390856,3.0485990891139982,8231.217540607795,19.172744701826478,6.444137610135159,13.068987352082084,3.3955385210211606,3370,94,1102,1711,366.1719594037269,211.31621323686036,0.0041610676034018,True
0.2,0.6899387093169655,2.4000000000000004,5920.0,87.56201999999999,0.3,68900.0,0.33,276.0,2700.0,26.79034935950305,2.66227977513116,7188.155392854132,16.385816845681365,4.964760352281432,10.404532513821684,2.302480577150272,2677,82,884,1345,320.62010284195134,185.0850307664026,0.0034181214957767,True
0.21,0.7501901049243713,2.4000000000000004,5921.0,87.56201999999999,0.3,68900.0,0.33,276.0,2700.0,30.1975766271441,3.151349352806867,8508.64325257854,18.384767585772664,6.011790371685742,11.812809041371438,2.860441018878875,2932,86,964,1480,324.9979624257923,187.53168294459613,0.0036435756036911,True
0.22,0.8536795563985478,2.4000000000000004,5922.0,87.56201999999999,0.3,68900.0,0.33,276.0,2700.0,36.63284902038641,4.007312273192224,10819.743137619003,22.031163074574422,8.100780235745056,14.601685945811983,4.093467962552832,3599,98,1178,1826,349.6371091404222,201.86197287668776,0.0041614042019049,True
0.23,0.8587839376998039,2.4000000000000004,5923.0,87.56201999999999,0.3,68900.0,0.33,276.0,2700.0,36.66817361437735,4.191357460442576,11316.665143194954,22.21797881414317,8.213712203431522,14.45019480023418,4.022354742988946,3577,98,1170,1816,338.6208935319571,195.49918728211532,0.0040267217872149,True
0.24,0.9069389720489884,2.4000000000000004,5924.0,87.56201999999999,0.3,68900.0,0.33,276.0,2700.0,39.659458425422685,4.730182093154594,12771.491651517405,24.01263860685468,9.326596813429576,15.646819818568009,4.59641472027498,3552,100,1162,1803,340.3082782760206,196.45222192965755,0.0041711648118315,True
0.25,0.8312275756777652,2.4000000000000004,5925.0,87.56201999999999,0.3,68900.0,0.33,276.0,2700.0,34.22716135620577,4.245670246050826,11463.309664337232,21.217215633768557,7.615298057314883,13.009945722437216,3.3696278112640563,3492,96,1146,1767,304.2694813761125,175.667865069222,0.0035684016077879,True
0.26,0.8602315503168219,2.4000000000000004,5926.0,87.56201999999999,0.3,68900.0,0.33,276.0,2700.0,35.849743645971074,4.623655585656508,12483.870081272573,22.27107931567624,8.245913658012718,13.578664330294838,3.6222580723562094,3489,98,1148,1761,303.29223941386493,175.0797107316887,0.0036049162014393,True
0.27,0.6437609718289858,2.4000000000000004,5927.0,87.56201999999999,0.1,68900.0,0.33,276.0,2700.0,22.307215230850225,2.970250077364376,8019.675208883815,14.915544965004935,4.242253550169355,7.391670265845288,1.2720034728049794,26088,212,6086,15071,233.8086963036248,134.94689958363725,0.0024377602841925,False
0.28,0.731713637786551,2.4000000000000004,5928.0,87.56201999999999,0.3,68900.0,0.33,276.0,2700.0,27.13786637121272,3.753325130682042,10133.977852841514,17.762077452417717,5.67787058482693,9.375788918795005,1.9245454541448883,2742,82,904,1380,245.1646579845645,141.41076508916666,0.0027283502483542,False
0.29,0.9177654053224776,2.4000000000000004,5929.0,87.56201999999999,0.3,68900.0,0.33,276.0,2700.0,38.84289932880856,5.581140200524971,15069.078541417422,24.42414653086172,9.588792966812887,14.418752797946844,4.007652766287916,3748,102,1232,1894,289.833696674809,167.24811695563457,0.0035699105440835,True
0.3,0.7045678669860076,2.4000000000000004,5930.0,87.56201999999999,0.3,68900.0,0.33,276.0,2700.0,25.02032145873865,3.696499551046184,9980.548787824697,16.86277904416222,5.207953270882828,8.15754241457643,1.511453719836644,2442,78,806,1227,219.40825763665316,126.51132613743896,0.0024587598424956,False
0.31,0.797512056633949,2.4000000000000004,5931.0,87.56201999999999,0.3,68900.0,0.33,276.0,2700.0,30.35686325327168,4.6429196797617145,12535.88313535663,20.018730395542107,6.920232664551851,10.338132857729567,2.2773129847901368,3008,88,992,1514,237.6667749793056,137.0747012596965,0.0027813059189581,False
0.32,0.9877419528602976,2.4000000000000004,5932.0,87.56201999999999,0.3,68900.0,0.33,276.0,2700.0,42.827374402651806,6.78375076570907,18316.127067414487,27.15497824814556,11.392739849624764,15.672396154506249,4.608989083915694,4051,106,1336,2041,282.4997269597142,162.8764782883608,0.0036038956871313,True
0.33,0.9710937953530449,2.4000000000000004,5933.0,87.56201999999999,0.3,68900.0,0.33,276.0,2700.0,41.326388722489256,6.743587862416021,18207.687228523257,26.494127959060524,10.946170128499226,14.832260763428732,4.202582266083205,3979,106,1314,2002,272.3974403960966,157.11213778072892,0.0034225243496016,False
0.34,0.8198647850408056,2.4000000000000004,5934.0,87.56201999999999,0.3,68900.0,0.33,276.0,2700.0,30.939962202098613,5.177475469252301,13979.183766981214,20.810110897313407,7.376527273766753,10.129851304785204,2.199051804514452,3139,90,1042,1570,227.14190751891127,131.0417625971113,0.0026612501109787,False
0.3500000000000001,0.7690864345296538,2.4000000000000004,5935.0,87.56201999999999,0.2,68900.0,0.33,276.0,2700.0,27.55723175986173,4.732718367960692,12778.339593493867,19.03048231858829,6.365281687325717,8.526749441273438,1.6325633193650244,6957,124,1984,3733,227.3749727303177,131.16912503345532,0.0024323821445236,False
0.36,0.8673521387025624,2.4000000000000004,5936.0,87.56201999999999,0.3,68900.0,0.33,276.0,2700.0,33.41839098907066,5.917594280135459,15977.50455636574,22.53303936554008,8.405428745422325,10.885351623530578,2.4878344652868662,3082,92,1022,1543,229.824860923632,132.64299841114843,0.002727346883488,False
0.37,0.7492449464337765,2.4000000000000004,5937.0,87.56201999999999,0.08,68900.0,0.33,276.0,2700.0,25.87896487015322,4.681521105856761,12640.106985813254,18.35270582370574,5.994429005996175,7.526259046447478,1.3129079001394135,70403,284,10556,45341,247.87489872205697,138.62566168587722,0.0022690547477002,False
0.38,0.8344597000481093,2.4000000000000004,5938.0,87.56201999999999,0.3,68900.0,0.33,276.0,2700.0,30.782077420910465,5.733671061914468,15480.911867169065,21.333608596521973,7.684062764584525,9.448468824388492,1.950391702670057,3040,88,1008,1522,208.86009932285367,120.25421054831808,0.0024871221838769,False
0.39,1.0290802495459643,2.4000000000000004,5939.0,87.56201999999999,0.3,68900.0,0.33,276.0,2700.0,43.59553347045612,8.376891603660079,22617.60732988221,28.8260284587737,12.549671631161871,14.76950501168242,4.172780027501794,4174,108,1380,2098,244.8557643314978,140.95924360910357,0.0031966344279823,False
0.4,0.930757547919392,2.4000000000000004,5940.0,87.56201999999999,0.3,68900.0,0.33,276.0,2700.0,36.46548760993696,7.159056235434226,19329.45183567241,24.92186082297284,9.909343555829947,11.543626786964117,2.7502873203957225,3381,96,1122,1692,221.53439691191684,127.53087771830036,0.0027333885504875,False
0.4100000000000001,0.9670240800259048,2.4000000000000004,5941.0,87.56201999999999,0.3,68900.0,0.33,276.0,2700.0,38.63240599904905,7.775295424953017,20993.297647373143,26.333639743392247,10.838673281713286,12.2987662556568,3.063377856760269,3536,100,1180,1760,222.905223691122,128.0695145887016,0.0028170569385432,False
0.42,0.9950772103880854,2.4000000000000004,5942.0,87.56201999999999,0.3,68900.0,0.33,276.0,2700.0,40.276194948244544,8.302831394785157,22417.64476591992,27.44836276732283,11.593003807120477,12.827832180921714,3.29017241233532,3804,104,1262,1903,223.90659571769552,128.91185181326594,0.0028631116432437,False
0.43,0.9242153219912824,2.4000000000000004,5943.0,87.56201999999999,0.3,68900.0,0.33,276.0,2700.0,35.19261751180993,7.3998936936331585,19979.712972809528,24.67070528446518,9.747121256370889,10.52191222734475,2.3472275627377304,3232,94,1078,1609,205.23809169523255,118.17137979426896,0.0025462804150016,False
0.44,0.8954628906131301,2.4000000000000004,5944.0,87.56201999999999,0.3,68900.0,0.33,276.0,2700.0,33.05472163869548,7.093629808110361,19152.80048189797,23.579654150202284,9.053513465209198,9.4750674884932,1.9598836570988367,3096,90,1022,1551,197.7126403724808,113.5002109690134,0.0024009157584598,False
0.45,0.7883953344320505,2.4000000000000004,5945.0,87.56201999999999,0.05,68900.0,0.33,276.0,2700.0,26.24143954047085,5.71347214290036,15426.374785830973,19.69956539480569,6.739183917017283,6.541874145665158,1.0257117741169228,315759,454,27926,218078,264.39079044967343,150.79336951167784,0.0020702602014144,False
0.46,0.8243226990116758,2.4000000000000004,5946.0,87.56201999999999,0.1,68900.0,0.33,276.0,2700.0,28.131245882278403,6.26632651123749,16919.081580341222,20.969441708843533,7.469651913849715,7.16180417343487,1.2033254026122249,48570,236,7458,31125,193.048426854881,111.36512985133344,0.0021394276858965,False
0.4700000000000001,0.816623010486075,2.4000000000000004,5947.0,87.56201999999999,0.2,68900.0,0.33,276.0,2700.0,27.43132994065971,6.228916153339261,16818.073614016004,20.694559928154582,7.309252952226666,6.736770012505126,1.080336798887405,7394,118,1840,4156,185.0426119030514,106.74561823460698,0.0020683432471174,False
0.4800000000000001,1.176235984841318,2.4000000000000004,5948.0,87.56201999999999,0.3,68900.0,0.33,276.0,2700.0,51.713656167959904,12.1796541371465,32885.066170295555,35.12318523756286,17.24824435135801,16.590470930397046,5.068590214211509,5078,118,1634,2579,233.80280858871023,134.1030142758748,0.0031938608894461,False
0.49,0.8549158981489795,2.4000000000000004,5949.0,87.56201999999999,0.2,68900.0,0.33,276.0,2700.0,29.252537382307043,6.920468169263768,18685.264057012173,22.076351969442733,8.128046212965454,7.17618541286431,1.2075780437016863,7867,122,1952,4431,185.7111044641272,107.07182225583271,0.002112935867762,False
0.5,0.9792619883025068,2.4000000000000004,5950.0,87.56201999999999,0.3,68900.0,0.33,276.0,2700.0,36.93099076910195,8.97094830447634,24221.56042208612,26.817494778845607,11.163898797588685,10.113495990256348,2.1929504931123454,4033,98,1176,2145,205.64986390862975,118.57783280659872,0.0024392333877905,False
0.05,0.429115752422082,2.4000000000000004,5955.0,90.5814,0.1,68900.0,0.33,276.0,2700.0,16.30796836482817,0.4074374097329046,1100.0810062788423,8.784888716646682,1.7193731676571222,7.523079648181488,1.3119357579242177,13259,176,4350,6728,822.4939758312914,470.0986027115539,0.0069507302231731,True
0.0699999999999999,0.6709378442758338,2.4000000000000004,5957.0,90.5814,0.2,68900.0,0.33,276.0,2700.0,29.374327487606973,1.027383084546129,2773.934328274548,15.77435145432725,4.659239210915376,13.599976033279722,3.631856126369248,6204,128,2040,3138,900.0438936649479,515.0513571140864,0.0089856286528893,True
0.08,0.4470169325587078,2.4000000000000004,5958.0,90.5814,0.1,68900.0,0.33,276.0,2700.0,16.47911374216912,0.6580922193943388,1776.8489923647148,9.251920710241988,1.8808012405355692,7.227193031927131,1.2227090211412306,14206,182,4666,7201,496.51014708792206,285.8870926649836,0.0047326980017451,True
0.09,0.7707509891640378,2.4000000000000004,5959.0,90.5814,0.3,68900.0,0.33,276.0,2700.0,35.17680715606248,1.581429507993165,4269.859671581546,19.08779262252821,6.397006653270241,16.089014533534268,4.815577145277076,3607,98,1184,1825,773.9747811668883,443.5973607525629,0.0085893292814998,True
0.0999999999999999,0.6410949368162933,2.4000000000000004,5960.0,90.5814,0.1,68900.0,0.33,276.0,2700.0,26.67104465355308,1.3314578375752593,3594.9361614532,14.832296368068564,4.202599196584078,11.838748285484517,2.871141359008819,22084,238,7266,11179,596.4154264305795,342.48009358564593,0.0060896449570135,True
0.11,0.6617849039134531,2.4000000000000004,5961.0,90.5814,0.3,68900.0,0.33,276.0,2700.0,27.62979981535828,1.5168513499634435,4095.4986449012977,15.48303960666214,4.516192298764675,12.146760208696143,2.999340948801232,2607,82,858,1314,578.1093810405998,333.7700260895491,0.0058187272498028,True
0.12,0.6608049881199969,2.4000000000000004,5962.0,90.5814,0.3,68900.0,0.33,276.0,2700.0,27.282410421072157,1.6333255105273912,4409.978878423956,15.45197647249052,4.501035445321688,11.830433948581634,2.8677099347942967,2671,82,880,1345,540.6885887166577,311.7901424797471,0.005489384225266,True
0.13,0.4571893075145314,2.4000000000000004,5963.0,90.5814,0.2,68900.0,0.33,276.0,2700.0,15.800065263023026,1.022402856056539,2760.4877113526554,9.52090104402967,1.9762811268880769,6.279164218993355,0.953878270831538,3379,90,1108,1711,333.125876432504,192.3218224274265,0.0031272662214803,True
0.14,0.442800132838394,2.4000000000000004,5964.0,90.5814,0.2,68900.0,0.33,276.0,2700.0,14.859484398395834,1.034416887726741,2792.925596862201,9.141181579610231,1.8420213832788064,5.718302818785602,0.8076044955520656,3119,86,1018,1586,302.01049987168494,174.11707805410347,0.0028149020856905,True
0.16,0.8500402108453822,2.4000000000000004,5966.0,90.5814,0.3,68900.0,0.33,276.0,2700.0,38.2874738223782,3.05441926345086,8246.932011317322,21.898366198558364,8.020842968193795,16.38910762381984,4.966423704742935,3715,100,1222,1876,488.9490839423703,282.12978883529604,0.005756671257195,True
0.17,0.4920424020364677,2.4000000000000004,5967.0,90.5814,0.08,68900.0,0.33,276.0,2700.0,16.621774646798446,1.4025610818398104,3786.914920967488,10.46221489162123,2.324429169949839,6.1595597551772165,0.9218680881100284,28830,224,7114,16311,282.4537143416148,163.04526686766363,0.0027094865631146,True
0.18,0.7006385870431889,2.4000000000000004,5968.0,90.5814,0.3,68900.0,0.33,276.0,2700.0,27.991484695385363,2.507019110347527,6768.951597938322,16.734142317361872,5.141947543316369,11.257342378023491,2.634928432968842,2609,82,860,1313,375.07494119444647,216.53195417738976,0.0039745913351981,True
0.19,0.6698473548141215,2.4000000000000004,5969.0,90.5814,0.3,68900.0,0.33,276.0,2700.0,25.868912070658848,2.443181190705276,6596.589214904244,15.73953381774924,4.64205643373792,10.129378252909609,2.198875243032644,2739,82,902,1380,341.92389095501443,197.39926947097084,0.0035681076254966,True
0.2,0.8305260008892199,2.4000000000000004,5970.0,90.5814,0.3,68900.0,0.33,276.0,2700.0,35.69601826874295,3.552846666055153,9592.685998348914,21.191985702214502,7.600421444808286,14.504032566528444,4.047574778753133,3628,98,1188,1840,385.5419898447458,222.5915136774136,0.004529940928983,True
0.21,0.7159823018739215,2.4000000000000004,5971.0,90.5814,0.3,68900.0,0.33,276.0,2700.0,28.085917125593216,2.9296251051439834,7909.987783888755,17.238665569479842,5.402574515705549,10.847251556113374,2.472949410561565,2609,82,856,1319,326.3467055114143,188.38894640623465,0.0035499768982558,True
0.22,0.6731639693471504,2.4000000000000004,5972.0,90.5814,0.3,68900.0,0.33,276.0,2700.0,25.259672117306103,2.7562628138531986,7441.909597403636,15.845520953951649,4.694434083170334,9.414151163354456,1.9381712693171356,2645,80,872,1331,294.6482480281625,169.91106072482884,0.0031384610311029,True
0.23,0.7975980497483224,2.4000000000000004,5973.0,90.5814,0.3,68900.0,0.33,276.0,2700.0,32.629404578872,3.72689902135946,10062.62735767054,20.02175085118609,6.921954267392231,12.607653727685909,3.195055246032771,3069,90,1014,1542,327.0453778065216,188.64300968947828,0.0037650905305621,True
0.24,0.5691857386670216,2.4000000000000004,5974.0,90.5814,0.3,68900.0,0.33,276.0,2700.0,18.980012798879144,2.248648617970015,6071.35126851904,12.654276039933167,3.2151092806291333,6.325736758945975,0.9664606626591185,1741,64,568,883,230.3967533070916,133.01097310252413,0.002373310800818,False
0.25,0.8446242499567218,2.4000000000000004,5975.0,90.5814,0.3,68900.0,0.33,276.0,2700.0,35.11127292520723,4.35618419217601,11761.697318875227,21.701358311766597,7.90277609956645,13.409914613440638,3.5465919073904404,3508,96,1152,1774,316.72305877197635,182.69856274202536,0.0037752336661827,True
0.26,0.7363698127454312,2.4000000000000004,5976.0,90.5814,0.3,68900.0,0.33,276.0,2700.0,27.953341655527502,3.5971233268989145,9712.232982627069,17.918190270646633,5.760937157955866,10.03515138488087,2.163813831056952,2732,82,898,1379,271.04688764331684,156.36304389456802,0.003035317300213,False
0.27,0.7283823883880904,2.4000000000000004,5977.0,90.5814,0.3,68900.0,0.33,276.0,2700.0,27.20334044013699,3.63122698061808,9804.312847668816,17.650721271894632,5.618886230027646,9.55261916824236,1.9876592494095653,2748,82,904,1386,259.24673942130886,148.9701773732941,0.0028963319015627,False
0.28,0.68211967370447,2.4000000000000004,5978.0,90.5814,0.3,68900.0,0.33,276.0,2700.0,24.228901228815104,3.346070010746378,9034.38902901522,16.133094364009526,4.837628091061236,8.095806864805578,1.4915580803148585,2505,78,828,1257,233.04680841593031,134.4875117996802,0.0025924357503276,False
0.29,0.7442612758037673,2.4000000000000004,5979.0,90.5814,0.3,68900.0,0.33,276.0,2700.0,27.627231332872302,3.954868341114215,10678.14452100838,18.18402054644396,5.903385760175068,9.443210786428342,1.948517419060853,2752,82,908,1384,249.45625707049925,143.97435639813,0.0027967407284207,False
0.3,0.9503123634659318,2.4000000000000004,5980.0,90.5814,0.3,68900.0,0.33,276.0,2700.0,40.799856636264586,6.063429827675072,16371.260534722696,25.678981558686928,10.40407296445575,15.120875077577658,4.340643136780678,3662,102,1208,1844,300.7724571725616,173.52834838479785,0.003756054300576,True
0.31,0.9270095213308932,2.4000000000000004,5981.0,90.5814,0.3,68900.0,0.33,276.0,2700.0,38.866153864407046,5.961859724487633,16097.02125611661,24.77784277296027,9.816205760843328,14.088311091446776,3.854346036355695,3608,100,1188,1820,281.7078114797498,162.52706107801873,0.0035195470501913,True
0.32,0.9714939525369152,2.4000000000000004,5982.0,90.5814,0.3,68900.0,0.33,276.0,2700.0,41.66795314905261,6.598243365133124,17815.257085859434,26.50993053532806,10.956775105755616,15.158022613724548,4.358531740622492,3962,106,1308,1994,288.35539845506923,166.34677182593467,0.0036398520755602,True
0.33,0.7593626411783262,2.4000000000000004,5983.0,90.5814,0.3,68900.0,0.33,276.0,2700.0,27.48836064767286,4.460313230071319,12042.84572119256,18.6970855108437,6.181856076313585,8.79127513682916,1.721542846242266,2625,80,868,1317,228.4945720605369,131.81533456016598,0.0025734945126945,False
0.34,0.878695298794135,2.4000000000000004,5984.0,90.5814,0.3,68900.0,0.33,276.0,2700.0,34.7229777032648,5.82058810445021,15715.587882015569,22.952975901244056,8.663403265217047,11.770001802020747,2.842815160766837,3255,94,1076,1635,251.1513686889236,144.78926789436588,0.003016697432457,False
0.3500000000000001,0.7424194570167272,2.4000000000000004,5985.0,90.5814,0.3,68900.0,0.33,276.0,2700.0,25.974516871260377,4.45574326245546,12030.50680862974,18.12183738138034,5.869951367655304,7.852679489880035,1.414208105199844,2613,80,864,1311,213.14695720761185,122.92209303400804,0.0023741982607872,False
0.36,0.7479859046730103,2.4000000000000004,5986.0,90.5814,0.3,68900.0,0.33,276.0,2700.0,26.05237521064759,4.591711440019306,12397.620888052128,18.310031355492494,5.971349051589848,7.742343855155092,1.3796376115705415,2615,80,862,1314,209.81971260606448,121.0034377468502,0.0023439768986332,False
0.37,0.939933068235706,2.4000000000000004,5987.0,90.5814,0.3,68900.0,0.33,276.0,2700.0,37.9521638489536,6.9150629169348985,18670.669875724227,25.27592062892405,10.139637319706408,12.67624322002954,3.224574402771509,3378,96,1120,1692,245.4514636801708,141.45013765528122,0.0030679680462587,False
0.38,0.8894406002511437,2.4000000000000004,5988.0,90.5814,0.3,68900.0,0.33,276.0,2700.0,34.29729160955088,6.401561757756146,17284.216745941594,23.353761630933903,8.912190593902091,10.94352997861698,2.510628836145945,3146,92,1044,1574,228.6494660777857,131.82577344568182,0.0027828646634633,False
0.39,0.7932585103192273,2.4000000000000004,5989.0,90.5814,0.3,68900.0,0.33,276.0,2700.0,27.994065051672894,5.334605261997352,14403.43420739285,19.86955913350417,6.835399482268797,8.12450591816873,1.5007942202714455,2768,84,920,1380,205.42064105813463,118.35657012596228,0.0023684650027276,False
0.4,0.9731870507800664,2.4000000000000004,5990.0,90.5814,0.3,68900.0,0.33,276.0,2700.0,39.34889224335463,7.735737162117763,20886.49033771796,26.576837082853785,11.001715652084949,12.772055160500845,3.265978489967185,3567,100,1194,1770,238.0405503742309,137.00575849874537,0.0030008823928533,False
0.4100000000000001,0.7257354820318631,2.4000000000000004,5991.0,90.5814,0.2,68900.0,0.33,276.0,2700.0,23.576346482523093,4.688803224065193,12659.76870497602,17.562439986690244,5.5722832986881015,6.013906495832849,0.8834800746229083,6333,108,1582,3560,194.8815514460071,112.5073089497088,0.0020736638633243,False
0.42,1.1028254730094782,2.4000000000000004,5992.0,90.5814,0.3,68900.0,0.33,276.0,2700.0,48.06958189822933,9.93944265428205,26836.495166561537,31.91373817479978,14.788465499637692,16.15584372342955,4.849022845355641,4509,114,1496,2259,252.561919263712,145.03483979576492,0.0034006258140161,False
0.43,1.0712161219882883,2.4000000000000004,5993.0,90.5814,0.3,68900.0,0.33,276.0,2700.0,45.40959542539431,9.596543945053725,25910.668651645057,30.57351885060635,13.800940825073283,14.836076574787956,4.20439688001956,4214,110,1400,2108,241.60009947031017,138.8367850355371,0.0032031814958021,False
0.44,0.9104516203180298,2.4000000000000004,5994.0,90.5814,0.3,68900.0,0.33,276.0,2700.0,34.021321815932005,7.306281847102776,19726.960987177496,24.145829969125334,9.41117860329656,9.875491846806671,2.1048967561937832,3168,92,1056,1574,203.6289012377768,117.1408692744734,0.0025351027396238,False
0.45,0.8330723258530632,2.4000000000000004,5995.0,90.5814,0.2,68900.0,0.33,276.0,2700.0,28.90425448684904,6.312605505835454,17044.034865755726,21.28361530245373,7.654499751826485,7.620639184395305,1.341894245991031,7945,124,1994,4456,201.54688704448148,116.09565472537686,0.0022701841637803,False
0.46,0.9469334036707928,2.4000000000000004,5996.0,90.5814,0.3,68900.0,0.33,276.0,2700.0,35.86978982813988,8.046191618785693,21724.717370721373,25.547468597550115,10.317526987492515,10.322321230589765,2.271335368706824,3264,94,1070,1643,210.6522621942283,120.61768828046677,0.0025656042203453,False
0.4700000000000001,1.0481613100777725,2.4000000000000004,5997.0,90.5814,0.3,68900.0,0.33,276.0,2700.0,42.53087853698969,9.777310073476809,26398.73719838738,29.61184438584084,13.107185375605502,12.91903415114885,3.329875302128693,4143,106,1304,2129,219.4884016293948,126.15484137856204,0.0028872908807918,False
0.4800000000000001,0.88102457033322,2.4000000000000004,5998.0,90.5814,0.3,68900.0,0.33,276.0,2700.0,31.107848996083938,7.234260415896283,19532.503122919963,23.039608350361856,8.716967847500806,8.068240645722081,1.4827074316045232,3211,88,978,1676,184.9486494336176,106.6448499412025,0.0022824561475783,False
0.49,0.9185250493696384,2.4000000000000004,5999.0,90.5814,0.3,68900.0,0.33,276.0,2700.0,33.2227457266894,7.893169213637444,21311.556876821094,24.45313086429868,9.607357632302117,8.769614862390721,1.7141884186646728,3368,90,1018,1757,207.57239621402215,119.2337968528843,0.0023635528256926,False
0.5,0.8301170342090431,2.4000000000000004,6000.0,90.5814,0.2,68900.0,0.33,276.0,2700.0,27.52478039712529,6.6193957114821735,17872.36842100187,21.17728420865725,7.591757635123065,6.347496188468035,0.9723619236408912,7828,120,1930,4419,186.49611847408693,107.3219044439053,0.0020806608990442,False
0.01,0.4204668955546969,2.800000000000001,6001.0,3.01938,0.05,68900.0,0.33,276.0,2700.0,18.957410443557325,0.0947849578226834,255.91938612124537,9.618878925954563,1.8665224750277003,9.338531517602762,1.7717375172050172,61235,376,20286,30800,695.841262907274,385.704136512635,0.0135169240273065,True
0.02,0.5981439614721034,2.800000000000001,6002.0,3.01938,0.1,68900.0,0.33,276.0,2700.0,29.390601203051,0.2938892568696934,793.5009935481722,15.019046490015652,4.0435719271650585,14.37155471303535,3.749682670295365,24445,246,8094,12298,91.55044878416076,52.18758991392079,0.0009290642004206,False
0.03,0.501532434343151,2.800000000000001,6003.0,3.01938,0.1,68900.0,0.33,276.0,2700.0,23.07397307083793,0.3460530473948051,934.3432279659736,11.984298724896378,2.74104334154801,11.089674345941551,2.3949902941532053,18963,212,6236,9603,54.52608623487109,31.13170649230709,0.0005042830900457,False
0.04,0.5897617995581381,2.800000000000001,6004.0,3.01938,0.1,68900.0,0.33,276.0,2700.0,28.21640360786991,0.5641940308708451,1523.3238833512817,14.746453698543082,3.9188235396145,13.469949909326829,3.354629508743655,23731,240,7784,12049,50.14276891683964,28.59950310640233,0.0004703334386567,False
0.05,0.5905210315661455,2.800000000000001,6005.0,3.01938,0.1,68900.0,0.33,276.0,2700.0,27.951842644160443,0.6985342667162187,1886.0425201337905,14.771071637226544,3.930028863713945,13.1807710069339,3.2314945969977265,23221,238,7616,11791,39.69952670517602,22.660673371632043,0.0003824161989606,False
0.06,0.6824536060255048,2.800000000000001,6006.0,3.01938,0.2,68900.0,0.33,276.0,2700.0,33.67864624041652,1.0099069978703776,2726.7488942500195,17.859049115330837,5.428287069353938,15.819597125085682,4.41838007148356,7040,134,2312,3566,33.520842709395986,19.13751472897695,0.0003886951735443,False
0.0699999999999999,0.5657783592344964,2.800000000000001,6007.0,3.01938,0.2,68900.0,0.33,276.0,2700.0,25.787207098369656,0.9018338709228172,2434.9514514916063,13.976252739623998,3.5744177747458883,11.810954358745658,2.672583903823071,5407,114,1772,2743,25.542330222053803,14.624923072335225,0.0002659910613965,False
0.08,0.4125660998595489,2.800000000000001,6008.0,3.01938,0.1,68900.0,0.33,276.0,2700.0,16.637825397246743,0.6644406855974441,1793.989851113099,9.397173748162,1.7914025344048143,7.240651649084743,1.1269618488073705,13738,176,4504,6976,15.280143912695047,8.819637837857826,0.0001601061340777,False
0.09,0.5816095514314811,2.800000000000001,6009.0,3.01938,0.2,68900.0,0.33,276.0,2700.0,26.168918475635863,1.1760745173739715,3175.4011969097232,14.483031691386936,3.799681665583312,11.685886784248927,2.6236071482093406,5687,116,1864,2885,19.8842450271428,11.424538932405396,0.000218209772124,False
0.0999999999999999,0.4268558577669888,2.800000000000001,6010.0,3.01938,0.1,68900.0,0.33,276.0,2700.0,16.89218130080947,0.8425146699380811,2274.789608832819,9.7993076310991,1.9285529589022696,7.09287366971037,1.0860382889641889,13986,178,4594,7089,12.83882815405174,7.4024062234998835,0.0001359506165663,False
0.11,0.5970389939720183,2.800000000000001,6011.0,3.01938,0.2,68900.0,0.33,276.0,2700.0,26.532279602210664,1.4564877382403003,3932.5168932488114,14.983011255836535,4.026996280618215,11.549268346374127,2.570508542377914,5640,116,1848,2862,16.475393970730618,9.497765606308596,0.0001873246795387,False
0.12,0.752927764797896,2.800000000000001,6012.0,3.01938,0.3,68900.0,0.33,276.0,2700.0,36.53917948638059,2.188731654445898,5909.575467003925,20.370075326968045,6.77463668735029,16.169104159412544,4.585905032904392,3615,96,1190,1824,19.18281003203356,11.074895267795624,0.0002330524346521,False
0.13,0.6867544128448428,2.800000000000001,6013.0,3.01938,0.3,68900.0,0.33,276.0,2700.0,31.698914362881457,2.0558280475473345,5550.735728377803,18.008712437127215,5.505417059480717,13.69020192575424,3.4495890119333823,3082,88,1010,1561,16.23117852303719,9.370033448805112,0.0001917802352829,False
0.14,0.6668532504466598,2.800000000000001,6014.0,3.01938,0.3,68900.0,0.33,276.0,2700.0,30.077064021897133,2.0996474613717586,5669.048145703749,17.320075411805355,5.153891595304906,12.756988610091778,3.054244133933147,2978,86,974,1511,14.802646700243228,8.544956463860185,0.0001723080994841,False
0.15,0.8281840514545131,2.800000000000001,6015.0,3.01938,0.3,68900.0,0.33,276.0,2700.0,40.900241130735566,3.060449501334584,8263.213653603376,23.18930796958579,8.412802743486232,17.710933161149775,5.352353242151649,4181,104,1372,2117,33.80597116111886,18.911715404451208,0.0002147954854166,False
0.16,0.7102355091792356,2.800000000000001,6016.0,3.01938,0.3,68900.0,0.33,276.0,2700.0,32.31885821199984,2.5769300146204257,6957.71103947515,18.83402629203621,5.937943892885701,13.484831919963629,3.3610138782652754,3104,88,1020,1568,13.861278412874563,7.998047671909653,0.0001652249938925,False
0.17,0.8315630216324449,2.800000000000001,6017.0,3.01938,0.3,68900.0,0.33,276.0,2700.0,40.45792218027224,3.428633622185081,9257.31077989972,23.31922908810241,8.491378142554751,17.138693092169827,5.06274452036967,4019,102,1320,2033,14.897931658824533,8.60086140018554,0.000192261474959,False
0.18,0.6747792466153681,2.800000000000001,6018.0,3.01938,0.3,68900.0,0.33,276.0,2700.0,29.37408514817458,2.631453151098553,7104.923507966093,17.593144764796346,5.292251577137328,11.780940383378232,2.6607984260387747,3004,86,984,1522,11.896060758052757,6.838288263110483,0.000138981034766,False
0.19,0.8472599601766901,2.800000000000001,6019.0,3.01938,0.3,68900.0,0.33,276.0,2700.0,40.918213667855824,3.8728648424389935,10456.735074585282,23.926537842643125,8.862176992204109,16.9916758252127,4.989312149765116,4042,102,1320,2056,13.699554069761309,7.909002171480296,0.0001777223653998,False
0.2,0.7446949213078042,2.800000000000001,6020.0,3.01938,0.3,68900.0,0.33,276.0,2700.0,33.38141827298705,3.3213866664795564,8967.743999494802,20.0702960853736,6.608168231804647,13.311122187613446,3.2867815653250902,3349,90,1094,1702,11.626536345825844,6.710630039652411,0.0001430720248561,False
0.21,0.7308608366659506,2.800000000000001,6021.0,3.01938,0.3,68900.0,0.33,276.0,2700.0,32.143065954692595,3.355625732199459,9060.18947693854,19.57039729523412,6.333977423166698,12.572668659458476,2.978351690967239,3091,88,1012,1567,10.947829622697412,6.303088217054214,0.0001335990548621,False
0.22,0.7568214830129736,2.800000000000001,6022.0,3.01938,0.3,68900.0,0.33,276.0,2700.0,33.57804869017358,3.67128423686876,9912.467439545651,20.51244908460968,6.854229078702819,13.065599605563904,3.1829448418340585,3311,90,1084,1679,10.830117510853569,6.249939516514057,0.0001339430996405,False
0.23,0.7152837393422633,2.800000000000001,6023.0,3.01938,0.3,68900.0,0.33,276.0,2700.0,30.51021298400954,3.48319198795019,9404.618367465511,19.01327138765661,6.033474558304119,11.496941596352931,2.5502825703539296,3052,86,998,1549,10.028251444857355,5.7820144402516735,0.0001198923921803,False
0.24,0.6178586750400248,2.800000000000001,6024.0,3.01938,0.1,68900.0,0.33,276.0,2700.0,24.108969202791727,2.864123386439524,7733.1331433867135,15.667141254398627,4.34604057976461,8.4418279483931,1.4819171933250863,26496,214,6522,15005,8.506801557944687,4.910102926088803,9.773412064067902e-05,False
0.25,0.7897870740729933,2.800000000000001,6025.0,3.01938,0.3,68900.0,0.33,276.0,2700.0,34.89099943958744,4.328650006473534,11687.355017478543,21.733104765415742,7.5504788737812,13.157894674171692,3.221828867307666,3531,94,1162,1782,9.97241802686139,5.7575578637396525,0.0001259712255294,False
0.26,0.7800289611858622,2.800000000000001,6026.0,3.01938,0.3,68900.0,0.33,276.0,2700.0,33.91608629488567,4.372280130015398,11805.156351041576,21.36893385670153,7.340183540570714,12.547152438184142,2.967903410555316,3302,92,1088,1664,9.518499775173572,5.487004800010808,0.0001197183571826,False
0.27,0.6667065681748481,2.800000000000001,6027.0,3.01938,0.1,68900.0,0.33,276.0,2700.0,26.27190961908101,3.505483819775521,9464.806313393909,17.315036739973408,5.151351416844021,8.956872879107603,1.6458675970684995,30213,226,7036,17471,8.293652776596838,4.784293594366557,9.68724107851832e-05,False
0.28,0.6102040593398087,2.800000000000001,6028.0,3.01938,0.08,68900.0,0.33,276.0,2700.0,22.59376989569972,3.1171516241102264,8416.309385097611,15.414345960995506,4.227083099105018,7.179423934704213,1.1099314749947915,50953,256,9350,31456,7.560332167336942,4.361505689898734,8.530196000895291e-05,False
0.29,0.9775847626347768,2.800000000000001,6029.0,3.01938,0.3,68900.0,0.33,276.0,2700.0,47.24555877789819,6.799525820642975,18358.71971573603,29.207897545253704,12.319908428326915,18.037661232644485,5.52038260768394,4551,112,1504,2289,10.487214752963434,6.053827979733756,0.000145781126459,False
0.3,0.8676945487305925,2.800000000000001,6030.0,3.01938,0.3,68900.0,0.33,276.0,2700.0,38.76368031145319,5.758003378953356,15546.60912317406,24.726422690918188,9.359260736113752,14.037257620535003,3.601257357160396,3684,98,1218,1851,9.39953622031366,5.414578042507457,0.000120722657665,False
0.31,0.7247974497152704,2.800000000000001,6031.0,3.01938,0.3,68900.0,0.33,276.0,2700.0,28.812440029373693,4.403534080057529,11889.542016155328,19.352811075756804,6.215974653188194,9.459628953616887,1.8124405731306648,2964,84,978,1491,7.683426116515526,4.426816227896878,9.39266112601578e-05,False
0.32,0.93385805975228,2.800000000000001,6032.0,3.01938,0.3,68900.0,0.33,276.0,2700.0,42.9231426211034,6.799073680661328,18357.498937785585,27.388306226330094,11.082700840133509,15.534836394773304,4.28362715947218,4009,104,1324,2017,9.321581725353534,5.381269973748494,0.0001256086648516,False
0.33,0.7212341084635799,2.800000000000001,6033.0,3.01938,0.1,68900.0,0.33,276.0,2700.0,28.03178119634747,4.549977620602626,12284.939575627091,19.22537071534003,6.14724113465375,8.80641048100744,1.597263514051123,40618,236,7660,24908,25.431068183094474,13.152006315887734,9.026317827371767e-05,False
0.34,0.7510588397024367,2.800000000000001,6034.0,3.01938,0.3,68900.0,0.33,276.0,2700.0,29.65692997919443,4.959359991358592,13390.271976668198,20.30187344348781,6.736630288153191,9.35505653570662,1.7772702967945992,2955,84,974,1488,7.320598791269988,4.212865085679524,9.068552834195762e-05,False
0.3500000000000001,1.0127142548926689,2.800000000000001,6035.0,3.01938,0.3,68900.0,0.33,276.0,2700.0,47.88265052126136,8.289666651205632,22382.099958255207,30.70454578971824,13.372164487899251,17.178104731543122,5.082497836693619,4546,112,1502,2287,9.261717942272174,5.342983230353185,0.0001289098532163,False
0.36,0.8241170067672232,2.800000000000001,6036.0,3.01938,0.2,68900.0,0.33,276.0,2700.0,33.90533782169604,6.005244710008026,16214.16071702167,23.03331099504403,8.318808155934825,10.872026826652007,2.313563445926799,7988,132,2282,4281,8.02194965654746,4.625847090679139,9.777446933402656e-05,False
0.37,0.8876606909727986,2.800000000000001,6037.0,3.01938,0.2,68900.0,0.33,276.0,2700.0,37.99271287797704,6.922564487304236,18690.924115721435,25.518107451902733,9.860838783764978,12.474605426074309,2.938274296460742,9703,142,2560,5367,8.216967222175967,4.74317565123651,0.000105071176732,False
0.38,0.7699382210301688,2.800000000000001,6038.0,3.01938,0.2,68900.0,0.33,276.0,2700.0,29.76575723369275,5.5405702263431,14959.539611126367,20.99486627544689,7.126444642927912,8.770890958245857,1.5858744165848124,8273,126,2124,4607,7.253028689983414,4.176752409536048,8.670811214146979e-05,False
0.39,0.7805150290001148,2.800000000000001,6039.0,3.01938,0.2,68900.0,0.33,276.0,2700.0,30.173712897927143,5.759636592016746,15551.018798445217,21.387017180013626,7.350574686163663,8.786695717913517,1.5909380941469164,8331,126,2112,4663,7.236784401806198,4.167136076858736,8.623481746035658e-05,False
0.4,0.9376090085943154,2.800000000000001,6040.0,3.01938,0.3,68900.0,0.33,276.0,2700.0,40.63259689416102,7.9924780922790415,21579.69084915341,27.54250948729557,11.18572206939958,13.09008740686545,3.193243977120538,3786,100,1256,1896,7.7700764266702995,4.476505338138328,0.0001042162731609,False
0.4100000000000001,0.875468295810698,2.800000000000001,6041.0,3.01938,0.2,68900.0,0.33,276.0,2700.0,35.94505635923562,7.224388748791261,19505.849621736405,25.033471312976253,9.552670167575869,10.911585046259368,2.3282814187846075,9631,136,2388,5433,7.441677997141463,4.293720017481337,9.493771890168229e-05,False
0.42,0.7640647037633445,2.800000000000001,6042.0,3.01938,0.2,68900.0,0.33,276.0,2700.0,28.3190269641691,5.791826118129401,15637.930518949384,20.778311055672773,7.003767328134089,7.540715908496328,1.2119412100046878,7443,116,1856,4189,6.7110997236707535,3.87455470778628,7.959713501443441e-05,False
0.43,1.0696794760743444,2.800000000000001,6043.0,3.01938,0.3,68900.0,0.33,276.0,2700.0,49.59326389724386,10.496032666501453,28339.28819955392,33.19740369626375,15.191871673335752,16.39586020098011,4.695839006834301,4644,114,1544,2322,8.047124261549113,4.636905400136559,0.0001157790004627,False
0.44,1.0897289684894491,2.800000000000001,6044.0,3.01938,0.3,68900.0,0.33,276.0,2700.0,50.82968823273558,11.004122458799564,29711.130638758823,34.094194348506825,15.86643598577834,16.735493884228752,4.862313526978776,4598,114,1530,2297,8.045197931034533,4.637256400598912,0.00011631700734,False
0.45,0.8551275023579427,2.800000000000001,6045.0,3.01938,0.3,68900.0,0.33,276.0,2700.0,33.42313211751447,7.329352972735179,19789.253026384984,24.23325988029905,9.05162559227414,9.189872237215418,1.7222726195389615,3545,90,1108,1827,6.90164076287504,3.982085036615616,8.48079341070418e-05,False
0.46,1.1201597007397888,2.800000000000001,6046.0,3.01938,0.3,68900.0,0.33,276.0,2700.0,52.56532617147124,11.886164977751834,32092.64543992995,35.474629708072364,16.924892095156427,17.090696463398878,5.038727117404592,4840,116,1590,2433,7.904522259935107,4.5342314806563735,0.0001160297656237,False
0.4700000000000001,0.864102362999392,2.800000000000001,6047.0,3.01938,0.2,68900.0,0.33,276.0,2700.0,33.47022883383844,7.648057393236264,20649.754961737915,24.585051069518546,9.27069284698156,8.885177764319895,1.6226354537452945,9079,132,2248,5119,6.73132761138051,3.8830314335923273,8.36330903324067e-05,False
0.4800000000000001,0.9687803667150414,2.800000000000001,6048.0,3.01938,0.3,68900.0,0.33,276.0,2700.0,40.43891581504524,9.473716452446997,25579.034421606888,28.83765804256001,12.06438183135046,11.601257772485226,2.5906653789034664,4160,102,1320,2124,7.107698231038879,4.082005095552388,9.35755295801055e-05,False
0.49,1.0120006449909382,2.800000000000001,6049.0,3.01938,0.2,68900.0,0.33,276.0,2700.0,43.28149308964902,10.357562317562518,27965.4182574188,30.67383470508994,13.350264378623775,12.607658384559077,2.992702061061257,11731,152,2874,6654,7.335704228827602,4.230058742087456,9.78713607622996e-05,False
0.5,1.1251507004024224,2.800000000000001,6050.0,3.01938,0.3,68900.0,0.33,276.0,2700.0,51.61259057577652,12.64134825614496,34131.64029159139,35.7032590252504,17.10251624409585,15.909331550526126,4.461167987950889,5077,116,1572,2629,7.357660532863829,4.241323140018952,0.0001092294297259,False
0.01,0.5664163074857603,2.800000000000001,6051.0,6.03876,0.05,68900.0,0.33,276.0,2700.0,27.67607664325412,0.1383782888211655,373.62137981714704,13.996552569815682,3.5833403753170234,13.679524073438438,3.444962086495858,88688,468,29370,44627,385.3564009655471,218.5891422386858,0.0033998144947555,True
0.02,0.3402125745172356,2.800000000000001,6052.0,6.03876,0.08,68900.0,0.33,276.0,2700.0,14.361802092781629,0.1436012657669962,387.72341757088975,7.439821706849946,1.1830878461879015,6.921980385931683,1.0394865804209057,18557,204,6116,9377,103.73478537488184,59.18236958811565,0.0009307671111404,False
0.03,0.549926966018816,2.800000000000001,6053.0,6.03876,0.1,68900.0,0.33,276.0,2700.0,26.01916324528301,0.3902309000114801,1053.6234300309964,13.47513812074126,3.3568547211455075,12.54402512454175,2.9666238211340272,21469,228,7050,10888,120.34968095469802,68.6349447909243,0.0011305602443551,False
0.04,0.476235391729621,2.800000000000001,6054.0,6.03876,0.1,68900.0,0.33,276.0,2700.0,21.29447605278422,0.4257554797691347,1149.5397953766635,11.22842532438864,2.44747061214437,10.06605072839558,2.021715132375235,17373,202,5712,8799,78.4995728429794,44.89207185986163,0.000721915775446,False
0.05,0.358183170245237,2.800000000000001,6055.0,6.03876,0.08,68900.0,0.33,276.0,2700.0,14.5290482858383,0.3629644077581579,980.0039009470264,7.913692274410159,1.3210315878184609,6.615356011428141,0.9580671800603028,19350,208,6354,9813,45.8110910079281,26.27042758645073,0.0004188262473451,False
0.06,0.6311630221394022,2.800000000000001,6056.0,6.03876,0.2,68900.0,0.33,276.0,2700.0,30.25794076625825,0.9072858336456282,2449.671750843196,16.110024189083322,4.557422867027324,14.147916577174929,3.650137033381696,6256,124,2042,3187,66.5608877321377,38.05717260872412,0.0007043001645461,False
0.0699999999999999,0.69350977823812,2.800000000000001,6057.0,6.03876,0.2,68900.0,0.33,276.0,2700.0,34.09944526285158,1.1927622066796884,3220.4579580351588,18.24473024638577,5.627869039864516,15.85471501646581,4.435106833184827,6990,134,2292,3546,58.75427560614265,33.50223807628854,0.0006883102174649,False
0.08,0.5504495046446991,2.800000000000001,6058.0,6.03876,0.2,68900.0,0.33,276.0,2700.0,24.5493601221196,0.980902074592359,2648.4356013993693,13.49155662788642,3.3639002906559634,11.05780349423318,2.3829982160636045,5207,112,1714,2630,41.89451774818215,24.186168999040007,0.0004542597426474,False
0.09,0.7438292192661015,2.800000000000001,6059.0,6.03876,0.2,68900.0,0.33,276.0,2700.0,36.91366805552654,1.6595882484690556,4480.8882708664505,20.038872603357607,6.590806938551054,16.874795452168936,4.931218690081999,7700,142,2532,3896,50.14650988724126,28.703305741355862,0.000597702233615,False
0.0999999999999999,0.7852929824677024,2.800000000000001,6060.0,6.03876,0.3,68900.0,0.33,276.0,2700.0,39.522892973875024,1.9740502535913376,5329.935684696611,21.565088842725302,7.453186039672909,17.95780413114972,5.479135786081572,3968,102,1304,2006,47.00157157078231,27.136366672024263,0.0005829144515649,False
0.11,0.6397993037850517,2.800000000000001,6061.0,6.03876,0.3,68900.0,0.33,276.0,2700.0,29.247831789544065,1.6058431085436398,4335.776393067828,16.39989495857973,4.697803926961536,12.847936830964336,3.0919608184178964,2982,86,980,1506,35.81208738781607,20.53280635811443,0.0004091228451409,False
0.12,0.4567599221936125,2.800000000000001,6062.0,6.03876,0.2,68900.0,0.33,276.0,2700.0,18.007164917685163,1.0768107803241749,2907.3891068752714,10.657457457713862,2.2343671615924814,7.349707459971301,1.1575563812683067,3866,94,1264,1964,23.8355720717402,13.761184971019084,0.0002497852571565,False
0.13,0.4868263182462965,2.800000000000001,6063.0,6.03876,0.1,68900.0,0.33,276.0,2700.0,19.420553915535667,1.2577346184698608,3395.883469868624,11.542924044171086,2.568052968010477,7.877629871364581,1.310318349540616,15946,192,5274,8029,22.86747171697129,13.196525718720036,0.0002503610906894,False
0.14,0.516059031377044,2.800000000000001,6064.0,6.03876,0.2,68900.0,0.33,276.0,2700.0,20.81873895484609,1.4515647066782595,3919.224708031301,12.425621832213483,2.918333461103753,8.393117122632606,1.466768754425494,4418,102,1454,2231,22.83640870640529,13.184218506045848,0.0002508963386454,False
0.15,0.5601238552435294,2.800000000000001,6065.0,6.03876,0.3,68900.0,0.33,276.0,2700.0,23.125729792407373,1.7273611509599764,4663.875107591936,13.796770734539937,3.4958968173614617,9.328959057867436,1.7685356664014853,2305,74,750,1174,24.270187277439373,13.975943640885612,0.0002608573479323,False
0.16,0.5446650200140755,2.800000000000001,6066.0,6.03876,0.1,68900.0,0.33,276.0,2700.0,21.93697768696792,1.7463795726180318,4715.224846068686,13.31018680877627,3.286383559535285,8.626790878191647,1.5400039869172537,18583,208,6078,9402,21.29414616887288,12.294167277922906,0.0002377472033763,False
0.17,0.8454498081071842,2.800000000000001,6067.0,6.03876,0.3,68900.0,0.33,276.0,2700.0,41.47250748090253,3.5148733727386547,9490.158106394369,23.856187844349847,8.818930004731989,17.61631963655268,5.304056631993334,4149,104,1364,2097,30.08607987373925,17.34272496649799,0.0003928810667845,False
0.18,0.7689017472572899,2.800000000000001,6068.0,6.03876,0.3,68900.0,0.33,276.0,2700.0,35.67517291045397,3.1985510497037044,8636.087834200001,20.956588726655045,7.104703853837954,14.718584183798928,3.9061528041342495,3738,98,1228,1890,26.44096592034748,15.265259975465543,0.000328677066576,False
0.19,0.6788673846357003,2.800000000000001,6069.0,6.03876,0.3,68900.0,0.33,276.0,2700.0,29.3384657404526,2.772788789335681,7486.52973120634,17.734608011480145,5.364463798687563,11.603857728972455,2.591675009351881,3034,86,992,1540,22.63875421624169,13.063840691665442,0.000266729141777,False
0.2,0.7813243886484889,2.800000000000001,6070.0,6.03876,0.3,68900.0,0.33,276.0,2700.0,35.89098871658843,3.5723437108396903,9645.328019267165,21.417141199576218,7.367896664340657,14.473847517012214,3.795552953500967,3766,98,1238,1903,24.330063496183097,14.046340231222729,0.0003044903445697,False
0.21,0.5163872230529125,2.800000000000001,6071.0,6.03876,0.1,68900.0,0.33,276.0,2700.0,19.005543777013177,1.97618590354312,5335.701939566425,12.435653674105325,2.922413092866041,6.569890102907852,0.946227189322921,21122,190,5230,11945,16.477144607871555,9.51305599915428,0.0001784862292653,False
0.22,0.64882285112686,2.800000000000001,6072.0,6.03876,0.3,68900.0,0.33,276.0,2700.0,26.559829960515938,2.8992801766064678,7828.056476837462,16.704766536273354,4.847163128248662,9.855063424242584,1.9478829516421945,2674,80,878,1351,18.9849035216248,10.960380789137648,0.0002212549696479,False
0.23,0.7258057361012171,2.800000000000001,6073.0,6.03876,0.2,68900.0,0.33,276.0,2700.0,31.200706774882992,3.5625987739007274,9619.016689531963,19.388929644594924,6.23550603590941,11.811777130288068,2.6729072620086822,6391,126,2102,3228,19.856463972508728,11.46005527403053,0.0002440382956481,False
0.24,0.6190346835759006,2.800000000000001,6074.0,6.03876,0.1,68900.0,0.33,276.0,2700.0,24.17981254562625,2.872624587579667,7756.086386465102,15.706109684001682,4.364488181809122,8.473702861624567,1.491863594229455,26413,214,6498,14956,22.88113975235945,12.590282476061994,0.0002218835075499,False
0.25,0.9027538225142796,2.800000000000001,6075.0,6.03876,0.3,68900.0,0.33,276.0,2700.0,42.96143938095786,5.337454999144841,14411.12849769107,26.12322024310403,10.25054625863947,16.838219137853834,4.91309125949463,4039,104,1336,2029,22.192400008979885,12.809950200765073,0.0003000046338292,False
0.26,0.7076063512094041,2.800000000000001,6076.0,6.03876,0.3,68900.0,0.33,276.0,2700.0,29.13332042678192,3.750520567161988,10126.405531337366,18.740927689615653,5.888548686084946,10.392392737166269,2.138028118922959,3040,84,996,1540,17.598445939240424,10.151259053027143,0.0002124022805171,False
0.27,0.761813641707977,2.800000000000001,6077.0,6.03876,0.3,68900.0,0.33,276.0,2700.0,32.38754423300114,4.331094492654742,11693.955130167804,20.695544745130864,6.957087240482869,11.691999487870271,2.625992747828126,3138,88,1030,1587,18.30411403067217,10.558735203245892,0.0002249955706231,False
0.28,0.6690028406384583,2.800000000000001,6078.0,6.03876,0.2,68900.0,0.33,276.0,2700.0,26.139256804531183,3.613519791346632,9756.503436635909,17.39397785310325,5.191202068709764,8.745278951427935,1.5776822773631314,5632,118,1868,2824,15.61074092702313,9.009222067081344,0.0005325444770157,False
0.29,0.9813958992681744,2.800000000000001,6079.0,6.03876,0.3,68900.0,0.33,276.0,2700.0,47.539518975441936,6.842150049286621,18473.80513307388,29.368766369090707,12.431530147243546,18.17075260635123,5.589380097956925,4554,112,1506,2289,21.109094063967344,12.18440310240721,0.0002931469595489,False
0.3,0.8746917999195112,2.800000000000001,6080.0,6.03876,0.3,68900.0,0.33,276.0,2700.0,39.263542668753,5.832982732548335,15749.053377880506,25.002732885084605,9.533243715071247,14.260809783668392,3.700260982522912,3871,100,1276,1951,18.487207037115443,10.650868862224907,0.0002439372899089,False
0.31,0.6469248209825627,2.800000000000001,6081.0,6.03876,0.08,68900.0,0.33,276.0,2700.0,23.99447382097506,3.6567493177557377,9873.223157940492,16.64046931441291,4.815518011162831,7.354004506562148,1.1587686934070929,58057,266,10064,36201,14.654714303454645,8.456032157003758,0.0001680063078444,False
0.32,0.7810920773259302,2.800000000000001,6082.0,6.03876,0.3,68900.0,0.33,276.0,2700.0,32.192133072078455,5.082112152817329,13721.702812606787,21.40849298703804,7.362922224508263,10.783640085040416,2.280810071690934,3364,90,1110,1693,16.01480630043061,9.243910593012906,0.0002005589054786,False
0.33,0.8422819945932121,2.800000000000001,6083.0,6.03876,0.3,68900.0,0.33,276.0,2700.0,36.04363558604889,5.871933594903369,15854.220706239095,23.733271667923358,8.743552804828209,12.31036391812554,2.87161920992484,3456,94,1142,1737,16.68833914612963,9.62914888903091,0.0002140396447502,False
0.34,0.9867183891146808,2.800000000000001,6084.0,6.03876,0.3,68900.0,0.33,276.0,2700.0,46.22752234133525,7.776360692922534,20996.17387089084,29.59404060504545,12.588444302170188,16.633481736289802,4.812083609247653,4399,110,1448,2221,18.47215240795582,10.641831160688604,0.0002557484588492,False
0.3500000000000001,0.65917856032608,2.800000000000001,6085.0,6.03876,0.1,68900.0,0.33,276.0,2700.0,23.697758785703773,4.057310597482534,10954.738613202842,17.057168724773856,5.02197519409402,6.640590060929917,0.9646645966114864,34700,212,6466,21333,13.703530115707505,7.908238987565575,0.0001563252683825,False
0.36,0.859340282916206,2.800000000000001,6086.0,6.03876,0.3,68900.0,0.33,276.0,2700.0,36.31629877159479,6.439217680989808,17385.88773867248,24.398137817235828,9.15406213905442,11.91816095435896,2.7148444580646114,3499,94,1162,1750,15.723191252475274,9.064521743271092,0.0002035405304263,False
0.37,0.7512095125382622,2.800000000000001,6087.0,6.03876,0.1,68900.0,0.33,276.0,2700.0,28.840110331472797,5.229333016200945,14119.199143742551,20.307368629430066,6.739689642977954,8.532741702042731,1.5103566267770088,43253,236,7728,26807,14.380317063234592,8.300621716178288,0.0001729068729323,False
0.38,0.978732601037529,2.800000000000001,6088.0,6.03876,0.3,68900.0,0.33,276.0,2700.0,44.29456536261901,8.301043770839092,22412.81818126555,29.25630961322977,12.353462156241012,15.038255749389233,4.05241838540192,4310,108,1426,2165,16.586124653917533,9.542749529422151,0.0002299013215848,False
0.39,0.8659955155141799,2.800000000000001,6089.0,6.03876,0.2,68900.0,0.33,276.0,2700.0,35.880851095794654,6.872528540601096,18555.82705962296,24.659516273741808,9.317306571023629,11.221334822052846,2.4447780304225306,9428,136,2376,5288,15.38654243955346,8.882966049689538,0.0001952177032709,False
0.4,0.8306782774758086,2.800000000000001,6090.0,6.03876,0.3,68900.0,0.33,276.0,2700.0,33.1929289154008,6.504544496526995,17562.270140622884,23.285183018995635,8.47076165336262,9.907745896405164,1.9662171568356257,3433,92,1134,1724,13.735021333161397,7.886319117970167,0.0001796593880683,False
0.4100000000000001,0.7452472178487494,2.800000000000001,6091.0,6.03876,0.2,68900.0,0.33,276.0,2700.0,27.400673587676494,5.47279028062164,14776.53375767843,20.090353332933496,6.61925852532973,7.310320254742997,1.1464682447080898,7378,116,1838,4147,13.446432374600173,7.761798324357297,0.000157140959594,False
0.42,0.8080847594482423,2.800000000000001,6092.0,6.03876,0.2,68900.0,0.33,276.0,2700.0,31.14258391575904,6.384773077963293,17238.88731050089,22.42242191183223,7.954438010537152,8.720162003926806,1.5696649325738594,8732,128,2182,4909,13.953264352285313,8.055720398724182,0.000198364476296,False
0.43,1.020831383674652,2.800000000000001,6093.0,6.03876,0.3,68900.0,0.33,276.0,2700.0,45.83591613630224,9.688202897899007,26158.14782432732,31.054777225646376,13.622817556977624,14.781138910655862,3.934614659078616,4411,110,1464,2205,15.436372848106512,8.894952551624982,0.0002182359457947,False
0.44,1.030552447597038,2.800000000000001,6094.0,6.03876,0.3,68900.0,0.33,276.0,2700.0,46.24848367741615,9.996257456629271,26989.895132899037,31.476393069838025,13.926750384792031,14.772090607578122,3.93049292816276,4425,110,1456,2225,15.216384355121033,8.764338252971847,0.0002166294406268,False
0.45,0.874236077621803,2.800000000000001,6095.0,6.03876,0.2,68900.0,0.33,276.0,2700.0,34.709898827555705,7.618875482494452,20570.96380273502,24.98469968272479,9.521853521456306,9.725199144830912,1.9029780389618545,9270,134,2306,5215,13.7711069125254,7.948599748094799,0.0001757015088324,False
0.46,0.90220689049547,2.800000000000001,6096.0,6.03876,0.3,68900.0,0.33,276.0,2700.0,36.338217895963645,8.1539300743851,22015.61120083977,26.10119270693181,10.236264657179172,10.237025189031836,2.082334582794072,3532,94,1140,1792,13.099348159721515,7.523018992346738,0.0001771623678399,False
0.4700000000000001,0.7719602685317883,2.800000000000001,6097.0,6.03876,0.08,68900.0,0.33,276.0,2700.0,27.527783545970426,6.251582750587284,16879.273426585667,21.06961932270083,7.1689728196177365,6.458164223269591,0.9173900690304526,91327,284,11520,60363,13.305989237478736,7.538440440305908,0.000148915181274,False
0.4800000000000001,0.974640555854388,2.800000000000001,6098.0,6.03876,0.3,68900.0,0.33,276.0,2700.0,40.860647942639446,9.5749321630696,25852.31684028792,29.08387193448284,12.234096970307313,11.776776008156606,2.659164807237712,4121,102,1310,2102,13.595552260280677,7.844438282722782,0.0001884706076967,False
0.49,0.875715331584115,2.800000000000001,6099.0,6.03876,0.2,68900.0,0.33,276.0,2700.0,33.69869053803332,8.009775692416703,21626.394369525096,25.04325366807563,9.558855538787238,8.65543686995769,1.5490798463705353,9240,132,2270,5229,81.06342403475628,46.43082973951465,0.0001651819078562,False
0.5,0.853228892535093,2.800000000000001,6100.0,6.03876,0.1,68900.0,0.33,276.0,2700.0,31.94134022226203,7.72353566776636,20853.54630296917,24.15909874059944,9.005686502893838,7.782241481662595,1.282150835127478,59412,250,8602,38475,13.685234636450335,7.750089225258907,0.000158567018887,False
0.01,0.3693887510028152,2.800000000000001,6101.0,9.05814,0.05,68900.0,0.33,276.0,2700.0,16.15905609391215,0.0807931860744574,218.14160240103504,8.213283082184635,1.411384703310299,7.945773011727514,1.3305915172358416,52940,346,17530,26639,338.81744330252536,192.9346846020478,0.0030074450216533,True
0.02,0.7028296524671218,2.800000000000001,6102.0,9.05814,0.1,68900.0,0.33,276.0,2700.0,36.44434568279584,0.3644267016671369,983.9520945012696,18.572229113709337,5.79943205976493,17.872116569086504,5.4350053580977935,29769,278,9860,14973,310.8023789009664,176.70219642975292,0.0035325108083344,True
0.03,0.7270743041753738,2.800000000000001,6103.0,9.05814,0.1,68900.0,0.33,276.0,2700.0,37.80413756031141,0.5670055147369855,1530.9148897898608,19.43440825139422,6.26013105512748,18.36972930891719,5.693125540390494,30729,282,10116,15549,238.68299022086137,135.829493804427,0.0024837505477853,False
0.04,0.3431955046245913,2.800000000000001,6104.0,9.05814,0.08,68900.0,0.33,276.0,2700.0,14.007206558760116,0.2800100898886488,756.0272426993519,7.517917436262412,1.2053967358130135,6.489289122497704,0.9253866459243648,17940,198,5880,9114,82.33322153990734,47.06090009261942,0.000735010597088,False
0.05,0.7270766686717044,2.800000000000001,6105.0,9.05814,0.1,68900.0,0.33,276.0,2700.0,37.10708460951922,0.927415315850188,2504.021352795508,19.43449305717336,6.260177007814564,17.672591552345864,5.332761691964375,30415,280,9994,15418,153.91196581283177,87.79599823427242,0.0014977402937772,False
0.06,0.7169015968666393,2.800000000000001,6106.0,9.05814,0.2,68900.0,0.33,276.0,2700.0,36.05030447751872,1.081056744983368,2918.853211455094,19.070851407071657,6.064281891746393,16.979453070447065,4.983225146763026,7439,140,2440,3773,110.32716149188066,63.03649600147156,0.0012419447764919,False
0.0699999999999999,0.7014670472701031,2.800000000000001,6107.0,9.05814,0.2,68900.0,0.33,276.0,2700.0,34.644407883182346,1.211835898391266,3271.956925656418,18.524211135972536,5.774158163926067,16.12019674720981,4.562322265534801,7263,136,2380,3687,91.65559715603794,52.35131568018695,0.0010472127863857,False
0.08,0.5451484998810369,2.800000000000001,6108.0,9.05814,0.2,68900.0,0.33,276.0,2700.0,24.22753294464538,0.9680289874933916,2613.678266232157,13.32531388791022,3.292822423465216,10.90221905673516,2.324793435971824,5299,112,1732,2695,62.54998864077395,36.111603094424005,0.000673213966755,False
0.09,0.6424120959421329,2.800000000000001,6109.0,9.05814,0.2,68900.0,0.33,276.0,2700.0,30.041244675807416,1.3503291963816877,3645.888830230556,16.48796084924823,4.740768455463389,13.553283826559188,3.3904392590817016,6602,128,2162,3353,63.846892460315125,36.542842344841056,0.0007427637907065,False
0.0999999999999999,0.7160024754898104,2.800000000000001,6110.0,9.05814,0.3,68900.0,0.33,276.0,2700.0,34.64454791701625,1.73013300074842,4671.359102020734,19.038843295221827,6.04714927268306,15.60570462179442,4.317016271934641,3309,92,1088,1671,65.33190431795559,37.65807261700587,0.0007759226135307,False
0.11,0.6935669650363339,2.800000000000001,6111.0,9.05814,0.3,68900.0,0.33,276.0,2700.0,32.7928619630305,1.8008197680851794,4862.213373829984,18.24673312474133,5.628912454840475,14.546128838289167,3.828092686755296,3430,92,1118,1747,57.713873781137536,33.31743690107636,0.0006809801670865,False
0.12,0.7754927027231527,2.800000000000001,6112.0,9.05814,0.3,68900.0,0.33,276.0,2700.0,38.13188737936868,2.2842941280251834,6167.594145667995,21.200456398205144,7.243630857674959,16.931430981163533,4.959336729649776,3906,100,1282,1977,58.49578258554535,33.718354829381255,0.0007264124711501,False
0.13,0.5310289016494039,2.800000000000001,6113.0,9.05814,0.3,68900.0,0.33,276.0,2700.0,21.962205697303645,1.4229419842847806,3841.943357568908,12.885960520925298,3.1077819871370016,9.076245176378348,1.684840002852221,2367,74,772,1203,39.53029658573504,22.739870761633917,0.0004173796067041,False
0.14,0.8398675934807043,2.800000000000001,6114.0,9.05814,0.3,68900.0,0.33,276.0,2700.0,42.10766463966833,2.941789504615823,7942.831662462721,23.63975845055424,8.686364085994995,18.467906189114093,5.744574581379172,4135,104,1360,2089,54.256009287090606,31.321606541032832,0.0006999769506548,False
0.15,0.6107252507686654,2.800000000000001,6115.0,9.05814,0.3,68900.0,0.33,276.0,2700.0,26.204448950988954,1.9582650878535963,5287.31573720471,15.431511697296626,4.235121397122116,10.772937253692328,2.27685630926852,2750,80,900,1394,39.88226691238134,22.912856652672243,0.0004345812722761,False
0.16,0.5298001686021416,2.800000000000001,6116.0,9.05814,0.2,68900.0,0.33,276.0,2700.0,21.0723063055202,1.6772058621022128,4528.455827675974,12.847963560937249,3.0919719295448,8.224342744582948,1.414766067442587,4389,102,1444,2217,31.098903321792253,17.95444826483123,0.0003446474490589,False
0.17,0.807203989537663,2.800000000000001,6117.0,9.05814,0.3,68900.0,0.33,276.0,2700.0,38.70163647930734,3.279349337603068,8854.243211528285,22.38904845135125,7.93470371459582,16.31258802795609,4.655354376992752,3803,100,1252,1919,43.38187679290649,25.016446668645003,0.0005543760041842,False
0.18,0.6831383239448825,2.800000000000001,6118.0,9.05814,0.3,68900.0,0.33,276.0,2700.0,29.915670898583453,2.6801958686353564,7236.528845315463,17.882845427469803,5.440523626514572,12.03282547111365,2.760327757879216,3030,86,992,1536,35.84695097102777,20.67675540325764,0.0004235331258077,False
0.19,0.8061479553031283,2.800000000000001,6119.0,9.05814,0.3,68900.0,0.33,276.0,2700.0,37.959576307576526,3.591794293212455,9697.84459167363,22.34905971141477,7.9110812301582865,15.610516596161755,4.319286936945831,3684,98,1210,1863,39.07962463324299,22.524098079733296,0.0004988414063536,False
0.2,0.6605488174020879,2.800000000000001,6120.0,9.05814,0.3,68900.0,0.33,276.0,2700.0,27.87179083500989,2.770423922681848,7480.144591240989,17.104000140898307,5.04537998038669,10.767790694111582,2.2749560577048418,2888,82,942,1469,31.789495080051992,18.34152068004878,0.0003689585604175,False
0.21,0.6466269296829561,2.800000000000001,6121.0,9.05814,0.3,68900.0,0.33,276.0,2700.0,26.707619929852846,2.7849038995912827,7519.240528896464,16.63038623919105,4.810562462018252,10.077233690661796,2.0256585624269694,2772,82,904,1410,29.498722658215137,17.021857623310076,0.0003440460147837,False
0.22,0.707341239118219,2.800000000000001,6122.0,9.05814,0.3,68900.0,0.33,276.0,2700.0,30.289836238913978,3.3095808672302542,8935.868341521686,18.73154970074832,5.883581482702549,11.558286538165657,2.574000615472295,3053,86,998,1550,30.654848913603523,17.67367148917523,0.0003690834924809,False
0.23,0.6109181034114238,2.800000000000001,6123.0,9.05814,0.2,68900.0,0.33,276.0,2700.0,23.96268922710524,2.730226755906285,7371.61224094697,15.4378651392872,4.238098017558714,8.524824087818038,1.5078712616524292,4970,108,1644,2498,25.93397765186072,14.95013982836704,0.0002975680174039,False
0.24,0.7735503729556854,2.800000000000001,6124.0,9.05814,0.3,68900.0,0.33,276.0,2700.0,34.092528595740546,4.062150513593379,10967.806386702125,21.128476049493923,7.202522500262959,12.964052546246624,3.14037198666958,3526,94,1162,1777,30.4080487210228,17.54464038799633,0.0003819450962516,False
0.25,0.8149869827958545,2.800000000000001,6125.0,9.05814,0.3,68900.0,0.33,276.0,2700.0,36.63571571258769,4.546739540598518,12276.196759615998,22.68463075003072,8.110106797856627,13.951084962556973,3.563367257258109,3645,96,1206,1830,30.60836324200244,17.642427836259138,0.0003941005885638,False
0.26,0.868808243072364,2.800000000000001,6126.0,9.05814,0.3,68900.0,0.33,276.0,2700.0,40.13872593101536,5.181223282712332,13989.302863323295,24.77031834812268,9.386822853436351,15.36840758289268,4.205599570724021,3988,102,1314,2011,31.207654944640637,17.98354756121445,0.0004130561208381,False
0.27,0.6300248341681535,2.800000000000001,6127.0,9.05814,0.1,68900.0,0.33,276.0,2700.0,24.034675535687366,3.203457218517391,8649.334489996956,16.071961506914118,4.539108295610449,7.962714028773249,1.3356510770930576,28015,214,6494,16232,23.85089570750748,13.755444489376146,0.0002724171861077,False
0.28,0.7998471777371252,2.800000000000001,6128.0,9.05814,0.3,68900.0,0.33,276.0,2700.0,34.652630198322434,4.805392066477406,12974.558579488996,22.11105131117504,7.771015118992862,12.5415788871474,2.965623052515456,3288,92,1086,1653,27.26043641903972,15.705266345254564,0.0003470696112045,False
0.29,0.6359108637215694,2.800000000000001,6129.0,9.05814,0.1,68900.0,0.33,276.0,2700.0,23.85835254345664,3.408380916648944,9202.62847495215,16.269150183563948,4.6342882381142685,7.589202359892688,1.2259073214653244,31012,212,6432,18576,22.79402476070729,13.160042529979638,0.0002603060006447,False
0.3,0.974319068992396,2.800000000000001,6130.0,9.05814,0.3,68900.0,0.33,276.0,2700.0,46.64758977726933,6.940589798825789,18739.59245682963,29.070342395282683,12.224749062438653,17.57724738198665,5.284159263612864,4560,112,1508,2292,30.266593867130982,17.450484709197333,0.0004224407777502,False
0.31,0.7480517074779859,2.800000000000001,6131.0,9.05814,0.3,68900.0,0.33,276.0,2700.0,30.3102799016526,4.63569926026076,12516.388002704052,20.19231971453278,6.6757446485318255,10.117960187119817,2.040045388271065,3054,86,1006,1539,23.90549818537067,13.7997568558226,0.0002932091907738,False
0.32,0.7187662485693127,2.800000000000001,6132.0,9.05814,0.1,68900.0,0.33,276.0,2700.0,28.150994163986866,4.435529927522606,11975.930804311036,19.13729650483156,6.099904322198816,9.013697659155303,1.6643743946762095,40585,238,7742,24844,23.12533901012609,13.340619649089284,0.0002763760117042,False
0.33,0.7714863569484741,2.800000000000001,6133.0,9.05814,0.3,68900.0,0.33,276.0,2700.0,31.268437579702194,5.084025923856156,13726.86999441162,21.05209007197719,7.1589918368450896,10.216347507725004,2.074965912988934,3225,90,1064,1623,23.108665260374885,13.338547427992957,0.000289006989815,False
0.34,0.7870944350614554,2.800000000000001,6134.0,9.05814,0.3,68900.0,0.33,276.0,2700.0,32.01000801173892,5.359383256891147,14470.334793606096,21.632376919600823,7.492095120799331,10.377631092138092,2.132711863908185,3382,90,1110,1711,23.235668682890743,13.40975432477668,0.0002885604962692,False
0.3500000000000001,0.774305164139048,2.800000000000001,6135.0,9.05814,0.3,68900.0,0.33,276.0,2700.0,30.88358767088708,5.314830652390132,14350.042761453356,21.15643641724626,7.218480638921922,9.72715125364082,1.9036499865317904,3199,88,1060,1603,21.569754428127744,12.43619071795851,0.0002759944813501,False
0.36,0.9054370196568242,2.800000000000001,6136.0,9.05814,0.3,68900.0,0.33,276.0,2700.0,39.56573805185938,7.024116751437433,18965.11522888107,26.231394181446376,10.320785094091844,13.334343870413008,3.296668342654409,3688,98,1220,1852,24.575323131859925,14.169316447045388,0.0003269607436893,False
0.37,0.7707485263637897,2.800000000000001,6137.0,9.05814,0.2,68900.0,0.33,276.0,2700.0,30.09329775840637,5.461172690183659,14745.16626349588,21.024810103889997,7.143469025757112,9.068487654516376,1.6822963355734526,7901,126,2126,4330,22.434411453350684,12.939794514196285,0.000266060728075,False
0.38,0.7665059758413446,2.800000000000001,6138.0,9.05814,0.2,68900.0,0.33,276.0,2700.0,29.545233934202,5.498670799439864,14846.411158487634,20.868214896970294,7.054602548138598,8.677019037231705,1.5559317486987334,8182,126,2128,4536,22.04224929760519,12.72588981539609,0.0002587563097684,False
0.39,0.7267294497765918,2.800000000000001,6139.0,9.05814,0.08,68900.0,0.33,276.0,2700.0,26.77095456172964,5.096098716458408,13759.4665344377,19.422041098245028,6.253431146473583,7.348913463484614,1.1573324300151748,77119,284,11408,49763,20.390556281763583,11.770253140639689,0.0002401940717345,False
0.4,1.0391308246944062,2.800000000000001,6140.0,9.05814,0.3,68900.0,0.33,276.0,2700.0,48.22781267727337,9.511521248901296,25681.1073720335,31.850421685474217,14.198369711335722,16.377390991799153,4.686848462434426,4498,112,1488,2260,25.191523425422613,14.5224535803921,0.0003561493974016,False
0.4100000000000001,0.8408320360784383,2.800000000000001,6141.0,9.05814,0.3,68900.0,0.33,276.0,2700.0,33.58921068111075,6.741440384775663,18201.88903889429,23.677095122552604,8.70918127870449,9.912115558558146,1.967740893928827,3431,92,1132,1723,20.50466728733956,11.829096040199998,0.0002678755277986,False
0.42,0.9325979416479824,2.800000000000001,6142.0,9.05814,0.3,68900.0,0.33,276.0,2700.0,39.6565729704044,8.172710779438816,22066.319104484803,27.336581532590884,11.048220933413932,12.319991437813512,2.8755101539751173,3553,98,1186,1768,22.028414298639117,12.692178290877033,0.0002975881830613,False
0.43,0.9373699313512412,2.800000000000001,6143.0,9.05814,0.3,68900.0,0.33,276.0,2700.0,39.69367688945027,8.367621459825829,22592.577941529737,27.532670359199663,11.17913845834844,12.16100653025061,2.8115169985226114,3637,98,1210,1816,21.440668121358883,12.327108041955444,0.0002934592535282,False
0.44,0.8543211914211253,2.800000000000001,6144.0,9.05814,0.2,68900.0,0.33,276.0,2700.0,33.64804173508998,7.224160229317534,19505.23261915734,24.201753695941097,9.03209875278634,9.446288039148886,1.807938523468807,9075,132,2260,5107,20.731696070439057,11.944062147909415,0.0002612686161428,False
0.45,0.9874368691081108,2.800000000000001,6145.0,9.05814,0.3,68900.0,0.33,276.0,2700.0,42.70923825835654,9.41872685442465,25430.562506946557,29.624504792970296,12.609717971447644,13.084733465386249,3.1909911170229943,4042,104,1344,2014,21.714602867263697,12.43580272637876,0.0003016512809334,False
0.46,1.0699158872539,2.800000000000001,6146.0,9.05814,0.3,68900.0,0.33,276.0,2700.0,48.61277701441279,10.977078671628394,29638.112413396662,33.20791923412562,15.199721153669447,15.404857780287166,4.222642482041053,4674,112,1516,2364,22.801879530286943,13.100122990123236,0.0003281828291621,False
0.4700000000000001,0.8151099308694394,2.800000000000001,6147.0,9.05814,0.08,68900.0,0.33,276.0,2700.0,30.25746889722253,6.893058808131525,18611.25878195512,22.689312283271992,8.112896117296097,7.568156613950542,1.2198373091645722,100776,302,12606,66691,22.193008862745494,12.527129643179116,0.0002367430920719,False
0.4800000000000001,0.8949063738605477,2.800000000000001,6148.0,9.05814,0.1,68900.0,0.33,276.0,2700.0,35.27056727650961,8.233312803198439,22229.944568635787,25.80788634626559,10.046783924541788,9.46268093024402,1.813471121343348,64361,268,9622,41442,20.73018469142762,11.824679721905271,0.0002593044363188,False
0.49,0.9609227929993628,2.800000000000001,6149.0,9.05814,0.1,68900.0,0.33,276.0,2700.0,39.58060805754048,9.450845484695952,25517.28280867907,28.508879212063032,11.839080525512792,11.071728845477448,2.38823504081684,72494,286,10568,46914,21.778660622835783,12.401740124005451,0.0002770839390499,False
0.5,0.906231764875201,2.800000000000001,6150.0,9.05814,0.3,68900.0,0.33,276.0,2700.0,35.48402764320801,8.609207523002848,23244.86031210769,26.2634693197981,10.341645113918986,9.220558323409907,1.7324375909161382,3889,92,1124,2075,20.55089976422937,11.854363927023542,0.0002516938629351,False
0.01,0.634704594834128,2.800000000000001,6151.0,12.07752,0.05,68900.0,0.33,276.0,2700.0,32.123144520494115,0.1606136282073715,433.656796159903,16.22866786771008,4.61468768837791,15.894476652784036,4.454074060170539,102694,510,34036,51634,831.3222092479544,473.4672756617379,0.008011991971108,True
0.02,0.4994964646687008,2.800000000000001,6152.0,12.07752,0.1,68900.0,0.33,276.0,2700.0,23.24783186722001,0.2324615635113804,627.6462214807273,11.922869001999944,2.716706224976566,11.324962865220067,2.4842446614651856,19221,214,6352,9687,287.12375856283893,165.67358811018988,0.0029587513014637,True
0.03,0.3531039122288358,2.800000000000001,6153.0,12.07752,0.1,68900.0,0.33,276.0,2700.0,14.775154856368433,0.2215707741777607,598.2410902799539,7.778933383102727,1.2811784149314087,6.996221473265706,1.059607640753648,12597,168,4130,6396,300.8649319332529,172.43474940781113,0.0013244968304509,True
0.04,0.4586780197145513,2.800000000000001,6154.0,12.07752,0.1,68900.0,0.33,276.0,2700.0,20.281811344437507,0.4055021856017767,1094.8559011247971,10.71326767246444,2.254862714259188,9.568543671973067,1.8493605286574115,16836,198,5520,8550,146.07663096210817,83.4820684047254,0.0013794408103998,False
0.05,0.7407990564019421,2.800000000000001,6155.0,12.07752,0.1,68900.0,0.33,276.0,2700.0,38.07891702700835,0.9517111262874116,2569.620040976011,19.929031296414514,6.530252367744907,18.14988573059384,5.578541241457496,31188,284,10248,15810,209.070510906509,119.22765973680606,0.0020480096854077,False
0.06,0.4817388863349683,2.800000000000001,6156.0,12.07752,0.1,68900.0,0.33,276.0,2700.0,21.046219389179782,0.6309341923332756,1703.5223192998442,11.391500356389164,2.509714582503514,9.654719032790618,1.8787803901702385,17353,202,5700,8797,103.12180924993412,59.00806268540635,0.0010054023150831,False
0.0699999999999999,0.5344354212820432,2.800000000000001,6157.0,12.07752,0.2,68900.0,0.33,276.0,2700.0,23.872845200355027,0.8348312044923044,2254.044252129222,12.991501102404923,3.151857944875815,10.881344097950102,2.3170267403835108,5034,110,1660,2538,92.80891630145626,53.58319505018237,0.0009906469562633,False
0.08,0.6946644099923003,2.800000000000001,6158.0,12.07752,0.2,68900.0,0.33,276.0,2700.0,33.84665628442845,1.3527939210847089,3652.543586928714,18.28518534493785,5.648958336900194,15.561470939490595,4.296164415815485,7055,134,2308,3587,104.2964126293358,59.52227203391914,0.0012198152143333,False
0.09,0.4032133565058115,2.800000000000001,6159.0,12.07752,0.05,68900.0,0.33,276.0,2700.0,15.879883982553382,0.7130679651852571,1925.2835060001944,9.136753101699224,1.7047327172896531,6.743130880854158,0.991664752104396,59478,340,17076,31912,54.23103153748968,31.29987109224397,0.0005604931096731,False
0.0999999999999999,0.5395999329451788,2.800000000000001,6160.0,12.07752,0.1,68900.0,0.33,276.0,2700.0,23.31433714697895,1.1636224622465554,3141.7806480657,13.152063937510071,3.2193670296577204,10.162273209468877,2.055744567411165,18775,212,6186,9490,64.95531130631582,37.4165592374852,0.0007203971255776,False
0.11,0.5864411613962668,2.800000000000001,6161.0,12.07752,0.2,68900.0,0.33,276.0,2700.0,25.873461772068847,1.4202527575825,3834.68244547275,14.638952948661483,3.8700344649443617,11.234508823407362,2.4497817073618617,5422,114,1782,2743,64.96276428250584,37.47057933597392,0.0007321580611629,False
0.12,0.7649902458487923,2.800000000000001,6162.0,12.07752,0.3,68900.0,0.33,276.0,2700.0,37.38740530531477,2.2396252035819573,6046.988049671285,20.812378029324854,7.023014293029025,16.575027275989914,4.783389089447068,3812,98,1246,1937,76.84148238364997,44.32868663153927,0.0009521354829111,False
0.13,0.4877907610886106,2.800000000000001,6163.0,12.07752,0.2,68900.0,0.33,276.0,2700.0,19.474961396292347,1.261271104719043,3405.431982741416,11.571703325554497,2.5791993345913884,7.903258070737852,1.3179282298723454,4171,98,1372,2107,47.52999300188311,27.439875275603555,0.0005019342253657,False
0.14,0.4641038386738467,2.800000000000001,6164.0,12.07752,0.2,68900.0,0.33,276.0,2700.0,17.893587116292395,1.2468040779795022,3366.371010544656,10.871641563977802,2.3134202845989438,7.021945552314593,1.0666162066194411,3765,94,1238,1902,41.90570978788817,24.1940500019685,0.0004437380217729,False
0.15,0.8157431501121197,2.800000000000001,6165.0,12.07752,0.3,68900.0,0.33,276.0,2700.0,39.995385469771975,2.9925853267623244,8079.980382258276,22.71342959254722,8.127271061677437,17.281955877224753,5.134685734915113,4009,102,1314,2032,65.76837873790716,37.97002382152585,0.0008421667804434,False
0.16,0.5431925259146867,2.800000000000001,6166.0,12.07752,0.2,68900.0,0.33,276.0,2700.0,21.85082876984329,1.73948765924806,4696.616679969762,13.264151725161089,3.266818287878896,8.586677044682197,1.527330628630836,4799,106,1580,2423,42.03113164776647,24.25701433321603,0.0004734191543811,False
0.17,0.5224333344764507,2.800000000000001,6167.0,12.07752,0.08,68900.0,0.33,276.0,2700.0,20.38214018674887,1.7221921527353914,4649.9188123855565,12.620949594500916,2.998160137595008,7.761190592247953,1.2759679848596164,35167,246,8676,19901,39.26254488492162,22.647758656241532,0.000431463500618,False
0.18,0.8165801089233578,2.800000000000001,6168.0,12.07752,0.3,68900.0,0.33,276.0,2700.0,39.03694794522219,3.501110802832838,9452.999167648662,22.745322157375774,8.146294611862007,16.29162578784641,4.645183809029169,4033,102,1326,2038,55.2584040392996,31.88292814518629,0.0007116794054836,False
0.19,0.722186548341081,2.800000000000001,6169.0,12.07752,0.3,68900.0,0.33,276.0,2700.0,32.18119674380926,3.042848234654568,8215.690233567333,19.2594027996654,6.16556834933034,12.92179394414386,3.122720114675772,3271,90,1078,1648,47.31304693045074,27.247684083344502,0.0005768532503179,False
0.2,0.5062959475900286,2.800000000000001,6170.0,12.07752,0.08,68900.0,0.33,276.0,2700.0,18.69601306004301,1.8528461451851568,5002.684591999922,12.1284315073375,2.7984737701064244,6.567581552705514,0.9456276249212678,32989,234,7988,18815,33.709943546627855,19.45546403044965,0.0003635563584954,False
0.21,0.6844391657104467,2.800000000000001,6171.0,12.07752,0.1,68900.0,0.33,276.0,2700.0,29.10345242837292,3.0364663119358943,8198.459042226914,17.928086628503696,5.463815799945338,11.175365799869224,2.4273494880094435,31512,240,7738,17863,41.14732687692,23.749392752077323,0.0004948124712623,False
0.22,0.5603033059949946,2.800000000000001,6172.0,12.07752,0.2,68900.0,0.33,276.0,2700.0,21.24464824934638,2.31461018837782,6249.447508620113,13.802454410325444,3.49837316819541,7.442193839020936,1.1837629798175904,4392,102,1456,2202,32.38424490144838,18.693923952705266,0.0003725635679576,False
0.23,0.8234325788478418,2.800000000000001,6173.0,12.07752,0.3,68900.0,0.33,276.0,2700.0,37.87271195943693,4.32987937012443,11690.67429933596,23.00709970708058,8.30305248535416,14.865612252356346,3.97317311522973,3907,100,1286,1972,44.9694966493051,25.960660983446644,0.0005742385075276,False
0.24,0.8435161132653501,2.800000000000001,6174.0,12.07752,0.3,68900.0,0.33,276.0,2700.0,38.97580796672271,4.64814403811125,12549.988902900375,23.78112743651445,8.772872004456719,15.19468053020826,4.124727966345469,3912,100,1284,1980,44.24043470156053,25.53801945613349,0.00056997917949,False
0.25,0.8477682032216098,2.800000000000001,6175.0,12.07752,0.3,68900.0,0.33,276.0,2700.0,38.95309388420431,4.836411812050648,13058.311892536747,23.94630507710432,8.874342511656398,15.00678880709999,4.03793069960575,3914,100,1288,1976,42.752908943637024,24.651475833676223,0.000552416974533,False
0.26,0.8139362755504143,2.800000000000001,6176.0,12.07752,0.3,68900.0,0.33,276.0,2700.0,36.24592706371049,4.675159429962125,12622.930460897738,22.6446381296126,8.08629290466534,13.60128893409789,3.411133474703215,3680,96,1214,1853,39.57374470761884,22.84279832310397,0.0005069080340062,False
0.27,0.8890648818124127,2.800000000000001,6177.0,12.07752,0.3,68900.0,0.33,276.0,2700.0,41.281273421002254,5.531747933034903,14935.719419194238,25.574162625089496,9.896710426774792,15.707110795912758,4.364962493739889,3900,102,1288,1962,41.30327629666068,23.845370373273678,0.0005487934180921,False
0.28,0.755408992132492,2.800000000000001,6178.0,12.07752,0.1,68900.0,0.33,276.0,2700.0,31.664761197031947,4.387090406296736,11845.144097001186,20.460757331803286,6.825291944400675,11.20400386522866,2.4382015381039395,38535,252,8522,22668,35.4760933303175,20.47952657853288,0.0004358871963607,False
0.29,0.9188139987997248,2.800000000000001,6179.0,12.07752,0.3,68900.0,0.33,276.0,2700.0,42.80489615894978,6.155629740895453,16620.200300417724,26.773391027883825,10.67530203379672,16.031505131065956,4.519672292901266,4184,106,1376,2114,39.92405623764646,23.03936595482599,0.000537508013947,False
0.3,0.8821481191081402,2.800000000000001,6180.0,12.07752,0.3,68900.0,0.33,276.0,2700.0,39.79890801508189,5.913287534497666,15965.876343143698,25.29852521935204,9.720773964854793,14.500382795729855,3.807486430357127,3961,102,1306,1996,37.229401500068505,21.430974481826336,0.0004938983935896,False
0.31,0.9076810613693878,2.800000000000001,6181.0,12.07752,0.3,68900.0,0.33,276.0,2700.0,41.32594901842077,6.343127973359789,17126.445528071432,26.32200237571521,10.37975107743032,15.00394664270556,4.036623104070531,4078,104,1342,2059,36.96314150408308,21.30596341784908,0.0004979320001964,False
0.32,0.6357241843126085,2.800000000000001,6182.0,12.07752,0.05,68900.0,0.33,276.0,2700.0,23.070030744757744,3.62257578044602,9780.954607204254,16.26288284128683,4.631251707779208,6.807147903470913,1.0086759273331871,210055,412,24462,140488,36.58402448843894,20.5810819527059,0.0003221288445127,False
0.33,0.8091210652499599,2.800000000000001,6183.0,12.07752,0.3,68900.0,0.33,276.0,2700.0,33.77555008826168,5.497699487768472,14843.788616974874,22.461713784775263,7.977694853319995,11.313836303486418,2.479995365551523,3366,92,1112,1692,31.68740596079632,18.280293873290272,0.0004066946870261,False
0.34,0.6497630388939237,2.800000000000001,6184.0,12.07752,0.05,68900.0,0.33,276.0,2700.0,23.392068379624764,3.8943335194317488,10514.70050246572,16.736649648326033,4.862883731713073,6.655418731298731,0.9685502122813244,222948,416,24994,149847,33.37234181097125,18.55204069254191,0.0003150060807162,False
0.3500000000000001,0.8868150112825322,2.800000000000001,6185.0,12.07752,0.3,68900.0,0.33,276.0,2700.0,38.54977033787912,6.656412619113739,17972.314071607096,25.484371903681755,9.839272904559555,13.06539843419737,3.182860285445818,3723,98,1226,1878,33.12134264542136,19.107043488607,0.0004348396211608,False
0.36,0.9567605289297878,2.800000000000001,6186.0,12.07752,0.3,68900.0,0.33,276.0,2700.0,43.30928405560127,7.697955032110969,20784.478586699617,28.3353492692686,11.720780331652042,14.973934786332666,4.022825299541073,4208,106,1384,2122,34.145941874659655,19.69756318075588,0.000466915560261,False
0.37,0.8495015384095806,2.800000000000001,6187.0,12.07752,0.3,68900.0,0.33,276.0,2700.0,35.338882249110995,6.4316058209640135,17365.335716602836,24.01376897769717,8.91590794273781,11.325113271413825,2.484302121773797,3541,94,1174,1774,29.93617347358602,17.23004643760883,0.0003920379389137,False
0.38,1.0199085401813694,2.800000000000001,6188.0,12.07752,0.3,68900.0,0.33,276.0,2700.0,47.41844908280368,8.894581677674186,24015.3705297203,31.01487567575892,13.594177270968482,16.403573407044764,4.699595593294296,4549,112,1508,2281,34.36961550031596,19.7989548883374,0.0004845346612514,False
0.39,0.845793379554117,2.800000000000001,6189.0,12.07752,0.2,68900.0,0.33,276.0,2700.0,34.49890346050165,6.603048751718962,17828.2316296412,23.86953412030174,8.827128602322706,10.629369340199911,2.224079850603744,9413,134,2342,5300,30.592947804888944,17.65528631015375,0.00037910564005,False
0.4,0.8941698118194761,2.800000000000001,6190.0,12.07752,0.2,68900.0,0.33,276.0,2700.0,37.541013434348535,7.37416140031587,19910.23578085285,25.778368539043974,10.02778568678536,11.762644895304556,2.6536242864694906,10577,142,2632,5959,31.019221938403312,17.902601924638304,0.0003975807201698,False
0.4100000000000001,1.072109167688039,2.800000000000001,6191.0,12.07752,0.3,68900.0,0.33,276.0,2700.0,50.46292887786894,10.200552615111096,27541.49206079996,33.30554302260889,15.272662469259322,17.157385855260053,5.072109854148225,4647,114,1542,2328,33.480755931405426,19.296527889395648,0.0004842134909623,False
0.42,0.8001907800649117,2.800000000000001,6192.0,12.07752,0.2,68900.0,0.33,276.0,2700.0,30.629076930669708,6.276936611094532,16947.728849955234,22.12400497765529,7.778614753063202,8.505071953014422,1.5016781419686709,8435,124,2124,4725,27.798977756149405,16.04855750267878,0.0003348317563261,False
0.43,0.9881834605329284,2.800000000000001,6193.0,12.07752,0.3,68900.0,0.33,276.0,2700.0,43.39153971211324,9.162661966698376,24739.18731008561,29.656174675697027,12.6318471940504,13.735365036416209,3.4691852273520247,3986,104,1330,1985,30.37950187590948,17.522014787928782,0.0004184306379019,False
0.44,0.9786170358012818,2.800000000000001,6194.0,12.07752,0.3,68900.0,0.33,276.0,2700.0,42.37288831566487,9.143626477043997,24687.791488018785,29.251433950603065,12.35008142564063,13.121454365061808,3.206454948596635,4100,104,1362,2047,29.39886062800605,16.92415464755943,0.0004054519314509,False
0.45,1.0084532367642305,2.800000000000001,6195.0,12.07752,0.3,68900.0,0.33,276.0,2700.0,44.26525425979133,9.768830454747295,26375.8422278177,30.52135755290816,13.241722307894616,13.743896706883175,3.4728918531473205,4186,106,1394,2087,29.74437222345533,17.108601849615162,0.0004129917056888,False
0.46,1.0736764372830676,2.800000000000001,6196.0,12.07752,0.3,68900.0,0.33,276.0,2700.0,48.904216362276046,11.04410972163694,29819.09624841974,33.37537688213222,15.324915950364073,15.528839480143825,4.280806228727132,4626,112,1510,2333,30.375580925284936,17.480507725367374,0.000439623190295,False
0.4700000000000001,0.8551681799111428,2.800000000000001,6197.0,12.07752,0.1,68900.0,0.33,276.0,2700.0,32.87536027064209,7.5082632808851235,20272.310858389832,24.234849767683333,9.05261137432836,8.640510502958758,1.5443480934432374,58922,256,8832,37936,28.579572145074177,16.13964955573192,0.000333186338698,False
0.4800000000000001,0.926844092426695,2.800000000000001,6198.0,12.07752,0.3,68900.0,0.33,276.0,2700.0,37.47132216529307,8.761493976506468,23656.033736567464,27.10090757053538,10.89160878023581,10.370414594757689,2.1301148037293416,4013,96,1220,2097,28.94908936272882,16.69670315918476,0.000354554760117,False
0.49,0.9346665758233966,2.800000000000001,6199.0,12.07752,0.3,68900.0,0.33,276.0,2700.0,37.72922569156873,8.997256805032881,24292.59337358878,27.42151480465465,11.10485814960586,10.307710886914077,2.107601344572979,3808,96,1168,1980,27.599094608351155,15.841357446591738,0.0003531935182594,False
0.5,1.0633852088403333,2.800000000000001,6200.0,12.07752,0.3,68900.0,0.33,276.0,2700.0,46.81814473738606,11.442736796547363,30895.38935067788,32.91795207698152,14.983798336850366,13.900192660404542,3.5410615403030032,4556,108,1436,2334,30.65826869467385,17.66160405260454,0.0004051570640499,False
0.01,0.4798450650445218,2.800000000000001,6201.0,15.0969,0.05,68900.0,0.33,276.0,2700.0,22.37532581932865,0.1118745347015418,302.06124369416284,11.335298294682326,2.488194349154733,11.040027524646325,2.376319814453191,72904,416,24162,36655,767.8797849317756,436.1077194319189,0.0068964288425599,True
0.02,0.6146214623424894,2.800000000000001,6202.0,15.0969,0.1,68900.0,0.33,276.0,2700.0,30.464329576110572,0.3046265406002877,822.4916596207768,15.560051924200147,4.295496117682881,14.904277651910428,3.990869577082593,25268,250,8368,12710,436.9403478191152,252.10117958995457,0.0048102714204347,True
0.03,0.4427568554676775,2.800000000000001,6203.0,15.0969,0.1,68900.0,0.33,276.0,2700.0,19.655324801386435,0.2947733233530328,795.8879730531887,10.252816718953952,2.0879689301134188,9.402508082432483,1.7931956067603858,15941,192,5242,8072,230.43925364654905,131.39432678275185,0.0021648607526902,False
0.04,0.3566588810944907,2.800000000000001,6204.0,15.0969,0.1,68900.0,0.33,276.0,2700.0,14.70420269420773,0.293950012597602,793.6650340135254,7.873182935123877,1.3089997139329752,6.831019759083853,1.0150497013353732,12196,164,3998,6193,136.8684802962382,78.18884915895912,0.0012809374519229,False
0.05,0.7329289658519682,2.800000000000001,6205.0,15.0969,0.1,68900.0,0.33,276.0,2700.0,37.520392238725655,0.9377480065803354,2531.919617766905,19.644823978542185,6.37452847646649,17.87556826018347,5.436780469886155,30834,282,10126,15639,264.1037637340153,150.64814090821818,0.0025224107092372,False
0.06,0.6980878582945317,2.800000000000001,6206.0,15.0969,0.2,68900.0,0.33,276.0,2700.0,34.74763299597004,1.0419766005369837,2813.3368214498555,18.405330441605056,5.711762294855897,16.34230255436498,4.6697856943189135,7347,138,2404,3735,171.3501139361251,97.8598444497918,0.0020000543306079,False
0.0699999999999999,0.6651629385257057,2.800000000000001,6207.0,15.0969,0.1,68900.0,0.33,276.0,2700.0,32.18394397685661,1.1257196616698624,3039.4430865086283,17.262044420838244,5.124664320717195,14.921899556018367,3.998944659047333,26690,258,8782,13511,158.99107471619985,91.00340068141765,0.0016292817476331,False
0.08,0.5263048565825181,2.800000000000001,6208.0,15.0969,0.2,68900.0,0.33,276.0,2700.0,23.09495878417522,0.9227260210745852,2491.36025690138,12.740083111242024,3.0472529154356667,10.354875672933195,2.1245268943610816,4979,110,1632,2525,99.29821034390407,57.32656210484331,0.0010735205226552,False
0.09,0.7443491916343732,2.800000000000001,6209.0,15.0969,0.2,68900.0,0.33,276.0,2700.0,36.950235577135295,1.6612337869414455,4485.331224741903,20.05774443905598,6.601231504718228,16.892491138079315,4.939997717776782,7663,142,2518,3880,125.5916738395247,71.91093923128362,0.0014953217047175,False
0.0999999999999999,0.6395835654896649,2.800000000000001,6210.0,15.0969,0.3,68900.0,0.33,276.0,2700.0,29.544185044941862,1.4751148571447017,3982.810114290694,16.392631024683922,4.694266625154041,13.15155402025794,3.21915176800934,3049,86,1000,1543,97.92632987586312,56.537784472107305,0.0011160913042417,False
0.11,0.6894183831499126,2.800000000000001,6211.0,15.0969,0.3,68900.0,0.33,276.0,2700.0,32.514162517502264,1.785491298581337,4820.826506169609,18.101648814051455,5.553515484924372,14.412513703450806,3.768024186343035,3368,92,1102,1709,95.56342281964432,55.169892789787504,0.0011262595768318,False
0.12,0.6825955866869771,2.800000000000001,6212.0,15.0969,0.3,68900.0,0.33,276.0,2700.0,31.739110614860405,1.9007275221546849,5131.964309817649,17.863982465257124,5.430823059174748,13.87512814960328,3.5300955370200637,3093,88,1016,1563,87.37582712791166,50.44453763208684,0.0010247495022929,False
0.13,0.60750735771879,2.800000000000001,6213.0,15.0969,0.2,68900.0,0.33,276.0,2700.0,26.59168514481932,1.7238581483732975,4654.417000607903,15.32563760567078,4.185634858420942,11.266047539148538,2.461776710047644,5459,116,1798,2756,71.7089489947729,41.40111250783683,0.0008197375320552,False
0.14,0.4459300802504738,2.800000000000001,6214.0,15.0969,0.08,68900.0,0.33,276.0,2700.0,16.90241030589865,1.1774217012519386,3179.038593380234,10.344080213048375,2.120648155089284,6.558330092850271,0.9432264538373456,24567,222,7274,13024,51.15487399278384,29.50682592106432,0.000531020984572,False
0.15,0.5825277114645434,2.800000000000001,6215.0,15.0969,0.3,68900.0,0.33,276.0,2700.0,24.472960877942946,1.8284034823751456,4936.689402412893,14.512616551377338,3.8129929866368166,9.960344326565608,1.984589504261671,2707,80,882,1378,62.293596540669895,35.96466571942713,0.000682832732474,False
0.16,0.4987262393106643,2.800000000000001,6216.0,15.0969,0.1,68900.0,0.33,276.0,2700.0,19.300648377066672,1.5354732278259295,4145.77771513001,11.899656754803107,2.7075318692183825,7.4009916222635646,1.172058641392453,16048,192,5262,8109,49.2941792987144,28.45969805823103,0.0005356904562112,False
0.17,0.6767032534722758,2.800000000000001,6217.0,15.0969,0.3,68900.0,0.33,276.0,2700.0,29.800451610132683,2.522748623723226,6811.42128405271,17.65966951224039,5.326164890417585,12.140782097892291,2.8034162666943594,3004,86,984,1522,62.37904438595304,36.00718577608247,0.0007351013883074,False
0.18,0.6065605180573006,2.800000000000001,6218.0,15.0969,0.3,68900.0,0.33,276.0,2700.0,25.085478960450203,2.245478594203363,6062.79220434908,15.294534542271975,4.1711386634831085,9.790944418178228,1.9256600692797456,2596,78,846,1321,53.64694638813318,30.97023809368478,0.0006080612678655,False
0.19,0.6678848088986808,2.800000000000001,6219.0,15.0969,0.3,68900.0,0.33,276.0,2700.0,28.63274528814923,2.7057453463668635,7305.5124351905315,17.355525673096245,5.171776547694853,11.277219615052983,2.46603120132799,2803,82,914,1426,56.04177893150801,32.32598439215691,0.0006525399471296,False
0.2,0.6490450125872111,2.800000000000001,6220.0,15.0969,0.2,68900.0,0.33,276.0,2700.0,27.146211672366263,2.697866006417488,7284.238217327218,16.71229834462072,4.850875120193079,10.433913327745543,2.1530091137755907,5849,120,1924,2957,50.62838695096283,29.18344951150375,0.0006010636251377,False
0.21,0.709351423633457,2.800000000000001,6221.0,15.0969,0.3,68900.0,0.33,276.0,2700.0,30.72119816294597,3.20632961406606,8657.089957978362,18.80270139562944,5.921306850862616,11.918496767316537,2.7149772367965563,3001,86,986,1516,53.58147253241425,30.935277537919568,0.0006441574687311,False
0.22,0.7770019023689019,2.800000000000001,6222.0,15.0969,0.3,68900.0,0.33,276.0,2700.0,34.95447075815066,3.822690664346289,10321.26479373498,21.256450936929696,7.275668825230412,13.698019821220967,3.452978160884123,3479,94,1144,1757,55.09213349153792,31.807080110178184,0.0006922960794829,False
0.23,0.6122447427951591,2.800000000000001,6223.0,15.0969,0.2,68900.0,0.33,276.0,2700.0,24.04248226455144,2.739402955212597,7396.387979074012,15.481595997708853,4.258607500102726,8.560886266842587,1.5192045448901288,4939,108,1636,2479,42.61373913394856,24.497243923704943,0.0004971453435392,False
0.24,0.5818965318399179,2.800000000000001,6224.0,15.0969,0.2,68900.0,0.33,276.0,2700.0,21.97615816925656,2.608186062415303,7042.102368521319,14.492276468941634,3.803839338419027,7.483881700314926,1.1956532760037244,4641,104,1534,2334,38.92435384425018,22.37957361000201,0.0004523307885304,False
0.25,0.8949232247135103,2.800000000000001,6225.0,15.0969,0.3,68900.0,0.33,276.0,2700.0,42.38132360308793,5.264940526911095,14215.339422659958,25.808561805644946,10.047218815130904,16.572761797442986,4.782278288219809,4011,104,1322,2022,55.35955235075504,31.96150606299927,0.000741706497168,False
0.26,0.6469972407555574,2.800000000000001,6226.0,15.0969,0.05,68900.0,0.33,276.0,2700.0,25.33335790707137,3.256525439599617,8792.618686918966,16.642920928172263,4.816723198944967,8.690436978899111,1.5601977593453498,197331,442,27274,128758,48.18862446709985,27.121642241898,0.000483902010704,False
0.27,0.8191059410938055,2.800000000000001,6227.0,15.0969,0.3,68900.0,0.33,276.0,2700.0,36.291031321281054,4.8580652495725385,13116.776173845854,22.84167648147724,8.203867131970227,13.449354839803815,3.345801882397689,3679,96,1214,1852,47.833354099921685,27.61052390267907,0.0006164766743948,False
0.28,0.7842498411346888,2.800000000000001,6228.0,15.0969,0.3,68900.0,0.33,276.0,2700.0,33.59261382460199,4.656989774156539,12573.872390222656,21.526162588858732,7.430710909320423,12.066451235743257,2.773721135163884,3421,92,1128,1723,44.586565011561305,25.692864719999527,0.0005638860730734,False
0.29,0.8709663449840758,2.800000000000001,6229.0,15.0969,0.3,68900.0,0.33,276.0,2700.0,39.31778646985443,5.649998835976636,15254.99685713692,24.8554674915824,9.440371584030702,14.46231897827203,3.7903727480540654,3975,102,1308,2007,47.43895083302597,27.38265884865636,0.0006260640980633,False
0.3,0.9823443407758462,2.800000000000001,6230.0,15.0969,0.3,68900.0,0.33,276.0,2700.0,47.26410985857806,7.0330678110220335,18989.28308975949,29.408856997790544,12.459403714317872,17.855252860787516,5.426335903295839,4554,112,1506,2289,51.11199057071675,29.50359197634925,0.0007117499449297,False
0.31,0.7019225829485218,2.800000000000001,6231.0,15.0969,0.2,68900.0,0.33,276.0,2700.0,27.36555727931924,4.179267253799084,11284.021585257527,18.540258944130613,5.782600257989672,8.825298335188627,1.6033330041905876,5996,120,1930,3047,36.66345894907182,21.129687251626475,0.0004553594458815,False
0.32,0.9114783222129124,2.800000000000001,6232.0,15.0969,0.3,68900.0,0.33,276.0,2700.0,41.27774577270161,6.535810184917036,17646.687499276,26.47561353775422,10.479994122524516,14.802132234947386,3.944183937607479,4026,104,1330,2025,45.14422469905095,25.998277139805243,0.000606076641786,False
0.33,0.9713983622154247,2.800000000000001,6233.0,15.0969,0.3,68900.0,0.33,276.0,2700.0,45.40131749831412,7.41595111042713,20023.06799815325,28.947545586269754,12.14002249531423,16.453771912044367,4.7240713848871,4437,110,1466,2232,46.80629371578942,26.98945124256003,0.0006431095822965,False
0.34,0.6787638451841415,2.800000000000001,6234.0,15.0969,0.08,68900.0,0.33,276.0,2700.0,25.132993396176204,4.190290772245494,11313.785085062837,17.73102001578751,5.362627752852322,7.401973380388693,1.1723369806068271,65203,274,10618,41238,39.60719594781989,22.348030302227887,0.0004122031709317,False
0.3500000000000001,0.763456752539251,2.800000000000001,6235.0,15.0969,0.3,68900.0,0.33,276.0,2700.0,30.178033552390207,5.19135868165318,14016.668440463587,20.75594555173877,6.991141927531557,9.422088000651438,1.799783245878377,2928,84,966,1473,36.16551806774224,20.7856232253875,0.0004518859926829,False
0.36,0.8067807849495421,2.800000000000001,6236.0,15.0969,0.3,68900.0,0.33,276.0,2700.0,32.74160955363271,5.795773621756496,15648.588778742538,22.373019641183376,7.925231958459585,10.368589912449336,2.129458336703089,3348,90,1104,1686,37.62504200115752,21.70936356109847,0.0004720549431751,False
0.37,0.807970696784194,2.800000000000001,6237.0,15.0969,0.3,68900.0,0.33,276.0,2700.0,32.5337420101927,5.912654876764126,15964.16816726314,22.418098837555405,7.951880695913267,10.115643172637292,2.0392258191491406,3229,90,1064,1627,36.34664258290847,20.97334931777059,0.0004625238046886,False
0.38,0.9766874992833317,2.800000000000001,6238.0,15.0969,0.3,68900.0,0.33,276.0,2700.0,44.14163170568252,8.271986376021157,22334.363215257126,29.170076972258347,12.293718221306756,14.971554733424174,4.021731845285599,4310,108,1422,2167,41.27661684734323,23.751004054065945,0.0005731122090959,False
0.39,0.8401895150346101,2.800000000000001,6239.0,15.0969,0.2,68900.0,0.33,276.0,2700.0,34.11919994404952,6.529006566010795,17628.317728229147,23.65221846909001,8.69397623927375,10.46698147495951,2.164969673262955,9409,134,2350,5292,37.70881941159348,21.74210264517337,0.0004702852833304,False
0.4,0.73839664257241,2.800000000000001,6240.0,15.0969,0.08,68900.0,0.33,276.0,2700.0,27.23449798750985,5.312858310948809,14344.717439561786,19.842109465012125,6.482479027494516,7.392388522497729,1.1696207165457064,78904,284,11386,51141,33.813481463602834,19.5171567730775,0.0003998060608777,False
0.4100000000000001,0.9679494395892696,2.800000000000001,6241.0,15.0969,0.3,68900.0,0.33,276.0,2700.0,42.53078239153308,8.574462585412244,23151.048980613057,28.802816783425147,12.040434315514386,13.727965608107931,3.465971730102142,4055,104,1348,2023,38.93083036269808,22.329279040279765,0.0005304926011991,False
0.42,0.743242297911188,2.800000000000001,6242.0,15.0969,0.08,68900.0,0.33,276.0,2700.0,27.01735917147293,5.51847588166321,14899.884880490668,20.01757909033596,6.5790519455239584,6.999780081136969,1.0605760638607489,82028,284,11384,53466,35.41050027287245,19.999802538764413,0.0003877327825015,False
0.43,0.8139465621293862,2.800000000000001,6243.0,15.0969,0.2,68900.0,0.33,276.0,2700.0,31.25224129670336,6.552712807385253,17692.324579940185,22.64502952877689,8.086525842536282,8.607211767926465,1.533813035151029,8655,128,2142,4882,34.12668546839562,19.70115816071548,0.0004193265545685,False
0.44,0.9112139807732804,2.800000000000001,6244.0,15.0969,0.2,68900.0,0.33,276.0,2700.0,37.54520748844049,8.081536695054645,21820.14907664754,26.46490835818124,10.472996935676772,11.080299130259249,2.391460240622127,10206,140,2538,5749,36.334613740488045,20.95381746175851,0.0004702463299195,False
0.45,1.1232168804673166,2.800000000000001,6245.0,15.0969,0.3,68900.0,0.33,276.0,2700.0,53.153792296341926,11.768751512971347,31775.629085022643,35.61459968710574,17.033558310788553,17.53919260923619,5.264806797817204,4909,118,1630,2456,40.19966073961754,23.149090039462667,0.000593608567625,False
0.46,0.9703586860878884,2.800000000000001,6246.0,15.0969,0.3,68900.0,0.33,276.0,2700.0,41.15569677640045,9.261950216885555,25007.265585591,28.903885679016465,12.109949121652775,12.251811097383989,2.84799890476722,3925,102,1300,1959,34.80477887881487,19.897707965724543,0.0004815731889763,False
0.4700000000000001,0.8208678545921808,2.800000000000001,6247.0,15.0969,0.1,68900.0,0.33,276.0,2700.0,30.628797718707045,6.980321081180383,18846.86691918704,22.908984109644766,8.244171473742313,7.719813609062278,1.263850392561929,54711,244,8238,35198,34.48199083940779,19.79980961197176,0.0003974376115732,False
0.4800000000000001,0.8041112429504031,2.800000000000001,6248.0,15.0969,0.08,68900.0,0.33,276.0,2700.0,29.29415101812118,6.798972901185203,18357.22683320005,22.2720148898732,7.865641100937014,7.022136128247983,1.0666681997518117,98841,296,12216,65527,34.226128613652754,19.592735053636613,0.0003828433770149,False
0.49,0.901363174191697,2.800000000000001,6249.0,15.0969,0.2,68900.0,0.33,276.0,2700.0,35.43078293180992,8.434138328891974,22772.17348800833,26.067227009840085,10.214256985308522,9.363555921969835,1.7801186564165477,9939,136,2462,5606,33.63689486440101,19.417912052385876,0.0004255175020846,False
0.5,0.8274211637742251,2.800000000000001,6250.0,15.0969,0.1,68900.0,0.33,276.0,2700.0,30.26748164429769,7.30507102327527,19723.691762843227,23.1600147094553,8.395123080785375,7.107466934842385,1.0900520575101051,55577,240,7992,36029,34.76097172401111,19.628541403736047,0.0003829388431386,False
0.01,0.4046129473910239,2.800000000000001,6251.0,18.11628,0.05,68900.0,0.33,276.0,2700.0,18.074804843597654,0.0903719298228852,244.0042105217901,9.175583860091464,1.7175476014969997,8.899220983506195,1.6271756716741144,58983,366,19514,29706,745.7323217502376,423.86038368115766,0.0067122570082367,True
0.02,0.7064368460787985,2.800000000000001,6252.0,18.11628,0.1,68900.0,0.33,276.0,2700.0,36.697216855989865,0.3669554133990803,990.7796161775168,18.69957128694239,5.866655261612345,17.997645569047474,5.499699848213265,30138,280,9990,15147,677.251611601255,385.3411973222173,0.0071318382463808,True
0.03,0.6478068676404303,2.800000000000001,6253.0,18.11628,0.1,68900.0,0.33,276.0,2700.0,32.33576341230314,0.4849799025164567,1309.445736794433,16.670338057835224,4.830208852882374,15.665425354467914,4.345228950365918,26739,258,8806,13524,437.6747283714828,249.41048836309636,0.0041792631529553,True
0.04,0.6205853581697038,2.800000000000001,6254.0,18.11628,0.1,68900.0,0.33,276.0,2700.0,30.207601486594925,0.6040179884453449,1630.8485688024314,15.757546248352243,4.3888831199409,14.45005523824268,3.784865131495555,24972,248,8196,12672,320.15550060334346,182.7883071803307,0.0030098512695554,True
0.05,0.6738712274773822,2.800000000000001,6255.0,18.11628,0.2,68900.0,0.33,276.0,2700.0,33.42852097401357,0.8354512249625402,2255.7183073988585,17.561781274783105,5.276290905886108,15.866739699230468,4.440839680923568,6949,134,2290,3508,234.8703730404548,135.32420770762465,0.002718681299686,False
0.06,0.4424231286308707,2.800000000000001,6256.0,18.11628,0.1,68900.0,0.33,276.0,2700.0,18.80897200109658,0.5638167706907814,1522.3052808651098,10.243233279409925,2.08454888922477,8.565738721686659,1.5207321185339886,15460,188,5078,7837,143.7428307508604,82.45072713677119,0.0013610008728648,False
0.0699999999999999,0.6134275542549745,2.800000000000001,6257.0,18.11628,0.2,68900.0,0.33,276.0,2700.0,28.792118905584747,1.0070057841753477,2718.9156172734383,15.52062306431875,4.276942386630052,13.271495841265995,3.2699366024547043,6345,124,2080,3219,163.63094434940444,93.79297851961113,0.001766736540315,False
0.08,0.5666078288643756,2.800000000000001,6258.0,18.11628,0.2,68900.0,0.33,276.0,2700.0,25.539056370865907,1.0204899245415378,2755.322796262152,14.002648871510884,3.586021598132565,11.536407499355024,2.5655316735910274,5450,114,1792,2756,127.66345408192709,73.62662375476815,0.0014130621059894,False
0.09,0.3905652488983246,2.800000000000001,6259.0,18.11628,0.05,68900.0,0.33,276.0,2700.0,15.21113144074596,0.6829741008039237,1844.0300721705944,8.788072158096574,1.5913793956733862,6.423059282649385,0.9084052948694624,57546,334,16482,30885,79.13215357506621,45.64530632444136,0.0008109647562747,False
0.0999999999999999,0.5635446985281196,2.800000000000001,6260.0,18.11628,0.2,68900.0,0.33,276.0,2700.0,24.760543811871692,1.2359327954911918,3337.018547826218,13.905257149815355,3.5432788815489995,10.855286662056338,2.307346086057808,5193,112,1704,2631,103.29796944011922,59.61833985564862,0.0011406828326985,False
0.11,0.5881346243225201,2.800000000000001,6261.0,18.11628,0.2,68900.0,0.33,276.0,2700.0,25.978357482901934,1.4260220216783213,3850.2594585314673,14.693741679180857,3.8948713702125257,11.28461580372108,2.4688493485342047,5682,116,1856,2892,97.76422709341968,56.35748619519467,0.001102675996382,False
0.12,0.4275539244751777,2.800000000000001,6262.0,18.11628,0.05,68900.0,0.33,276.0,2700.0,16.418500587447234,0.9814909205098972,2650.025485376723,9.819083685615858,1.9354004311130384,6.599416901831376,0.9539095106031408,72196,346,17628,41058,66.47500518067352,38.35679264476912,0.0006967018611342,False
0.13,0.6800069735775915,2.800000000000001,6263.0,18.11628,0.3,68900.0,0.33,276.0,2700.0,31.25176802934041,2.026763535867169,5472.261546841357,17.774116463427774,5.384696470464115,13.477651565912636,3.357932934596945,3105,88,1018,1572,97.08374975649392,56.04547319570775,0.0011367016493979,False
0.14,0.7537472896648445,2.800000000000001,6264.0,18.11628,0.3,68900.0,0.33,276.0,2700.0,35.93118841000939,2.5094361685396898,6775.477655057162,20.400009584000777,6.791342735403584,15.531178826008611,4.281906566863894,3552,94,1158,1809,98.37673945465028,56.75213625098585,0.0012132200353118,False
0.15,0.8419569505678184,2.800000000000001,6265.0,18.11628,0.3,68900.0,0.33,276.0,2700.0,41.91105001008671,3.1362601672859287,8467.902451672007,23.720673712465167,8.735840494186508,18.190376297621544,5.599580326900579,4161,104,1368,2103,101.5357774602476,58.562877011719465,0.0013173966688907,False
0.16,0.7010143605228879,2.800000000000001,6266.0,18.11628,0.3,68900.0,0.33,276.0,2700.0,31.70442378228422,2.5277752602433363,6824.993202657008,18.50826885773752,5.765776107665526,13.1961549245467,3.2380008474221897,3153,88,1030,1602,82.07741266467,47.361018110551846,0.0009750045856133,False
0.17,0.6347200389526355,2.800000000000001,6267.0,18.11628,0.3,68900.0,0.33,276.0,2700.0,27.1188605216428,2.294813381201583,6195.996129244275,16.22918594034534,4.614938329848258,10.889674581297465,2.3201249486466744,2891,82,936,1481,70.92298618634324,40.94723883557817,0.0008131023575963,False
0.18,0.8537536948104798,2.800000000000001,6268.0,18.11628,0.3,68900.0,0.33,276.0,2700.0,41.73731200073291,3.7441435678288086,10109.187633137784,24.17958885544915,9.018370629210926,17.557723145283763,5.274227061382117,4140,104,1364,2088,86.10896259569829,49.61520992647502,0.0011325260378032,False
0.19,0.7518744369688521,2.800000000000001,6269.0,18.11628,0.3,68900.0,0.33,276.0,2700.0,34.1838766996814,3.2331028304624145,8729.377642248519,20.3316258897398,6.7532005725074455,13.852250809941598,3.520097742045031,3291,90,1080,1665,73.27190877715363,42.290816311893664,0.0009114491450108,False
0.2,0.6187780133348241,2.800000000000001,6270.0,18.11628,0.2,68900.0,0.33,276.0,2700.0,25.268956810417283,2.5101405202225817,6777.379404600971,15.697601647648195,4.360457982765438,9.571355162769086,1.8503174625428565,5331,114,1756,2691,122.53932418786552,70.06090887479955,0.0006749216532392,False
0.21,0.5842147602314993,2.800000000000001,6271.0,18.11628,0.2,68900.0,0.33,276.0,2700.0,22.91031451587388,2.386186831123493,6442.704444033432,14.5670316972452,3.8375223689411166,8.343282818628682,1.4513355378176231,4753,106,1570,2392,52.821534592061326,30.490226930467347,0.0006097998957635,False
0.22,0.8034071868436635,2.800000000000001,6272.0,18.11628,0.3,68900.0,0.33,276.0,2700.0,36.786380866661446,4.024200776282475,10865.342095962684,22.24540608118032,7.8499697206224655,14.54097478548113,3.8257689443399903,3770,98,1232,1916,68.67899514011094,39.650287657572505,0.000867693691198,False
0.23,0.8563235284507471,2.800000000000001,6273.0,18.11628,0.3,68900.0,0.33,276.0,2700.0,40.22843356468069,4.600787354727457,12422.125857764133,24.28002407809317,9.080637165421797,15.948409486587522,4.479849810694338,3998,102,1310,2027,68.60635480304744,39.57601694405897,0.0009067277543585,False
0.24,0.591221081092109,2.800000000000001,6274.0,18.11628,0.1,68900.0,0.33,276.0,2700.0,22.52292774286327,2.67379841124811,7219.255710369896,14.793783433756564,3.940377294384218,7.729144309106708,1.2665788831361082,25655,210,6326,14522,49.53219761795485,28.57831622236551,0.0005580408246819,False
0.25,0.8486395182731648,2.800000000000001,6275.0,18.11628,0.3,68900.0,0.33,276.0,2700.0,39.01542604536549,4.84420333219579,13079.348996928631,23.980208474649835,8.895222056584062,15.035217570715652,4.051018724388272,3914,100,1288,1976,64.18287786634279,37.00779858171205,0.0008297359592799,False
0.26,0.7164070611144095,2.800000000000001,6276.0,18.11628,0.2,68900.0,0.33,276.0,2700.0,29.70044420681749,3.824246658566612,10325.46597812985,19.053243755040736,6.054855027960113,10.647200451776754,2.2306083693935017,6207,124,2056,3117,52.82749406803205,30.48326418020218,0.000647587678546,False
0.27,0.8029693183552891,2.800000000000001,6277.0,18.11628,0.3,68900.0,0.33,276.0,2700.0,35.174906384235435,4.707388383071383,12709.948634292732,22.228863741869432,7.840232780148806,12.946042642366002,3.132844397077424,3452,94,1138,1739,56.90687744810868,32.85073174486466,0.0007212704307559,False
0.28,0.6282220562666994,2.800000000000001,6278.0,18.11628,0.08,68900.0,0.33,276.0,2700.0,23.661763479254606,3.266670725807909,8820.010959681355,16.011740584364222,4.510188413318102,7.650022894890384,1.243517687510193,54513,266,10070,33590,46.13406872156885,26.62334558748312,0.0005287959390743,False
0.29,0.6905498608331875,2.800000000000001,6279.0,18.11628,0.1,68900.0,0.33,276.0,2700.0,27.20416808409372,3.893524170041324,10512.515259111571,18.141175981315925,5.574019455607908,9.062992102777796,1.6804952855665842,35508,232,7380,21262,48.60125220863676,28.04043449677897,0.0005714009221988,False
0.3,0.7906969333832263,2.800000000000001,6280.0,18.11628,0.3,68900.0,0.33,276.0,2700.0,33.425748301522,4.95731357746368,13384.746659151935,21.767182514689527,7.570268442893465,11.658565786832472,2.612954865429785,3400,92,1116,1720,50.95237467727009,29.389909964826128,0.0006434908662853,False
0.31,0.8755143607010232,2.800000000000001,6281.0,18.11628,0.3,68900.0,0.33,276.0,2700.0,39.00315048491543,5.9830942006665015,16154.354341799552,25.03529531753017,9.553823373697442,13.96785516738526,3.5707291730309407,3671,98,1218,1838,54.142233727204406,31.2247078160088,0.0007112819742554,False
0.32,1.0082218871519957,2.800000000000001,6282.0,18.11628,0.3,68900.0,0.33,276.0,2700.0,48.571309801936046,7.702780429594541,20797.50715990526,30.511424509676672,13.234662352688057,18.059885292259374,5.531881923093516,4716,114,1558,2373,59.596387770161606,34.36303978995358,0.0008329481025237,False
0.33,0.731733606465007,2.800000000000001,6283.0,18.11628,0.1,68900.0,0.33,276.0,2700.0,28.69754485950337,4.659828625023352,12581.537287563053,19.6017929393577,6.351071574074137,9.095751920145672,1.6912429490507843,41057,238,7706,25224,46.03895094086968,26.573448711852716,0.0005505910725594,False
0.34,0.9676436093801716,2.800000000000001,6284.0,18.11628,0.3,68900.0,0.33,276.0,2700.0,44.78243266848316,7.530695448537673,20332.87771105172,28.789997513098832,12.031627504354873,15.992435155384328,4.500932055817198,4428,110,1464,2226,61.659319714585735,35.54670738286089,0.0007657769433203,False
0.3500000000000001,1.0187927477173937,2.800000000000001,6285.0,18.11628,0.3,68900.0,0.33,276.0,2700.0,48.35340984147976,8.372049532242773,22604.533737055488,30.96666005759101,13.559598008640153,17.386749783888746,5.18754847639738,4517,112,1492,2273,55.63995251391639,32.12194947626604,0.0009034001873632,False
0.36,0.7380234488003816,2.800000000000001,6286.0,18.11628,0.2,68900.0,0.33,276.0,2700.0,28.27491187834546,4.991768040204926,13477.7737085533,19.82861994287749,6.475076593029952,8.446291935467968,1.4833085528250258,6626,118,1918,3533,44.53419519586457,25.71138199706828,0.0005168750437647,False
0.37,0.821146046945128,2.800000000000001,6287.0,18.11628,0.3,68900.0,0.33,276.0,2700.0,33.41426242726093,6.075551153921753,16403.98811558873,22.919618589335133,8.250546057105774,10.494643837925796,2.1749949031840217,3566,92,1182,1787,44.02512527173349,25.285335160102505,0.0005667961220841,False
0.38,0.9717629347164356,2.800000000000001,6288.0,18.11628,0.3,68900.0,0.33,276.0,2700.0,43.77423310550403,8.202180641987251,22145.887733365576,28.96286178885356,12.150578766238397,14.811371316650469,3.948398124251144,4304,108,1422,2161,49.53617544497136,28.56712908792648,0.0006836774569136,False
0.39,0.8947949209788897,2.800000000000001,6289.0,18.11628,0.3,68900.0,0.33,276.0,2700.0,37.88637139414265,7.263604998778954,19611.73349670317,25.80341898390748,10.043907810192096,12.082952410235173,2.780302811413144,3544,96,1176,1774,45.3574306791356,26.107686309687335,0.0006007430673382,False
0.4,1.0525317908048843,2.800000000000001,6290.0,18.11628,0.3,68900.0,0.33,276.0,2700.0,49.26909396280381,9.719777506007604,26243.39926622053,32.438422930933484,14.629130984906244,16.830671031870324,4.909353478898641,4730,114,1570,2369,50.65304784400577,29.203719404785726,0.0007243874910848,False
0.4100000000000001,0.924695027221385,2.800000000000001,6291.0,18.11628,0.3,68900.0,0.33,276.0,2700.0,39.397053961737306,7.932048257303952,21416.530294720676,27.013096668153484,10.833461539209054,12.383957293583824,2.9014132819051017,3551,98,1186,1766,44.43865460489664,25.60921824470219,0.0006010930920287,False
0.42,0.8864659777138628,2.800000000000001,6292.0,18.11628,0.3,68900.0,0.33,276.0,2700.0,36.41127469015584,7.491198140586624,20226.234979583885,25.470453622961557,9.830380432351369,10.940821067194287,2.339182291764745,3561,94,1174,1792,42.04630690992791,24.11157739722035,0.0005593054360224,False
0.43,1.048626548590977,2.800000000000001,6293.0,18.11628,0.3,68900.0,0.33,276.0,2700.0,47.95918627400133,10.144705977504309,27390.706139261627,32.266604562255,14.502786707236105,15.692581711746335,4.358080729731798,4338,110,1444,2166,47.52512379361488,27.359986009357357,0.0006778356098212,False
0.44,0.9825295843118216,2.800000000000001,6294.0,18.11628,0.3,68900.0,0.33,276.0,2700.0,42.66013362857961,9.206820445885253,24858.415203890178,29.416689882297685,12.464852240459392,13.243443746281924,3.2580317945741424,4063,104,1354,2024,43.90163362212718,25.307014387814235,0.000611086341623,False
0.45,0.986684946783938,2.800000000000001,6295.0,18.11628,0.3,68900.0,0.33,276.0,2700.0,42.653978586762165,9.40629342831591,25396.99225645296,29.59262293660366,12.587454632181398,13.061355650158504,3.1811612038654875,4030,104,1342,2007,43.41991092145897,24.86969423254936,0.0006030257365483,False
0.46,1.0090646993617276,2.800000000000001,6296.0,18.11628,0.3,68900.0,0.33,276.0,2700.0,43.99567744213261,9.91514577000398,26770.893579010743,30.547617301472123,13.260393004410714,13.448060140660488,3.3452472344067345,4206,106,1396,2100,43.61904023492781,25.07922793789756,0.0006084062847508,False
0.4700000000000001,0.8295295368971458,2.800000000000001,6297.0,18.11628,0.2,68900.0,0.33,276.0,2700.0,31.19052912312181,7.112327961217859,19203.28549528822,23.24100738954652,8.44403839509104,7.949521733575288,1.331710433873181,8634,126,2160,4846,39.82650317816016,22.97299546235006,0.000479797638146,False
0.4800000000000001,1.139578379998177,2.800000000000001,6298.0,18.11628,0.3,68900.0,0.33,276.0,2700.0,53.438516013414784,12.593620500055676,34002.775350150325,36.36768748659858,17.62241821635075,17.0708285268162,5.028797716295074,4904,116,1586,2487,47.83957399966775,27.56737515947254,0.000685979140361,False
0.49,0.8210296069799972,2.800000000000001,6299.0,18.11628,0.2,68900.0,0.33,276.0,2700.0,30.115974649876804,7.132010299818359,19256.42780950957,22.91516719347921,8.247877556679917,7.200807456397595,1.1158672568615584,8243,122,2026,4664,37.55224853614517,21.649520478024616,0.0004593265602254,False
0.5,1.1924222139121512,2.800000000000001,6300.0,18.11628,0.3,68900.0,0.33,276.0,2700.0,57.05259754178984,14.001349997648315,37803.64499365046,38.84594189353312,19.60939742674142,18.20665564825672,5.608047429093103,5683,122,1732,2963,48.98493692672056,28.23947340657565,0.0007072796487863,False
0.02,0.4035360759770737,2.800000000000001,6302.0,21.13566,0.08,68900.0,0.33,276.0,2700.0,17.74173357734143,0.1774005806125967,478.98156765401126,9.145702380888718,1.7076827694026169,8.596031196452714,1.53028218879002,22760,228,7498,11507,450.96885219259775,257.44905855282747,0.003986400517835,True
0.03,0.6752457281390396,2.800000000000001,6303.0,21.13566,0.1,68900.0,0.33,276.0,2700.0,34.19292959402371,0.5128373952425843,1384.6609671549777,17.609265355403668,5.300462213879616,16.58366423862004,4.787624818637031,28323,268,9336,14313,544.1341320095993,310.3304162256759,0.0051538619358302,True
0.04,0.54116714311957,2.800000000000001,6304.0,21.13566,0.1,68900.0,0.33,276.0,2700.0,25.17418993028611,0.5033497573191695,1359.0443447617577,13.200920521243804,3.2400173542804325,11.973269409042308,2.736667596961263,20370,222,6684,10338,331.3545910595486,189.2557476207112,0.0029567144628494,True
0.05,0.719539345494326,2.800000000000001,6305.0,21.13566,0.1,68900.0,0.33,276.0,2700.0,36.57731158978636,0.9141709903568668,2468.26167396354,19.16487070748256,6.114709965076651,17.412440882303795,5.200538974719784,30609,280,10054,15522,355.2820318442298,202.65871889085125,0.0034476910440594,True
0.06,0.4907227222070521,2.800000000000001,6306.0,21.13566,0.08,68900.0,0.33,276.0,2700.0,21.56834644720377,0.6465980040739958,1745.8146109997888,11.659337538067584,2.6132555360801617,9.909008909136183,1.9666575320061657,27647,254,9098,13994,185.14899728540692,106.11371920076655,0.0017991300175761,False
0.0699999999999999,0.6468585017161746,2.800000000000001,6307.0,21.13566,0.2,68900.0,0.33,276.0,2700.0,30.96850665363353,1.083179355357056,2924.584259464052,16.638224335648204,4.8144145018888285,14.330282317985322,3.731235146531773,6752,130,2218,3419,193.63897983388264,110.81252983151704,0.002203485457768,False
0.08,0.7743203624832786,2.800000000000001,6308.0,21.13566,0.2,68900.0,0.33,276.0,2700.0,39.43012693808205,1.5761327472308555,4255.558417523311,21.15699956941597,7.218802186004767,18.27312736866608,5.642669438773911,8240,148,2704,4178,210.28262487968115,120.21535731245584,0.0024568217606538,False
0.09,0.6687081488999359,2.800000000000001,6309.0,21.13566,0.1,68900.0,0.33,276.0,2700.0,31.773521799675063,1.4282816669557312,3856.3605007804745,17.38383954642668,5.186077701027623,14.389682253248385,3.757796034071891,26754,258,8800,13548,164.71030972479844,94.46467111223023,0.0018221117204673,False
0.0999999999999999,0.4727292308018833,2.800000000000001,6310.0,21.13566,0.05,68900.0,0.33,276.0,2700.0,19.428134889926728,0.9693123493939426,2617.1433433636453,11.12493060634645,2.408283470832516,8.303204283580278,1.4389711214385734,85075,380,20906,48256,98.93556779884024,57.096784584880034,0.001075411100376,False
0.11,0.5230800104066831,2.800000000000001,6311.0,21.13566,0.2,68900.0,0.33,276.0,2700.0,22.0523696887014,1.2100926929972893,3267.250271092681,12.640822739330137,3.0063282270901226,9.411546949371262,1.796235534092833,4741,106,1556,2401,101.78534433777368,58.742526840526814,0.0011117849074022,False
0.12,0.7796380978282205,2.800000000000001,6312.0,21.13566,0.3,68900.0,0.33,276.0,2700.0,38.42726588573518,2.3020168384071757,6215.445463699373,21.354396759936385,7.331834048468541,17.072869125798796,5.029817210061365,3865,100,1270,1954,136.49590336018835,78.7582726966641,0.0017068291705541,False
0.13,0.6361467348681226,2.800000000000001,6313.0,21.13566,0.3,68900.0,0.33,276.0,2700.0,28.40097830736957,1.841462203939061,4971.947950635465,16.277070280510884,4.638126595255201,12.123908026858686,2.79666439131614,2871,84,938,1458,106.10461368329118,61.25785942618207,0.0012170594962576,False
0.14,0.8036056757429407,2.800000000000001,6314.0,21.13566,0.3,68900.0,0.33,276.0,2700.0,39.461551190798765,2.756561563194953,7442.716220626373,22.252906428472237,7.854385931140954,17.208644762326532,5.097824367946002,3777,100,1238,1914,121.69215456982478,70.21023307034173,0.0015404877728713,False
0.15,0.4717463748616082,2.800000000000001,6315.0,21.13566,0.2,68900.0,0.33,276.0,2700.0,18.057311870162494,1.3472298067916095,3637.5204783373456,11.095974147551123,2.397363498703201,6.961337722611368,1.0501336919115911,3658,94,1200,1852,70.06199386398215,40.45018438384531,0.0007447253601367,False
0.16,0.7006037295786451,2.800000000000001,6316.0,21.13566,0.3,68900.0,0.33,276.0,2700.0,31.677161540607177,2.525594280909169,6819.104558454756,18.493812114398025,5.758179008086273,13.183349426209157,3.232584727177104,3189,88,1042,1620,95.89953046526018,55.3395691674199,0.0011344762631754,False
0.17,0.7773024784171014,2.800000000000001,6317.0,21.13566,0.3,68900.0,0.33,276.0,2700.0,36.586515332191,3.0995640400981768,8368.822908265078,21.26760978777912,7.282059682236552,15.31890554441188,4.182495642138376,3765,98,1238,1902,98.41438466756196,56.81700509451419,0.0012298646186265,False
0.18,0.6583214623546056,2.800000000000001,6318.0,21.13566,0.3,68900.0,0.33,276.0,2700.0,28.318048060094668,2.5364098131711943,6848.306495562225,17.027899589784237,5.007368073958363,11.290148470310433,2.4709582607871683,2921,84,958,1478,80.3614966852221,46.39453040301528,0.0009428801343209,False
0.19,0.8276638053360394,2.800000000000001,6319.0,21.13566,0.3,68900.0,0.33,276.0,2700.0,39.497374032863945,3.7378850771147607,10092.289708209852,23.169330041721825,8.400743793039585,16.32804399114212,4.662858715924823,4047,102,1330,2046,93.10536390091332,53.71133149822912,0.0012061834594728,False
0.2,0.6028157348746602,2.800000000000001,6320.0,21.13566,0.1,68900.0,0.33,276.0,2700.0,24.297471967398785,2.4129920359207344,6515.078496985983,15.171741644742946,4.114093974118018,9.12573032265584,1.7011019381972834,26714,218,6578,15133,67.55167588137947,38.93488632821666,0.0007757827331671,False
0.21,0.5336179535941782,2.800000000000001,6321.0,21.13566,0.08,68900.0,0.33,276.0,2700.0,19.97559032058954,2.0780407906186382,5610.710134670323,12.966147772540422,3.141248176415826,7.009442548049117,1.0632073857971878,35466,242,8404,20384,59.09517318761559,34.07962756375726,0.0006477831048506,False
0.22,0.5392448980424074,2.800000000000001,6322.0,21.13566,0.05,68900.0,0.33,276.0,2700.0,20.03818478435705,2.181899207228992,5891.127859518279,13.141004570877056,3.2146995512407304,6.897180213479995,1.032800344011738,137242,386,21402,87687,64.6100688745183,36.024343468749535,0.0006322230408203,False
0.23,0.5441192662680802,2.800000000000001,6323.0,21.13566,0.08,68900.0,0.33,276.0,2700.0,20.05932839916705,2.2813402606933924,6159.618703872159,13.293118368163263,3.279124133147633,6.766210031003787,0.9977838724542404,40104,242,8424,23958,56.12225846285198,32.38004592692498,0.0006153468328945,False
0.24,0.8131714151447758,2.800000000000001,6324.0,21.13566,0.3,68900.0,0.33,276.0,2700.0,36.82767405170506,4.390367968309123,11853.993514434633,22.61554302554225,8.068984045343134,14.212131026162808,3.678616077034011,3681,96,1214,1854,73.98149217943411,42.67855798925815,0.0009513982729805,False
0.25,0.8419004677105677,2.800000000000001,6325.0,21.13566,0.3,68900.0,0.33,276.0,2700.0,38.53432147597839,4.784065261022341,12916.97620476032,23.71848483821674,8.7345007445775,14.815836637761649,3.95043548355516,3887,100,1276,1967,74.62388712957933,43.03173900636348,0.0009577616562548,False
0.26,0.7062682895069898,2.800000000000001,6326.0,21.13566,0.2,68900.0,0.33,276.0,2700.0,29.047435771662247,3.7393555619964327,10096.260017390368,18.69361357144889,5.863503828098005,10.353822200213358,2.1241482661015723,6201,124,2048,3123,60.65614633874834,34.919848234414175,0.000742541254511,False
0.27,0.8212503984675401,2.800000000000001,6327.0,21.13566,0.3,68900.0,0.33,276.0,2700.0,36.44034270212553,4.878222285986013,13171.200172162236,22.923608144352787,8.252937962354684,13.51673455777274,3.3747156763686714,3695,96,1216,1865,67.318500686434,38.85495704633248,0.0008655482975678,False
0.28,0.9282477483811096,2.800000000000001,6328.0,21.13566,0.3,68900.0,0.33,276.0,2700.0,43.84359861331327,6.0921276445761166,16448.744640355515,27.158323682856555,10.929689420959043,16.685274930456714,4.837561776382927,4137,106,1362,2088,72.25195989160092,41.65214827631001,0.0009843185695271,False
0.29,0.6664679305635726,2.800000000000001,6329.0,21.13566,0.1,68900.0,0.33,276.0,2700.0,25.711018093973387,3.6770174214738782,9927.947037979471,17.30684047260139,5.147220375834532,8.404177621371996,1.470202954360654,33140,222,6914,19825,54.97635049305363,31.73014717412731,0.0006407974656837,False
0.3,0.8490202386151515,2.800000000000001,6330.0,21.13566,0.3,68900.0,0.33,276.0,2700.0,37.44169295941042,5.559705276146943,15011.204245596746,23.995028524333364,8.904354630787058,13.446664435077054,3.344649354640115,3653,96,1204,1841,63.4858408337781,36.64549467019668,0.0008234476018918,False
0.31,1.0028014456343428,2.800000000000001,6331.0,21.13566,0.3,68900.0,0.33,276.0,2700.0,48.49901052695682,7.454952507182915,20128.37176939387,30.27908171049585,13.069906994341853,18.21992881646097,5.614954487158936,4555,112,1506,2290,70.79920132376097,40.8581157433815,0.0009944493862855,False
0.32,0.8940036180557103,2.800000000000001,6332.0,21.13566,0.3,68900.0,0.33,276.0,2700.0,40.01047898782946,6.333047499337489,17099.22824821122,25.771710190497128,10.023502035990306,14.23876879733233,3.690454536652817,3813,100,1258,1920,62.08695975945504,35.72846111552026,0.0008297081134754,False
0.33,0.8349768070497641,2.800000000000001,6333.0,21.13566,0.3,68900.0,0.33,276.0,2700.0,35.53924055095905,5.788708414113539,15629.512718106556,23.450780251332567,8.57120944715672,12.088460299626483,2.7825010330431814,3524,94,1166,1769,57.931938066566985,33.4294092646342,0.0007406477783101,False
0.34,0.8326957808850064,2.800000000000001,6334.0,21.13566,0.3,68900.0,0.33,276.0,2700.0,35.08128027002832,5.881499540800356,15880.048760160962,23.36284780887052,8.517817916777481,11.718432461157809,2.636318375977125,3539,94,1176,1769,56.26482820621686,32.38974932266467,0.0007196311487337,False
0.3500000000000001,0.7560848086864786,2.800000000000001,6335.0,21.13566,0.3,68900.0,0.33,276.0,2700.0,29.701956196607828,5.108045144391261,13791.721889856406,20.48548337133681,6.839128017399561,9.21647282527102,1.7310828730083,2963,84,980,1487,50.030251241712286,28.8331562382171,0.0006245302191177,False
0.36,0.7701914644973675,2.800000000000001,6336.0,21.13566,0.3,68900.0,0.33,276.0,2700.0,30.335068245161565,5.362596186231823,14479.00970282592,21.00422280086921,7.131762640362243,9.330845444292354,1.7691664541304206,3136,88,1044,1564,49.31674675469637,28.454197888652335,0.0006233622686945,False
0.37,0.6857721216557423,2.800000000000001,6337.0,21.13566,0.08,68900.0,0.33,276.0,2700.0,24.78286050031825,4.47874179743735,12092.602853080843,17.974488826682204,5.487744070687268,6.808371673636046,1.0090022732499175,68584,270,10440,44040,48.24049667590511,27.619428394552465,0.0005474976033598,False
0.38,0.8734024335715196,2.800000000000001,6338.0,21.13566,0.3,68900.0,0.33,276.0,2700.0,36.69134655449973,6.856432197296424,18512.366932700344,24.95172539909498,9.501038920838754,11.739621155404745,2.6446067235423305,3583,96,1190,1792,53.47964453322242,30.771904604028208,0.0006952243421432,False
0.39,0.9713065916226578,2.800000000000001,6339.0,21.13566,0.3,68900.0,0.33,276.0,2700.0,43.41696510100989,8.342070771618069,22523.591083368785,28.943690701098117,12.137366138780797,14.47327439991178,3.7952953671627263,4306,108,1430,2155,56.55102519337319,32.545715489397644,0.0007791344465841,False
0.4,0.9549217311610354,2.800000000000001,6340.0,21.13566,0.3,68900.0,0.33,276.0,2700.0,41.8911838092826,8.244195475303354,22259.32778331905,28.258826180103146,11.668747722903188,13.632357629179449,3.4245522475998342,3745,100,1242,1876,54.21227644190698,31.110378089639944,0.0007450963069646,False
0.4100000000000001,0.8577157062266376,2.800000000000001,6341.0,21.13566,0.2,68900.0,0.33,276.0,2700.0,34.73004997587411,6.975312440202149,18833.3435885458,24.334503017063557,9.114477191874224,10.395546958810556,2.139164751672075,9376,134,2334,5275,51.86003608516893,29.91763182045051,0.0006474422550229,False
0.42,0.7870534087079617,2.800000000000001,6342.0,21.13566,0.2,68900.0,0.33,276.0,2700.0,29.7814289816542,6.09893054180128,16467.112462863453,21.630843590652187,7.491207654710508,8.150585391002014,1.3922771129092286,8166,122,2046,4583,46.95561741983754,27.10652022955045,0.0005762498293876,False
0.43,0.8728477073775659,2.800000000000001,6343.0,21.13566,0.3,68900.0,0.33,276.0,2700.0,35.18521936506045,7.398303092082016,19975.41834862144,24.92979321989892,9.487203628710194,10.255426145161524,2.088900536628178,3497,94,1150,1756,47.81177462343718,27.566034559645026,0.0006278050586744,False
0.44,0.8449560950405588,2.800000000000001,6344.0,21.13566,0.3,68900.0,0.33,276.0,2700.0,33.02212619375779,7.0864588102241735,19133.438787605268,23.837014405613644,8.807156626414722,9.185111788144148,1.7206978161905484,3469,90,1106,1770,44.17645465791381,25.404591911579654,0.000593561439757,False
0.45,0.9103570679304104,2.800000000000001,6345.0,21.13566,0.2,68900.0,0.33,276.0,2700.0,37.19241581608412,8.177441804913341,22079.09287326602,26.430217565018022,10.450333680630225,10.762198251066092,2.2728918757168817,10187,140,2570,5702,50.18492232842314,28.954412869289925,0.0006458857594068,False
0.46,0.9804803349223712,2.800000000000001,6346.0,21.13566,0.2,68900.0,0.33,276.0,2700.0,41.891082227565256,9.43108887065347,25463.93995076437,29.330086904220824,12.404658860252084,12.560995323344432,2.973569989598614,11308,150,2794,6383,52.4254923034925,30.23900310710185,0.0006941276365234,False
0.4700000000000001,0.9601724667135804,2.800000000000001,6347.0,21.13566,0.3,68900.0,0.33,276.0,2700.0,40.12043933707436,9.210856861496678,24869.31352604103,28.47756500940572,11.817701312881228,11.642874327668643,2.60684445138455,4093,102,1324,2069,50.57135427423891,29.17604896645088,0.0006578130067132,False
0.4800000000000001,0.969718555107794,2.800000000000001,6348.0,21.13566,0.2,68900.0,0.33,276.0,2700.0,40.50631706459621,9.489892752339212,25622.710431315874,28.877017686399206,12.091455449051132,11.629299378197004,2.60156269671192,11042,146,2724,6236,50.13515918844086,28.93718809089541,0.0006619938106436,False
0.49,1.1340666642085924,2.800000000000001,6349.0,21.13566,0.3,68900.0,0.33,276.0,2700.0,52.6570604116088,12.654576311442703,34167.3560408953,36.11324251615503,17.422671423867293,16.54381789545377,4.768095112424589,4955,116,1576,2535,53.28901949902711,30.714820572225715,0.0007826224451982,False
0.5,1.018358795121573,2.800000000000001,6350.0,21.13566,0.3,68900.0,0.33,276.0,2700.0,43.44389228835462,10.5991736842895,28617.76894758165,30.94791655135309,13.546164013191312,12.495975737001526,2.946990328901812,4210,104,1324,2158,50.92915217373686,29.352155297422676,0.0006715913443603,False
0.03,0.6628348420076438,2.800000000000001,6353.0,24.15504,0.1,68900.0,0.33,276.0,2700.0,33.348226214089586,0.5001668445435811,1350.4504802676688,17.182234871593224,5.084569543801094,16.165991342496362,4.584402699257513,27412,262,9028,13864,583.9964774104587,332.52628538105125,0.0057414830086247,True
0.04,0.4123098468945713,2.800000000000001,6354.0,24.15504,0.08,68900.0,0.33,276.0,2700.0,17.68190891103196,0.3535041369340853,954.4611697220304,9.39000926998762,1.7889953987640677,8.29189964104434,1.4354912618299824,23028,230,7560,11682,270.7736421876226,154.893947997401,0.0024289811528544,False
0.05,0.4615171276445707,2.800000000000001,6355.0,24.15504,0.1,68900.0,0.33,276.0,2700.0,20.163902316655623,0.5038357585285913,1360.3565480271966,10.796045930105244,2.2853962977385462,9.367856386550384,1.781560539209955,16530,196,5424,8388,235.75768178471745,134.9886420425361,0.0022595933468806,False
0.06,0.5050669586736362,2.800000000000001,6356.0,24.15504,0.1,68900.0,0.33,276.0,2700.0,22.410421945909917,0.6718602690346611,1814.022726393585,12.09119058691721,2.783590950438192,10.319231358992704,2.1117306814035306,17977,206,5902,9118,216.56713066702204,123.91171879896876,0.0021297947603562,False
0.0699999999999999,0.3746282545830441,2.800000000000001,6357.0,24.15504,0.04,68900.0,0.33,276.0,2700.0,14.879887390881445,0.5200776811607313,1404.2097391339744,8.354448471818216,1.4547877464556596,6.5254389190632285,0.9347100652949284,79399,408,24574,41242,130.4553218628631,75.12933648128332,0.0012943150153059,False
0.08,0.4817303965832122,2.800000000000001,6358.0,24.15504,0.1,68900.0,0.33,276.0,2700.0,20.486911248779656,0.818404119658761,2209.691123078655,11.391248208801342,2.509617872563695,9.095663039978314,1.691213752904934,17047,200,5602,8638,145.54084760582748,83.67256521076337,0.0015417223053013,False
0.09,0.6110343660141009,2.800000000000001,6359.0,24.15504,0.2,68900.0,0.33,276.0,2700.0,28.019689348511324,1.2593592066533676,3400.269857964093,15.441695809102027,4.2398930866181175,12.577993539409295,2.98053387996475,6066,122,1992,3072,163.49392273582075,94.31622133303028,0.0018570105048417,False
0.0999999999999999,0.7339878078338979,2.800000000000001,6360.0,24.15504,0.3,68900.0,0.33,276.0,2700.0,35.88760046009762,1.7922856279024897,4839.171195336721,19.682970601948337,6.395349433959463,16.204629858149286,4.603063806056974,3651,96,1198,1848,177.69662425430337,102.59148854704574,0.0021358483018714,False
0.11,0.5896005100230903,2.800000000000001,6361.0,24.15504,0.2,68900.0,0.33,276.0,2700.0,26.069273104520896,1.431022380867362,3863.7604283418777,14.741225784919417,3.916445512566525,11.32804731960148,2.485423131699163,5679,116,1856,2889,130.2778096648115,75.09424242521195,0.0014748860217751,False
0.12,0.7295592375006645,2.800000000000001,6362.0,24.15504,0.3,68900.0,0.33,276.0,2700.0,34.91672901975104,2.091384626448122,5646.738491409929,19.52361118468582,6.308535063382508,15.39311783506522,4.217150436934386,3589,94,1170,1828,147.98311291480346,85.20845298621012,0.0017885734193362,False
0.13,0.6214516797336169,2.800000000000001,6363.0,24.15504,0.3,68900.0,0.33,276.0,2700.0,27.46746792210897,1.7807840288971193,4808.116878022222,15.786308831708157,4.402546679511558,11.681159090400811,2.621762650614439,2910,84,952,1476,119.34932895819593,68.90103631424397,0.0013498163499563,False
0.14,0.4674618025568993,2.800000000000001,6364.0,24.15504,0.2,68900.0,0.33,276.0,2700.0,18.07854394207801,1.2597510557844949,3401.327850618136,10.970027615483575,2.350091973421588,7.108516326594433,1.0903409176370933,3753,94,1234,1896,84.64913309787194,48.87107696070252,0.0008945272563541,False
0.15,0.6690209471069547,2.800000000000001,6365.0,24.15504,0.3,68900.0,0.33,276.0,2700.0,29.91085764428725,2.2362457398509727,6037.8634975976265,17.39460084275714,5.191517017861849,12.516256801530112,2.9552712780108763,2899,86,952,1465,113.74282369402287,65.50133791693702,0.001308958343571,False
0.16,0.5812013790360381,2.800000000000001,6366.0,24.15504,0.2,68900.0,0.33,276.0,2700.0,24.109455461755736,1.9201777946010536,5184.480045422845,14.469886404709255,3.7937727747585632,9.63956905704648,1.8735949801575091,5178,112,1702,2619,89.98255674087522,51.830044648344526,0.001027477764728,False
0.17,0.7233410259406272,2.800000000000001,6367.0,24.15504,0.3,68900.0,0.33,276.0,2700.0,32.88321873761363,2.7847838295591005,7518.916339809572,19.300684556669985,6.187826724652393,13.582534180943648,3.403042895093292,3302,90,1080,1676,105.32025116531084,60.75919870204422,0.0012803349506301,False
0.18,0.7239974114612169,2.800000000000001,6368.0,24.15504,0.3,68900.0,0.33,276.0,2700.0,32.613478879784985,2.922998586943491,7892.0961847474255,19.32417049667563,6.200503121856047,13.289308383109354,3.2775045349125564,3319,90,1088,1681,99.79262278862694,57.55946147532077,0.0012163357999988,False
0.19,0.7256123544306009,2.800000000000001,6369.0,24.15504,0.3,68900.0,0.33,276.0,2700.0,32.410032958103336,3.064587675012505,8274.386722533764,19.382000397117466,6.231757242313151,13.02803256098587,3.167169567300646,3304,90,1086,1669,94.94421558159311,54.81501006882674,0.0011612401466839,False
0.2,0.8807616349228202,2.800000000000001,6370.0,24.15504,0.3,68900.0,0.33,276.0,2700.0,43.04371541813625,4.287616380994487,11576.564228685116,25.243417608261048,9.685736168224054,17.800297809875204,5.398119787229566,4193,106,1378,2120,108.70735461035086,62.63002347038052,0.0014274791265267,False
0.21,0.5596015636789557,2.800000000000001,6371.0,24.15504,0.2,68900.0,0.33,276.0,2700.0,21.46662250651477,2.2345991701407897,6033.417759380132,13.780232997090147,3.4886951994472386,7.686389509424623,1.254096029306449,4416,102,1458,2223,67.36870365788647,38.87912786457992,0.0007737352377879,False
0.22,0.7406743750245601,2.800000000000001,6372.0,24.15504,0.3,68900.0,0.33,276.0,2700.0,32.491464411521314,3.551759966217059,9589.751908786058,19.92451662575032,6.527767870124723,12.566947785770996,2.9760079039076643,3122,88,1024,1580,84.50748652792856,48.67328560019561,0.0010423436304107,False
0.23,0.852214382998302,2.800000000000001,6373.0,24.15504,0.3,68900.0,0.33,276.0,2700.0,39.93115518328168,4.566600340866433,12329.820920339367,24.119508367120893,8.981196951413928,15.811646816160788,4.414596610547495,4055,102,1326,2060,92.21945615609684,53.23608915700466,0.0012010265647928,False
0.24,0.5555888277664416,2.800000000000001,6374.0,24.15504,0.05,68900.0,0.33,276.0,2700.0,20.457095957817238,2.4258985970425844,6549.926212014978,13.653403196965929,3.433653366189592,6.803692760851307,1.0077547691470072,148343,388,21788,95927,71.891332369246,41.32970463209503,0.0006964534585062,False
0.25,0.750719816279537,2.800000000000001,6375.0,24.15504,0.3,68900.0,0.33,276.0,2700.0,32.24927875561766,3.998434920977315,10795.77428663875,20.28951101335104,6.729749573185403,11.95976774226662,2.731314652208088,3173,88,1042,1604,77.07087249302924,44.369334473194414,0.0009453041020278,False
0.26,0.8296956537767785,2.800000000000001,6376.0,24.15504,0.3,68900.0,0.33,276.0,2700.0,37.348457907300215,4.818488439629363,13009.918786999278,23.247393480143465,8.447899649127228,14.10106442715675,3.6294112094978654,3589,96,1188,1801,79.99200150003273,46.0939170645593,0.0010380071349775,False
0.27,0.8218223131251534,2.800000000000001,6377.0,24.15504,0.3,68900.0,0.33,276.0,2700.0,36.48020224778596,4.883603324650696,13185.728976556878,22.945478377901235,8.266054563419285,13.534723869884726,3.382451238768589,3685,96,1214,1858,77.33180339643481,44.63404271700656,0.000992501022936,False
0.28,0.5808873853463605,2.800000000000001,6378.0,24.15504,0.08,68900.0,0.33,276.0,2700.0,20.890938349618462,2.878755207658848,7772.639060678889,14.45977701459191,3.789230908944322,6.431161335026552,0.910475701285474,48004,246,8842,29607,58.49255406786487,33.75707310346398,0.0006467227271354,False
0.29,0.8926682387204179,2.800000000000001,6379.0,24.15504,0.3,68900.0,0.33,276.0,2700.0,40.88514746188272,5.877266179820377,15868.618685515015,25.71823505911632,9.989122736547058,15.166912402766403,4.111856556726681,3943,102,1298,1990,77.33462665389031,44.6470146653002,0.0010339634455781,False
0.3,0.9509320357122544,2.800000000000001,6380.0,24.15504,0.3,68900.0,0.33,276.0,2700.0,44.86940690988176,6.673862368717649,18019.42839553765,28.093083923258312,11.556334376276462,16.77632298662345,4.882472007558813,4133,106,1362,2084,79.4784986503858,45.85321812123179,0.0010915433977758,False
0.31,0.873476883406668,2.800000000000001,6381.0,24.15504,0.3,68900.0,0.33,276.0,2700.0,38.85777315421193,5.960560714407454,16093.513928900124,24.95466950679066,9.502896682274688,13.903103647421268,3.542335967867234,3676,98,1220,1840,71.94811953817093,41.49501225140314,0.0009462302428985,False
0.32,0.6857494259119936,2.800000000000001,6382.0,24.15504,0.08,68900.0,0.33,276.0,2700.0,26.08933495767605,4.105664454512949,11085.294027184962,17.973698380069422,5.487336135264755,8.115636577606633,1.381671680751806,64781,280,10990,40582,60.26516554619387,34.43587294368107,0.0006993222630329,False
0.33,0.7881902743665465,2.800000000000001,6383.0,24.15504,0.3,68900.0,0.33,276.0,2700.0,32.372415889954446,5.2661823450477785,14218.692331629,21.67334874070908,7.515823176200232,10.69906714924537,2.249640831152454,3326,90,1098,1673,63.066872977901824,36.390404004133416,0.0007895926816509,False
0.34,0.7539530882016494,2.800000000000001,6384.0,24.15504,0.2,68900.0,0.33,276.0,2700.0,29.84350996919857,4.991078589659296,13475.9121920801,20.40752930624888,6.79554180128244,9.435980662949696,1.8044632116231432,6394,122,1990,3305,61.36633399391284,35.42802460929641,0.0007360576452846,False
0.3500000000000001,0.8028124171877166,2.800000000000001,6385.0,24.15504,0.3,68900.0,0.33,276.0,2700.0,32.76582655645524,5.644222457364559,15239.400634884309,22.22293730748275,7.836745510414223,10.54288924897249,2.1925230530496647,3311,90,1092,1667,60.5033659204701,34.916028288467224,0.0007684917229638,False
0.36,0.8410625194113468,2.800000000000001,6386.0,24.15504,0.2,68900.0,0.33,276.0,2700.0,35.05743911305249,6.212622942452184,16774.0819446209,23.686021333891347,8.714639483147755,11.371417779161142,2.5020165406955703,8911,136,2416,4881,65.07177529926525,37.56106585057633,0.0008060429388981,False
0.37,0.9184391498437574,2.800000000000001,6387.0,24.15504,0.3,68900.0,0.33,276.0,2700.0,40.18656952128856,7.328427966316859,19786.75550905552,26.758141976369654,10.665268914278045,13.428427544918907,3.336840947961184,3806,100,1264,1904,65.25834267630408,37.62286292968378,0.0008676454818755,False
0.38,0.9318130680524418,2.800000000000001,6388.0,24.15504,0.3,68900.0,0.33,276.0,2700.0,40.83881761105141,7.644451698041252,20640.019584711383,27.304384606039537,11.02677780864806,13.534433005011874,3.382326110606807,3760,100,1248,1882,64.34085934244928,37.0862894210465,0.0008641142714941,False
0.39,0.7936525921968848,2.800000000000001,6389.0,24.15504,0.2,68900.0,0.33,276.0,2700.0,31.02696105409382,5.9260199824694295,16000.25395266746,21.878026938456188,7.634768562812431,9.148934115637632,1.708748580343002,8412,126,2114,4719,59.13563635519419,34.12653983208577,0.0007035431149154,False
0.4,0.9667308525753012,2.800000000000001,6390.0,24.15504,0.3,68900.0,0.33,276.0,2700.0,42.75831741937033,8.417622197320899,22727.579932766428,28.751752103675663,12.005366694184106,14.006565315694663,3.5877444968632077,4053,104,1352,2019,63.53130140385772,36.522260205222906,0.0008654436175131,False
0.4100000000000001,0.9599582307206004,2.800000000000001,6391.0,24.15504,0.3,68900.0,0.33,276.0,2700.0,41.94474694205352,8.45432531826893,22826.67835932611,28.46862665684218,11.81160135094276,13.47612028521134,3.3572760326738287,4080,104,1358,2033,61.04496764419121,35.16167840397963,0.0008399838894925,False
0.42,0.8650411022503866,2.800000000000001,6392.0,24.15504,0.3,68900.0,0.33,276.0,2700.0,34.940451406155226,7.1823252509464925,19392.27817755553,24.621964152276227,9.293789123555472,10.318487253879,2.1114638726089794,3467,94,1148,1735,55.17673963025752,31.82656642012037,0.0007241524561963,False
0.43,1.0231458382070373,2.800000000000001,6393.0,24.15504,0.3,68900.0,0.33,276.0,2700.0,46.01123493209138,9.725896438993669,26259.920385282905,31.15494286971328,13.69480831532821,14.856292062378106,3.968911876334541,4379,110,1458,2186,62.67540263374336,36.132779685196624,0.0008753121743116,False
0.44,1.1270102334848655,2.800000000000001,6394.0,24.15504,0.3,68900.0,0.33,276.0,2700.0,53.80623055581621,11.658961769877305,31479.196778668724,35.78860119492513,17.168986970231174,18.01762936089108,5.510025200353869,4874,118,1618,2441,66.04568279145441,38.04970563976755,0.0009730577129205,False
0.45,1.0824650991273428,2.800000000000001,6395.0,24.15504,0.3,68900.0,0.33,276.0,2700.0,49.92173026892066,11.041537556801533,29812.15140336414,33.76812277901405,15.619965285383753,16.153607489906612,4.57842772858222,4602,114,1516,2312,62.46532220987291,35.960298961265075,0.000904363029145,False
0.46,0.8427576622684005,2.800000000000001,6396.0,24.15504,0.2,68900.0,0.33,276.0,2700.0,32.32655310245014,7.231247171876989,19524.36736406787,23.75171223424113,8.754846340552353,8.574840868209012,1.5235991686753645,8677,128,2168,4873,53.8982275094792,31.09566570013328,0.000662515088358,False
0.4700000000000001,0.8411537842391819,2.800000000000001,6397.0,24.15504,0.2,68900.0,0.33,276.0,2700.0,31.950316675953044,7.290878036133198,19685.37069755964,23.689556228062244,8.71680134511105,8.2607604478908,1.4259233089778514,8585,126,2142,4828,52.47316514057147,30.286201730438872,0.0006504603015552,False
0.4800000000000001,1.113801585208685,2.800000000000001,6398.0,24.15504,0.3,68900.0,0.33,276.0,2700.0,51.38266873495505,12.100217153225357,32670.58631370846,35.18428188421272,16.700263871877677,16.19838685074233,4.600046718652322,4976,116,1588,2542,59.91294751685925,34.454597549668165,0.0008887090780377,False
0.49,0.9687153300744812,2.800000000000001,6399.0,24.15504,0.3,68900.0,0.33,276.0,2700.0,40.13674498735471,9.587099032500449,25885.167387751208,28.83493039233706,12.062506415648922,11.30181459501765,2.4754073831484757,4475,102,1328,2361,57.75709634095522,33.22643839320468,0.0007394787500482,False
0.5,1.0072207189603757,2.800000000000001,6400.0,24.15504,0.2,68900.0,0.33,276.0,2700.0,42.6249336858645,10.394434033666972,28064.971890900822,30.468454653621755,13.204136797116233,12.156479032242745,2.809702763449259,11343,148,2784,6419,57.35099474975061,33.04481313879299,0.0007666497174212,False
0.02,0.3626846490421209,2.800000000000001,6402.0,27.17442,0.08,68900.0,0.33,276.0,2700.0,15.53819085523374,0.1553651533915169,419.4859141570958,8.033663936415067,1.3569247397031838,7.504526918818673,1.2015595863116668,19953,212,6574,10086,501.7069878327496,286.3460368291288,0.0045153404687011,True
0.03,0.3596132331532697,2.800000000000001,6403.0,27.17442,0.05,68900.0,0.33,276.0,2700.0,15.115881296420874,0.2266816707785697,612.0405111021383,7.951750559304506,1.3323758723512231,7.164130737116367,1.1056942015726534,49938,334,16408,25320,370.6705806312125,211.55514059499544,0.0030431511950309,True
0.04,0.5160122882723148,2.800000000000001,6404.0,27.17442,0.1,68900.0,0.33,276.0,2700.0,23.64602381605299,0.4727864350345058,1276.5233745931655,12.4241932549768,2.9177526823494064,11.221830561076189,2.4449662473149005,19676,216,6470,9965,377.32159914743534,215.40668344455395,0.0035835916141379,True
0.05,0.4114536210228806,2.800000000000001,6405.0,27.17442,0.08,68900.0,0.33,276.0,2700.0,17.36688681380762,0.4339103709573853,1171.5580015849405,9.366082349758107,1.7809656746304652,8.000804464049514,1.34705530367308,22861,228,7512,11587,238.4447793960539,136.56661794045849,0.002216114348549,False
0.06,0.7060938211800154,2.800000000000001,6406.0,27.17442,0.2,68900.0,0.33,276.0,2700.0,35.29979471335289,1.05854145205847,2858.0619205578687,18.687447654101103,5.860242922502853,16.612347059251782,4.801701470444384,7584,140,2488,3846,309.46617689680863,176.68960927460506,0.0036517528159932,True
0.0699999999999999,0.4306387211566577,2.800000000000001,6407.0,27.17442,0.1,68900.0,0.33,276.0,2700.0,17.885695372638054,0.625280960522212,1688.2585934099725,9.906621842383824,1.9658252651087285,7.979073530254229,1.3405443045865164,14997,184,4928,7599,172.9626155130793,99.32759542518606,0.0017144796465243,False
0.08,0.704981025018468,2.800000000000001,6408.0,27.17442,0.2,68900.0,0.33,276.0,2700.0,34.55181905011093,1.3810004317120166,3728.701165622445,18.648138120411463,5.8394694771194136,15.903680929699464,4.458469045407397,7255,136,2378,3682,239.41202620544692,136.8960804721412,0.0027962887042528,False
0.09,0.6128412376276291,2.800000000000001,6409.0,27.17442,0.2,68900.0,0.33,276.0,2700.0,28.13475678685757,1.2645372413789464,3414.2505517231552,15.50127305192648,4.26784806029982,12.633483734931092,3.0033108189208737,6068,122,1994,3071,181.41569365404644,104.61983790392756,0.0020969104818619,False
0.0999999999999999,0.4002740557221158,2.800000000000001,6410.0,27.17442,0.05,68900.0,0.33,276.0,2700.0,15.47110206354198,0.771460708074705,2082.9439118017035,9.05536433485601,1.677996717955666,6.4157377286859685,0.9065360098809608,68301,336,16744,38761,110.027604274232,63.48143348623845,0.0011386569691004,False
0.11,0.699622132703683,2.800000000000001,6411.0,27.17442,0.3,68900.0,0.33,276.0,2700.0,33.20119762774424,1.8232782296446457,4922.851220040543,18.459271020012817,5.740042494604675,14.741926607731418,3.9167642649600296,3344,92,1094,1697,173.70087302522217,100.28585823451446,0.0020664633277627,False
0.12,0.7188576962974857,2.800000000000001,6412.0,27.17442,0.3,68900.0,0.33,276.0,2700.0,34.18289655010226,2.0473546782691745,5527.857631326771,19.14055740591293,6.10165453358598,15.04233914418933,4.054299855316805,3571,94,1164,1819,165.01119941438793,95.25556581666824,0.0019733156242796,False
0.13,0.6319102063563401,2.800000000000001,6413.0,27.17442,0.3,68900.0,0.33,276.0,2700.0,28.13073723569097,1.8238965342799536,4924.5206425558745,16.135028832309928,4.56946936349962,11.99570840338104,2.745572829219667,2882,84,942,1463,136.94977618533204,79.06768018570342,0.0015515885144798,False
0.14,0.5300971430479621,2.800000000000001,6414.0,27.17442,0.1,68900.0,0.33,276.0,2700.0,21.632388277405,1.5085201592573838,4073.004429994936,12.857143629450492,3.095788809471255,8.775244647954503,1.587268650213871,18052,206,5978,9077,104.15102473953183,60.07003331726134,0.0011662016633612,False
0.15,0.7781693853222729,2.800000000000001,6415.0,27.17442,0.3,68900.0,0.33,276.0,2700.0,37.30978868934122,2.79116556823002,7536.147034221053,21.299806324272943,7.300510674353468,16.009982365068275,4.509345106123448,3843,100,1266,1938,142.39602569150338,82.16438199131095,0.0017794735512868,False
0.16,0.736842397534818,2.800000000000001,6416.0,27.17442,0.3,68900.0,0.33,276.0,2700.0,34.11571806385602,2.720678802769045,7345.832767476421,19.785952541159688,6.45168317599681,14.329765522696334,3.731004373227765,3575,94,1166,1820,127.3230425591286,73.44519243704116,0.0015609210337896,False
0.18,0.6459954686271385,2.800000000000001,6418.0,27.17442,0.2,68900.0,0.33,276.0,2700.0,27.53604998820041,2.4660299867008817,6658.280964092381,16.60901981287059,4.800067767325408,10.927030175329822,2.3340377806245263,5810,120,1916,2930,99.82554332622618,57.60238533128595,0.0011826131153004,False
0.19,0.7898967216442765,2.800000000000001,6419.0,27.17442,0.3,68900.0,0.33,276.0,2700.0,36.813480890963056,3.4829152286341767,9403.871117312276,21.73721038833948,7.5528620810182,15.07627050262358,4.069946852384024,3778,98,1238,1915,115.15036094472954,66.40866579586543,0.0014568685404726,False
0.2,0.775784610218227,2.800000000000001,6420.0,27.17442,0.3,68900.0,0.33,276.0,2700.0,35.507116933153235,3.5339565324961764,9541.682637739676,21.2112823260834,7.249821009829238,14.29583460706984,3.715864477333061,3780,98,1240,1914,107.4977402062178,62.013934348152645,0.0013572539609598,False
0.21,0.898329174832611,2.800000000000001,6421.0,27.17442,0.3,68900.0,0.33,276.0,2700.0,44.00886307113177,4.601534429425565,12424.142959449027,25.945234386204053,10.135354156531635,18.06362868492772,5.533819727106072,4184,106,1376,2114,117.4546825327735,67.62278041925653,0.001575866476796,False
0.22,0.6206705633247221,2.800000000000001,6422.0,27.17442,0.2,68900.0,0.33,276.0,2700.0,24.82670518956199,2.708636451801536,7313.318419864146,15.760374292720352,4.390225864592383,9.066330896841638,1.681589412790847,5181,112,1710,2610,80.76847290380296,46.5496629284882,0.0009447381811962,False
0.23,0.9299475583895276,2.800000000000001,6423.0,27.17442,0.3,68900.0,0.33,276.0,2700.0,45.69863981216136,5.229861073187743,14120.624897606906,27.22792017649019,10.975912551488916,18.47071963567117,5.746051478301173,4272,108,1404,2160,111.095323136295,64.09102857449204,0.0015196370473005,False
0.24,0.7557297433288039,2.800000000000001,6424.0,27.17442,0.3,68900.0,0.33,276.0,2700.0,32.88805039395272,3.91761312937884,10577.555449322866,20.47249119584658,6.83185663854865,12.415559198106138,2.9142435091698102,3060,88,1002,1551,89.6292701574841,51.66110748825314,0.0011125508332712,False
0.25,0.6282594147601019,2.800000000000001,6425.0,27.17442,0.2,68900.0,0.33,276.0,2700.0,24.46567352034433,3.025484266568148,8168.807519733999,16.012987697945256,4.510786611118118,8.452685822399076,1.4853023445499702,4883,108,1616,2453,73.1409717160919,42.135848369940526,0.0008600737321258,False
0.26,0.942174708194468,2.800000000000001,6426.0,27.17442,0.3,68900.0,0.33,276.0,2700.0,45.58004452443244,5.888594699856554,15899.205689612696,27.73068469459257,11.311902270353638,17.849359829839866,5.423307570497084,4264,108,1400,2158,100.20215193605716,57.84307587455757,0.0013809437417221,False
0.27,0.8612379516481052,2.800000000000001,6427.0,27.17442,0.3,68900.0,0.33,276.0,2700.0,39.26688456843649,5.259805437938521,14201.474682434007,24.47255364908038,9.200432316292735,14.79433091935611,3.940626878354216,3946,102,1300,1990,90.0660181827008,51.92430704434135,0.0011839713423227,False
0.28,0.6353045554915443,2.800000000000001,6428.0,27.17442,0.1,68900.0,0.33,276.0,2700.0,24.08603746163234,3.326069083340793,8980.386525020142,16.24879794239098,4.624430288794931,7.837239519241361,1.2983612054541385,29522,214,6492,17394,69.98803956253565,40.3794498718961,0.0008010059306646,False
0.29,0.6970466926310608,2.800000000000001,6429.0,27.17442,0.3,68900.0,0.33,276.0,2700.0,27.61198362262679,3.952657423128617,10672.175042447265,18.368759813477915,5.69261833718025,9.243223809148876,1.739960914051634,2802,82,924,1410,70.34630304457075,40.59127059874422,0.0008557731664444,False
0.3,0.7195940526471266,2.800000000000001,6430.0,27.17442,0.3,68900.0,0.33,276.0,2700.0,28.761131417859872,4.257621044914294,11495.576821268594,19.166822527534944,6.115758473976075,9.594308890324928,1.858137429061781,2989,84,984,1507,70.62241835832499,40.70795057721403,0.0008619187118189,False
0.31,0.7541603775539154,2.800000000000001,6431.0,27.17442,0.3,68900.0,0.33,276.0,2700.0,30.70825606467141,4.697385565528674,12682.94102692742,20.415104577804023,6.7997728499315935,10.293151486867384,2.102387284402919,3037,86,998,1534,72.14215371991608,41.64496061652345,0.0008878840237221,False
0.32,1.0192268773792124,2.800000000000001,6432.0,27.17442,0.3,68900.0,0.33,276.0,2700.0,49.43078529470781,7.840296508438038,21168.8005727827,30.985415947519392,13.57304562537063,18.445369347188414,5.732749116932593,4707,114,1556,2367,90.0387259376695,51.912133303929245,0.0012673870458508,False
0.33,0.6573825580951456,2.800000000000001,6433.0,27.17442,0.05,68900.0,0.33,276.0,2700.0,24.10232811420593,3.901617862049149,10534.368227532705,16.9958580330131,4.991395550214358,7.106470081192828,1.089777688165209,225703,426,25772,151357,133.86824439041098,77.16930186562792,0.0007348813873053,False
0.34,0.666856590783254,2.800000000000001,6434.0,27.17442,0.08,68900.0,0.33,276.0,2700.0,24.41308274894028,4.067905962215248,10983.346097981168,17.320190161757058,5.153949450378238,7.0928925871832185,1.08604348816299,63428,270,10350,40105,63.31071151578043,36.5487981202191,0.0007278451538386,False
0.3500000000000001,1.029747977194293,2.800000000000001,6435.0,27.17442,0.3,68900.0,0.33,276.0,2700.0,49.20654638943342,8.521348428135747,23007.64075596652,31.441411947388776,13.901442629911417,17.765134442044644,5.38009420177567,4693,114,1550,2362,84.29484800869135,48.640591977534754,0.0011864358203577,False
0.36,1.0380224757141383,2.800000000000001,6436.0,27.17442,0.3,68900.0,0.33,276.0,2700.0,49.50732906091493,8.813603133067424,23796.728459282047,31.80199215837456,14.163095170199478,17.705336902540378,5.349492037132054,4637,114,1530,2336,83.05145756844112,47.94076437437051,0.0011697580541978,False
0.37,0.7713410965451113,2.800000000000001,6437.0,27.17442,0.2,68900.0,0.33,276.0,2700.0,30.13160366545803,5.468259282988217,14764.300064068186,21.046718246325824,7.155934191912804,9.084885419132206,1.6876749089245875,7874,126,2132,4304,67.00069616736751,38.59582475407788,0.0007990844176958,False
0.38,1.0638910425319112,2.800000000000001,6438.0,27.17442,0.3,68900.0,0.33,276.0,2700.0,50.84939178028498,9.546460790195622,25775.44413352818,32.940373186031415,15.00045501647376,17.909018594253567,5.453994226278137,4816,116,1598,2413,80.70800354991184,46.51082029796639,0.0011525821531582,False
0.39,0.8786825897100975,2.800000000000001,6439.0,27.17442,0.2,68900.0,0.33,276.0,2700.0,36.75921038085112,7.043808601187109,19018.283223205195,25.160873802049576,9.633339786666742,11.59833657880154,2.589531185479633,9930,138,2476,5586,70.75859600167742,40.851375539279154,0.0017298106747228,False
0.4,0.9135588468805558,2.800000000000001,6440.0,27.17442,0.3,68900.0,0.33,276.0,2700.0,38.90921848906427,7.647802411259689,20649.06651040116,26.55993098657504,10.53516498298535,12.349287502489233,2.887362571725661,3610,98,1202,1801,67.5711426473919,38.94766058501942,0.0009068913529653,False
0.4100000000000001,0.9504526828115578,2.800000000000001,6441.0,27.17442,0.3,68900.0,0.33,276.0,2700.0,41.25183739469324,8.31227886106007,22443.152924862192,28.07319728561583,11.542872641597745,13.17864010907741,3.2305937805376725,3828,100,1270,1917,67.86141755472391,39.13449777423561,0.0009338805820641,False
0.42,0.8460539259220292,2.800000000000001,6442.0,27.17442,0.3,68900.0,0.33,276.0,2700.0,33.65626142565875,6.912645355042227,18664.142458614013,23.87965720626981,8.8333490414711,9.77660421938894,1.9207036864288731,3401,90,1106,1722,59.41619304674559,34.163346625828794,0.0007968397183448,False
0.43,1.0762909095274047,2.800000000000001,6443.0,27.17442,0.3,68900.0,0.33,276.0,2700.0,50.11102427454404,10.607351147620996,28639.848098576687,33.492009025831074,15.412327375188733,16.61901524871297,4.804976227567735,4617,114,1534,2310,74.1525937874111,42.716906373716114,0.0010506358104136,False
0.44,1.0573346415272842,2.800000000000001,6444.0,27.17442,0.3,68900.0,0.33,276.0,2700.0,48.30004680232115,10.447601344108378,28208.52362909262,32.65025882119951,14.785436363956626,15.64978798112164,4.337835019848248,4583,112,1520,2291,71.00295376871752,40.91006900053101,0.0010064199309949,False
0.45,0.7779642703823372,2.800000000000001,6445.0,27.17442,0.1,68900.0,0.33,276.0,2700.0,28.41368143248863,6.202226568604362,16746.01173523178,21.29218674092288,7.296142547321886,7.121494691565751,1.093915978717524,49223,234,7674,31438,58.65649089042878,33.86294783753377,0.0006966548110379,False
0.46,0.988994941383506,2.800000000000001,6446.0,27.17442,0.3,68900.0,0.33,276.0,2700.0,42.51369655558753,9.574290166098594,25850.583448466205,29.69061301042793,12.655926583806524,12.823083545159594,3.08163641770793,4055,104,1338,2034,63.6927455043533,36.57921008784185,0.0008914967603514,False
0.4700000000000001,0.86123944903417,2.800000000000001,6447.0,27.17442,0.2,68900.0,0.33,276.0,2700.0,33.27916935410658,7.603158415498996,20528.527721847287,24.472612403828347,9.20046896119858,8.806556950278232,1.5973105456995853,9140,132,2280,5136,60.18608711077509,34.74325702915789,0.0007502204621126,False
0.4800000000000001,1.158496880627708,2.800000000000001,6448.0,27.17442,0.3,68900.0,0.33,276.0,2700.0,54.96862642434627,12.96084699867924,34994.28689643394,37.246856399446095,18.31874243238764,17.721770024900174,5.357895433708398,5538,122,1742,2849,74.44772542967243,42.91554711874292,0.001055034250233,False
0.49,0.931246796965776,2.800000000000001,6449.0,27.17442,0.08,68900.0,0.33,276.0,2700.0,37.49064033120404,8.938803391743532,24134.76915770753,27.281164762285748,11.011322699849844,10.209475568918291,2.0725193081063136,129208,344,15736,85852,66.80530079923,37.93359024930185,0.0008016164067799,False
0.5,0.8106152163139715,2.800000000000001,6450.0,27.17442,0.08,68900.0,0.33,276.0,2700.0,29.19546703445055,7.037067370813492,19000.08190119643,22.51841252237624,8.011298398124381,6.67705451207431,0.9742310273108892,100906,294,12122,67179,67.74092906928135,38.99944870517746,0.0007420511949043,False
0.02,0.5171561511083915,2.800000000000001,6452.0,30.1938,0.08,68900.0,0.33,276.0,2700.0,24.31155336721892,0.2430987785113715,656.366701980703,12.459168115294087,2.9319842553688784,11.852385251924828,2.688885476857507,31332,274,10332,15828,863.4838100961188,492.3946661200737,0.0077223831732593,True
0.03,0.4079832976533727,2.800000000000001,6453.0,30.1938,0.08,68900.0,0.33,276.0,2700.0,17.714498218060914,0.2656609246031476,717.2844964284986,9.269294104838956,1.748630370957784,8.445204113221958,1.4829694463546363,23100,230,7592,11706,444.4968668936704,253.3846057649101,0.0039238320282395,True
0.04,0.7144203239053588,2.800000000000001,6454.0,30.1938,0.1,68900.0,0.33,276.0,2700.0,36.56331399974997,0.7311322387084422,1974.057044512794,18.98256910317056,6.017071462043201,17.58074489657941,5.285939223334759,29941,278,9856,15151,643.256178893511,366.6314717013874,0.0060398879088579,True
0.05,0.6470164025396581,2.800000000000001,6455.0,30.1938,0.2,68900.0,0.33,276.0,2700.0,31.62584445416396,0.7903843119662993,2134.0376423090083,16.64356963071074,4.81704211321773,14.98227482345322,4.026657801251431,6672,130,2190,3381,386.1385932179719,220.8162086850017,0.0043026111171602,True
0.06,0.7424368252979512,2.800000000000001,6456.0,30.1938,0.2,68900.0,0.33,276.0,2700.0,37.84683670398522,1.1349527117774325,3064.372321799068,19.98837062895638,6.562940098185736,17.85846607502884,5.427987386408304,7881,144,2592,3987,365.4168828887767,208.55223251821653,0.0043323825565961,True
0.0699999999999999,0.4677830991648826,2.800000000000001,6457.0,30.1938,0.1,68900.0,0.33,276.0,2700.0,19.966016369215765,0.6980921954024296,1884.84892758656,10.979456242093065,2.353618120707332,8.986560127122702,1.6555259253049024,16758,196,5500,8502,207.0121497853512,118.87237551469148,0.0021036528399751,False
0.08,0.5909861747346845,2.800000000000001,6458.0,30.1938,0.2,68900.0,0.33,276.0,2700.0,27.05706498241061,1.0812102690040002,2919.2677263108003,14.786160963617748,3.936903035915763,12.270904018792864,2.855692766911763,5962,120,1956,3022,232.26256894697303,133.17955704491297,0.0024811003427916,False
0.09,0.4784269575923338,2.800000000000001,6459.0,30.1938,0.2,68900.0,0.33,276.0,2700.0,20.02279420845921,0.8994989253510185,2428.64709844775,11.29327279343658,2.47214948248143,8.729521415022631,1.5726505571304117,4456,102,1456,2266,165.65011515930846,95.6377918570155,0.001714399725265,False
0.0999999999999999,0.641834097032727,2.800000000000001,6460.0,30.1938,0.3,68900.0,0.33,276.0,2700.0,29.69019526020661,1.4824153679079386,4002.5214933514335,16.468464233661233,4.7312440669898965,13.221731026545378,3.248828699081958,3018,86,992,1524,195.94401126253595,113.0356903348969,0.0022428026418234,False
0.11,0.7242530025842655,2.800000000000001,6461.0,30.1938,0.3,68900.0,0.33,276.0,2700.0,34.88119836239512,1.915678270050444,5172.331329136199,19.333318657680337,6.205443377354679,15.54787970471478,4.289765107304235,3531,94,1152,1797,198.3022375760035,114.4691565859274,0.0024016422234921,False
0.12,0.811710704244643,2.800000000000001,6462.0,30.1938,0.3,68900.0,0.33,276.0,2700.0,40.74178124351395,2.4408877598739043,6590.396951659542,22.56001878988144,8.035989834088998,18.18176245363251,5.595102074215093,3942,102,1298,1989,203.63378777694425,117.4460519170985,0.0025729623323387,False
0.13,0.7203849144500378,2.800000000000001,6463.0,30.1938,0.3,68900.0,0.33,276.0,2700.0,33.96170398649839,2.2029093730824405,5947.855307322589,19.195046984060987,6.130927941582256,14.766657002437404,3.928018568499816,3526,94,1148,1798,170.62370195474983,98.47678806205693,0.002038907594362,False
0.14,0.6406061283799223,2.800000000000001,6464.0,30.1938,0.3,68900.0,0.33,276.0,2700.0,28.38340830732577,1.9810915613518387,5348.947215649964,16.427071205636622,4.711046727699666,11.956337101689147,2.7299551663478274,2877,84,942,1458,143.00265135877626,82.56252900406696,0.0016386314946508,False
0.15,0.4767572937543491,2.800000000000001,6465.0,30.1938,0.2,68900.0,0.33,276.0,2700.0,18.33418730625792,1.3679954644987675,3693.587754146673,11.243857225187543,2.453334776728081,7.090330081070377,1.0853393122293131,3706,94,1222,1867,100.06997108343997,57.77464030172728,0.0010766355854713,False
0.16,0.6139292387587394,2.800000000000001,6466.0,30.1938,0.3,68900.0,0.33,276.0,2700.0,26.112449819766372,2.0804173432419075,5617.12682675315,15.53718685006501,4.284732997343057,10.575262969701363,2.204315654101149,2752,80,900,1396,123.99425799546565,71.22162877972087,0.001374636532453,False
0.17,0.5816064403864372,2.800000000000001,6467.0,30.1938,0.1,68900.0,0.33,276.0,2700.0,23.85328296404338,2.0172392888056296,5446.5460797752,14.48293148362395,3.799636608375224,9.37035148041943,1.7823973195695944,20831,216,6528,10751,107.95692701301827,62.31715702923445,0.0012180090747737,False
0.18,0.5779385224874884,2.800000000000001,6468.0,30.1938,0.3,68900.0,0.33,276.0,2700.0,23.35580447974358,2.0898078909397846,5642.481305537418,14.36495587318918,3.746730870535426,8.9908486065544,1.6569229795956413,2608,78,858,1315,102.26842562790212,59.04411315313609,0.001146901088311,False
0.19,0.8455377842960663,2.800000000000001,6469.0,30.1938,0.3,68900.0,0.33,276.0,2700.0,40.79257187088132,3.860928871726408,10424.507953661305,23.85960505908385,8.82102893153513,16.932966811797467,4.960100059808722,4072,102,1328,2074,136.6780690737231,78.90665670573722,0.0017727942776046,False
0.2,0.5948503256066059,2.800000000000001,6470.0,30.1938,0.2,68900.0,0.33,276.0,2700.0,23.817477036953445,2.3649925428761978,6385.479865765734,14.91172492252879,3.9942814708935344,8.905752114424654,1.6292889280173366,4985,110,1644,2513,93.9644727448707,54.20136857014873,0.0010833062111663,False
0.21,0.8809010437809837,2.800000000000001,6471.0,30.1938,0.3,68900.0,0.33,276.0,2700.0,42.70829062601277,4.464974322688073,12055.430671257798,25.24895640932337,9.689255710322254,17.4593342166894,5.22428138763418,4189,106,1378,2116,128.84078181595132,74.15808581702363,0.0017055552672986,False
0.22,0.7327129094643614,2.800000000000001,6472.0,30.1938,0.3,68900.0,0.33,276.0,2700.0,31.96053898569572,3.4933581693762465,9432.067057315866,19.63704363292769,6.370284927280322,12.323495352768036,2.876926757904075,3132,88,1028,1584,104.36095252139545,60.07934503851717,0.0012847811115425,False
0.23,0.5879113907189863,2.800000000000001,6473.0,30.1938,0.1,68900.0,0.33,276.0,2700.0,22.59298047586997,2.572710249514228,6946.317673688416,14.686515261657975,3.891592039921,7.906465214211995,1.3188817904067711,24843,208,6126,14056,85.15672341753334,49.151030851535474,0.0009571562564062,False
0.24,0.5735155234739879,2.800000000000001,6474.0,30.1938,0.08,68900.0,0.33,276.0,2700.0,21.488445065807262,2.54966049000139,6884.083323003752,14.223143391477397,3.6835084843339447,7.2653016743298675,1.1338479943325548,46611,254,9230,28276,80.68930240545919,46.57067653192468,0.0009003317364716,False
0.25,0.672216059457246,2.800000000000001,6475.0,30.1938,0.3,68900.0,0.33,276.0,2700.0,27.17283869326753,3.363879913183547,9082.475765595576,17.50466415646386,5.247270485854251,9.668174536803663,1.8833905726707043,2812,82,924,1420,86.9508682010121,50.15610766994843,0.0010341705049335,False
0.26,0.8932119198236073,2.800000000000001,6476.0,30.1938,0.3,68900.0,0.33,276.0,2700.0,41.91862570930907,5.412610253890517,14614.047685504396,25.74000130533592,10.003111171567664,16.178624403973153,4.590500917677148,4015,104,1328,2017,106.60168754086692,61.451291854207824,0.0014282979585734,False
0.27,0.602929175001369,2.800000000000001,6477.0,30.1938,0.1,68900.0,0.33,276.0,2700.0,22.425531761314588,2.986222808977064,8062.801584238072,15.17545621404258,4.115815269100139,7.250075547272008,1.1295924601230751,26206,206,6088,15166,77.0107952095681,44.42915440480083,0.0008648281247035,False
0.28,0.7484514785160713,2.800000000000001,6478.0,30.1938,0.3,68900.0,0.33,276.0,2700.0,31.20594930976093,4.322856742078796,11671.71320361275,20.20687079366343,6.683819861561651,10.999078516097498,2.360963119482854,3177,86,1040,1611,87.21230583370934,50.34801248871994,0.0010661561374182,False
0.29,0.954854408704272,2.800000000000001,6479.0,30.1938,0.3,68900.0,0.33,276.0,2700.0,45.50748598334758,6.547505265433135,17678.264216669464,28.25602611298937,11.666845363553833,17.251459870358204,5.119340098120696,4090,106,1346,2065,102.69772918503722,59.25012524097156,0.0014150302319185,False
0.3,0.8856435696316574,2.800000000000001,6480.0,30.1938,0.3,68900.0,0.33,276.0,2700.0,40.05084424188084,5.951077968517516,16067.910514997291,25.43767087077432,9.809446806999569,14.613173371106525,3.8583688384820514,3952,102,1302,1993,93.08750771759608,53.70856622401152,0.00124087056847,False
0.31,0.7216573486421843,2.800000000000001,6481.0,30.1938,0.1,68900.0,0.33,276.0,2700.0,28.612264671211992,4.372506899542467,11805.76862876466,19.24049089778217,6.155381283564616,9.371773773429824,1.7828743840221488,40194,238,7732,24562,79.40645100654152,45.80970779478488,0.0009491429264874,False
0.32,0.7265971470855928,2.800000000000001,6482.0,30.1938,0.3,68900.0,0.33,276.0,2700.0,28.648015848234333,4.515053397002275,12190.644171906142,19.417297258314782,6.250861871987816,9.230718589919547,1.7358084749855411,2963,84,980,1487,74.62773069353517,43.03548148751651,0.0009189337028771,False
0.33,0.7244716368960055,2.800000000000001,6483.0,30.1938,0.2,68900.0,0.33,276.0,2700.0,28.236479051657327,4.5837527667287485,12376.13247016762,19.34114535710656,6.209671159743682,8.895333694550764,1.625918393014933,6117,120,1898,3164,75.10644478033724,43.32846217950034,0.0009004084513125,False
0.34,0.8640144883292276,2.800000000000001,6484.0,30.1938,0.1,68900.0,0.33,276.0,2700.0,37.25115575746828,6.250378373665145,16876.02160889589,24.5815967974588,9.268532595500782,12.669558960009486,3.018154221835637,53481,278,9922,32958,84.65779234949076,48.84776364544065,0.0010920139653225,False
0.3500000000000001,0.7457863008036968,2.800000000000001,6485.0,30.1938,0.2,68900.0,0.33,276.0,2700.0,29.04145607700462,4.992457623460693,13479.63558334387,20.10993810814476,6.630094170951655,8.931517968859861,1.6376365474909624,6823,122,1988,3629,76.52991676681137,44.18085681291005,0.0008889137777548,False
0.36,0.962787241464362,2.800000000000001,6486.0,30.1938,0.3,68900.0,0.33,276.0,2700.0,43.7575602648851,7.778644749782066,21002.340824411574,28.58675157909696,11.8923064425321,15.170808685788138,4.113661692750034,4347,108,1434,2186,85.926780445573,49.56894170425723,0.0011796562546934,False
0.37,0.9706656489178576,2.800000000000001,6487.0,30.1938,0.3,68900.0,0.33,276.0,2700.0,44.0181721371545,8.037274450252054,21700.641015680547,28.91677337530721,12.118823518159196,15.101398761847292,4.081549067907142,4350,108,1434,2189,84.42719712406473,48.69304505518669,0.0011641245451147,False
0.38,0.8941088822858358,2.800000000000001,6488.0,30.1938,0.1,68900.0,0.33,276.0,2700.0,38.14199480911408,7.132055365673157,19256.549487317523,25.775927391689663,10.026215097180302,12.36606741742441,2.894159731507145,59572,284,10426,37077,88.06592869680703,49.80432286012342,0.001038791212738,False
0.39,0.6958423555219014,2.800000000000001,6489.0,30.1938,0.05,68900.0,0.33,276.0,2700.0,24.88260417381418,4.727870390814908,12765.250055200251,18.32649182158132,5.6705216142017285,6.556112352232859,0.9426512233868208,263228,430,26286,179441,350.4222265305099,178.56614312113385,0.0008236596175708,True
0.4,0.9272666850996722,2.800000000000001,6490.0,30.1938,0.3,68900.0,0.33,276.0,2700.0,39.88792706184509,7.84354412581586,21177.569139702824,27.11818838311869,10.903065076420484,12.769738678726402,3.0595209506046235,3808,100,1260,1912,76.13314335065837,43.87118692125411,0.0010274700208913,False
0.4100000000000001,0.9877856155492004,2.800000000000001,6491.0,30.1938,0.3,68900.0,0.33,276.0,2700.0,43.99934171491708,8.875517246705966,23963.89656610611,29.639296627977643,12.620051991274304,14.360045086939436,3.7445347445683375,4286,108,1422,2147,79.33739990165516,45.695812335634514,0.0010896893445475,False
0.42,0.8911090764336999,2.800000000000001,6492.0,30.1938,0.3,68900.0,0.33,276.0,2700.0,36.73306659821802,7.558774441279678,20408.69099145513,25.655855274703903,9.94907247240377,11.077211323514112,2.390298031124092,3570,94,1178,1795,70.11555539734466,40.39471125225691,0.000938245194954,False
0.43,1.011184909052098,2.800000000000001,6493.0,30.1938,0.3,68900.0,0.33,276.0,2700.0,45.10810025018308,9.531722482383172,25735.650702434563,30.638744177238348,13.325256942712953,14.46935607294473,3.7935344603297807,4443,110,1474,2220,76.40528467244197,44.029487456764855,0.001078237685034,False
0.44,0.8041564601689735,2.800000000000001,6494.0,30.1938,0.1,68900.0,0.33,276.0,2700.0,30.346724788724348,6.497870501117097,17544.250353016163,22.2737242366972,7.86664821814805,8.073000552027146,1.3687777170309534,51879,242,8190,33040,67.27718752480988,38.81007733449819,0.0008166107166301,False
0.45,0.9213306920968736,2.800000000000001,6495.0,30.1938,0.1,68900.0,0.33,276.0,2700.0,37.95959766878826,8.350057721771956,22545.15584878428,26.87586287408676,10.742811359258765,11.083734794701504,2.3927536374868072,65138,278,9986,41749,72.59839305714708,41.89037619049895,0.0009399694799844,False
0.46,1.1326828251778902,2.800000000000001,6496.0,30.1938,0.3,68900.0,0.33,276.0,2700.0,53.570242851696285,12.117295814203606,32716.698698349737,36.04947835073679,17.37274063456894,17.520764500959494,5.255444820365336,4919,118,1626,2466,79.54030197247488,45.78628506435237,0.001175796345281,False
0.4700000000000001,0.8808723930829837,2.800000000000001,6497.0,30.1938,0.3,68900.0,0.33,276.0,2700.0,34.59766870496951,7.913005762952065,21365.11555997057,25.247818059308926,9.688532326404664,9.34985064566058,1.7755265634526003,3585,92,1118,1848,62.06070079247925,35.76727003536203,0.0008485346745513,False
0.4800000000000001,0.8483726254895547,2.800000000000001,6498.0,30.1938,0.08,68900.0,0.33,276.0,2700.0,32.155807473518145,7.485770450480487,20211.58021629732,23.969821487279347,8.888823298138519,8.185985986238798,1.4030528476580315,108684,312,13310,72155,78.13823017418363,44.55927638535808,0.0008114522149696,False
0.49,1.0123145933049442,2.800000000000001,6499.0,30.1938,0.2,68900.0,0.33,276.0,2700.0,43.30464595701008,10.363234770066018,27980.73387917825,30.687344282295584,13.359896497903147,12.617301674714495,2.9966617278371306,11717,152,2874,6636,73.16546956085959,42.180963064069,0.0009788881181801,False
0.5,1.085628911830847,2.800000000000001,6500.0,30.1938,0.3,68900.0,0.33,276.0,2700.0,48.52268154149733,11.868870997575184,32045.951693452997,33.90998178684442,15.727025642543852,14.612699754652908,3.858154644968669,4975,112,1484,2619,72.51110320822184,41.78865373944556,0.0010449126454676,False
0.02,0.489382004597059,2.800000000000001,6502.0,33.21318,0.1,68900.0,0.33,276.0,2700.0,22.64565322981191,0.2264397771372993,611.3873982707082,11.619237642219405,2.597650543287715,11.026415587592506,2.371210766150416,18444,210,6108,9276,768.123000857008,443.200947306643,0.0079331981032512,True
0.03,0.4360384586235845,2.800000000000001,6503.0,33.21318,0.1,68900.0,0.33,276.0,2700.0,19.275611823637984,0.2890776286868063,780.5095974543772,10.060427454139411,2.0197333474602024,9.215184369498571,1.730655718773396,15926,192,5226,8081,494.1821115641116,282.109657937272,0.0046755605241654,True
0.05,0.6575523826371259,2.800000000000001,6505.0,33.21318,0.2,68900.0,0.33,276.0,2700.0,32.328769122280185,0.8079574286692054,2181.4850574068546,17.001651916303366,4.994282355981038,15.32711720597682,4.186324927311833,6691,132,2212,3367,419.3329738999144,241.683732230633,0.0048300148598377,True
0.06,0.4374023564188686,2.800000000000001,6506.0,33.21318,0.08,68900.0,0.33,276.0,2700.0,18.5288616157246,0.5554134591296208,1499.6163396499762,10.099392513660751,2.03348130915012,8.42946910206385,1.4780678500204991,23921,234,7854,12134,253.0943703582361,145.12449010566243,0.0024611606308114,False
0.0699999999999999,0.5469746196762748,2.800000000000001,6507.0,33.21318,0.2,68900.0,0.33,276.0,2700.0,24.632787639490186,0.8614291898620359,2325.8588126274967,13.382502376968528,3.3172082466956523,11.250285262521658,2.4557790568336166,5210,112,1714,2633,261.2063133340642,150.80752021595856,0.0028049534399058,False
0.08,0.4708624800622129,2.800000000000001,6508.0,33.21318,0.08,68900.0,0.33,276.0,2700.0,19.86617401775719,0.793574630417863,2142.6515021282303,11.069953971945408,2.3875673258552106,8.796220045811781,1.5939926954373476,25096,242,8262,12697,198.94245166315508,114.27024316655292,0.0020618711294567,False
0.09,0.5358981909886215,2.800000000000001,6509.0,33.21318,0.2,68900.0,0.33,276.0,2700.0,23.380071852693668,1.05057641934157,2836.5563322222392,13.036910049220795,3.170894723992088,10.343161803472873,2.1203183046505174,4890,108,1600,2484,196.55363100901263,113.47684822179488,0.0021673579667649,False
0.0999999999999999,0.4745941941707332,2.800000000000001,6510.0,33.21318,0.2,68900.0,0.33,276.0,2700.0,19.533470628399197,0.974579136317568,2631.363668057433,11.1799420576702,2.4290823424798327,8.353528570728994,1.454503206162265,3898,96,1280,1972,162.32516934879004,93.54901366977012,0.0016953544586408,False
0.11,0.6541455915880654,2.800000000000001,6511.0,33.21318,0.3,68900.0,0.33,276.0,2700.0,30.17950293757111,1.6570850216851278,4474.129558549846,16.885561417235277,4.936559111262236,13.293941520335837,3.279474089577108,3039,86,996,1539,200.6829097597602,115.8642914707878,0.0023142236078298,False
0.12,0.5666167458814494,2.800000000000001,6512.0,33.21318,0.1,68900.0,0.33,276.0,2700.0,24.3667950892795,1.4583885906198342,3937.649194673552,14.002932730828348,3.586146461257049,10.36386235845115,2.1277578706372147,20248,220,6674,10231,154.51089374835914,89.17529887209272,0.0017792305983466,False
0.13,0.770011219384567,2.800000000000001,6513.0,33.21318,0.3,68900.0,0.33,276.0,2700.0,37.40459448343193,2.4266972553831208,6552.082589534426,20.99756316273146,7.12797733205009,16.40703132070047,4.701280076666969,3822,100,1262,1923,199.36412443260696,114.82719730825424,0.0024500676614607,False
0.14,0.7219607776412724,2.800000000000001,6514.0,33.21318,0.3,68900.0,0.33,276.0,2700.0,33.74567998193388,2.356450578573549,6362.416562148582,19.251333617274565,6.161221051399242,14.494346364659318,3.804770472825693,3555,94,1156,1815,174.7458368612118,100.73555398607868,0.0021017861620411,False
0.15,0.764863510656729,2.800000000000001,6515.0,33.21318,0.3,68900.0,0.33,276.0,2700.0,36.37576188681453,2.721113558040426,7347.006606709151,20.807711940150227,7.02037692798546,15.568049946664305,4.2992633699450336,3699,96,1214,1872,170.62999030642823,98.4701644320901,0.002126561214775,False
0.16,0.7038625844721709,2.800000000000001,6516.0,33.21318,0.3,68900.0,0.33,276.0,2700.0,31.893753795196016,2.542921661276281,6865.88848544596,18.60866055823172,5.818634722915902,13.285093236964295,3.27571306163962,3135,88,1032,1581,150.44634822441853,86.8126491369588,0.0017965710894478,False
0.17,0.5281649654513002,2.800000000000001,6517.0,33.21318,0.2,68900.0,0.33,276.0,2700.0,20.710664016497915,1.7501166782642648,4725.315031313515,12.797455895215023,3.0710042033525573,7.913208121282892,1.3208875250882923,4330,102,1428,2182,108.45000809440492,62.44843851858261,0.0011947505050325,False
0.18,0.5636609750088236,2.800000000000001,6518.0,33.21318,0.2,68900.0,0.33,276.0,2700.0,22.508382507266745,2.013539913416847,5436.557766225486,13.908949835396154,3.544895950596612,8.599432671870591,1.5313560371797648,4745,108,1558,2402,109.48768878292002,63.01300029903953,0.0012265344051245,False
0.19,0.719315447545331,2.800000000000001,6519.0,33.21318,0.3,68900.0,0.33,276.0,2700.0,31.98986798348477,3.024672002423737,8166.614406544088,19.156883349335736,6.110419884032554,12.832984634149035,3.085747881608817,3308,90,1086,1673,130.74780813715236,75.39545047315964,0.0015777925445215,False
0.2,0.5781851942409718,2.800000000000001,6520.0,33.21318,0.2,68900.0,0.33,276.0,2700.0,22.823553809555065,2.265600220136359,6117.120594368169,14.37287926541409,3.750275276596464,8.450674544140975,1.4846750564601048,4850,106,1600,2444,101.72857541761836,58.70083437488808,0.0011514517872692,False
0.21,0.5137898699843872,2.800000000000001,6521.0,33.21318,0.08,68900.0,0.33,276.0,2700.0,18.86061371896426,1.9609682474479853,5294.61426810956,12.356334391813029,2.8902163564258894,6.504279327151233,0.929248108977904,33693,234,8054,19292,90.18592392647594,52.007216591886674,0.0009768227274729,False
0.22,0.8013691242245722,2.800000000000001,6522.0,33.21318,0.3,68900.0,0.33,276.0,2700.0,36.64373877482664,4.008510146180648,10822.97739468775,22.16845060421743,7.8047106278124705,14.475288170609208,3.796200481631822,3739,98,1228,1891,143.43554828934563,81.90260993670547,0.0015859605455523,False
0.23,0.6541994610727152,2.800000000000001,6523.0,33.21318,0.3,68900.0,0.33,276.0,2700.0,26.61155937108504,3.0348468224639578,8194.086420652686,16.88739481492191,4.937468777135571,9.724164556163124,1.9026219546716128,2706,80,886,1371,100.27290423923549,57.8433625119769,0.0011831283463366,False
0.24,0.5563300778649425,2.800000000000001,6524.0,33.21318,0.1,68900.0,0.33,276.0,2700.0,20.49942100484045,2.430977602685371,6563.6395272505015,13.6768012781069,3.443782623716183,6.822619726733549,1.012805021030812,22246,194,5428,12640,90.68883068485212,52.34309575323915,0.001008807501964,False
0.25,0.9211878351903786,2.800000000000001,6525.0,33.21318,0.3,68900.0,0.33,276.0,2700.0,44.33925843328732,5.50968238068603,14876.14242785228,26.87004192806818,10.738972372415628,17.46921650521914,5.229289991729598,4293,108,1416,2163,124.5121481000987,71.88148231060865,0.0016979809048878,False
0.26,0.957521903125582,2.800000000000001,6526.0,33.21318,0.3,68900.0,0.33,276.0,2700.0,46.752507421759816,6.041014876509118,16310.74016657462,28.36705936349901,11.74236620611384,18.38544805826081,5.701351329604723,4592,112,1518,2309,124.69267039186155,71.92345988978785,0.0017229811900906,False
0.27,0.9423426721524368,2.800000000000001,6527.0,33.21318,0.3,68900.0,0.33,276.0,2700.0,45.246648236421045,6.067073533116433,16381.09853941437,27.737617316709144,11.316560608117529,17.5090309197119,5.249487075001094,4281,108,1408,2163,118.98382763698224,68.53961262316622,0.0016306940719072,False
0.28,0.907988632448574,2.800000000000001,6528.0,33.21318,0.3,68900.0,0.33,276.0,2700.0,42.33838025440892,5.881397074329451,15879.772100689515,26.334431106848808,10.387848875406368,16.00394914756011,4.506451801076917,4178,106,1372,2114,112.07036985260444,64.68106848290395,0.0015019660101305,False
0.29,0.8069064868603492,2.800000000000001,6529.0,33.21318,0.3,68900.0,0.33,276.0,2700.0,34.829311663971005,4.999169989123536,13497.758970633548,22.377780112221743,7.928044588974711,12.45153155174926,2.9288745998511745,3238,92,1066,1633,97.9727692221623,56.4569070311416,0.0012474768589746,False
0.3,0.7843618351100735,2.800000000000001,6530.0,33.21318,0.3,68900.0,0.33,276.0,2700.0,32.99982976313126,4.893425796705063,13212.249651103668,21.530340487660546,7.433121943790521,11.469489275470718,2.5396961470854587,3427,92,1128,1729,92.9355838484435,53.49337095183228,0.0011690877416622,False
0.31,0.6890123859264344,2.800000000000001,6531.0,33.21318,0.08,68900.0,0.33,276.0,2700.0,26.56057168163865,4.054494486158593,10947.135112628202,18.08747350594029,5.54616914347352,8.473098175698354,1.4916746573149269,64378,284,11190,40117,88.12029784765824,49.64556695852574,0.0009918346334967,False
0.32,0.7940329001365223,2.800000000000001,6532.0,33.21318,0.3,68900.0,0.33,276.0,2700.0,33.05568154140825,5.220279907910099,14094.755751357266,21.892305357860582,7.643091665143664,11.163376183547664,2.422811757233565,3327,90,1094,1680,89.56773225673574,51.66688534616163,0.0011247794740285,False
0.33,0.7509757550177171,2.800000000000001,6533.0,33.21318,0.3,68900.0,0.33,276.0,2700.0,29.93205537589278,4.86352286022737,13131.5117226139,20.298843507695057,6.734943639270854,9.633211868197725,1.8714207790434845,3001,84,986,1516,82.6894621775504,47.56991446122329,0.0010268100953699,False
0.34,0.7733507625593541,2.800000000000001,6534.0,33.21318,0.3,68900.0,0.33,276.0,2700.0,31.104863882222936,5.20550875487336,14054.873638158071,21.121084106873127,7.198305774556033,9.98377977534981,1.9927970196826728,3286,90,1086,1651,81.99249802090377,47.33792285653183,0.0010358160591882,False
0.3500000000000001,0.7767878915711816,2.800000000000001,6535.0,33.21318,0.1,68900.0,0.33,276.0,2700.0,31.04589001494224,5.343233562599783,14426.730619019416,21.24850719484016,7.271120565252524,9.797382820102085,1.9278870026527404,45234,248,8326,27907,84.4196754053881,48.71631340814299,0.0010323702208616,False
0.36,0.9254291161505168,2.800000000000001,6536.0,33.21318,0.3,68900.0,0.33,276.0,2700.0,41.00822250612848,7.283763953205866,19666.16267365584,27.04307852238412,10.853302558259646,13.965143983744362,3.56953860505378,3755,100,1248,1877,93.89469638855807,54.02004448362058,0.0012329934922433,False
0.37,0.9644082768311256,2.800000000000001,6537.0,33.21318,0.3,68900.0,0.33,276.0,2700.0,43.55187004291502,7.951008562817761,21467.72311960796,28.654528319203365,11.938701503187618,14.897341723711657,3.9876929403698567,4327,108,1428,2175,92.31055921406488,53.24373562356696,0.0012700855114969,False
0.38,0.9202118553546832,2.800000000000001,6538.0,33.21318,0.3,68900.0,0.33,276.0,2700.0,40.00142050952491,7.485346248751064,20210.434871627876,26.830287702708475,10.71276715491785,13.171132806816438,3.2274209061667865,3866,100,1280,1940,87.8647294922659,50.64656409941352,0.0011692010324044,False
0.39,0.9849065084443988,2.800000000000001,6539.0,33.21318,0.3,68900.0,0.33,276.0,2700.0,44.43082620146414,8.53977368620665,23057.388952757952,29.51727287341676,12.534892991484853,14.913553328047383,3.995119305278204,4282,108,1418,2149,89.21027199905586,51.35209988045101,0.0012464474594257,False
0.4,0.9569517509912352,2.800000000000001,6540.0,33.21318,0.3,68900.0,0.33,276.0,2700.0,42.03974748684099,8.273908210814824,22339.552169200026,28.343312011498504,11.726199436862656,13.696435475342485,3.4522912260478336,4038,104,1346,2009,86.14003404023155,49.687458199548885,0.0011745906802588,False
0.4100000000000001,0.7569046090066631,2.800000000000001,6541.0,33.21318,0.08,68900.0,0.33,276.0,2700.0,28.13082970111341,5.6224722838762125,15180.675166465771,20.515492739703586,6.855934322917477,7.615336961409824,1.2334620390412647,83033,290,11788,53953,75.06177024563436,42.92123019677018,0.0008868845307873,False
0.42,0.906774024182306,2.800000000000001,6542.0,33.21318,0.3,68900.0,0.33,276.0,2700.0,37.82672772560782,7.788443278031538,21028.796850685158,26.2853634848055,10.355892660417936,11.541364240802316,2.567449382386398,3602,96,1192,1808,81.49123795453788,46.952057481375526,0.0010524219325527,False
0.43,0.8042787257094548,2.800000000000001,6543.0,33.21318,0.1,68900.0,0.33,276.0,2700.0,30.623356306651683,6.417502534524135,17327.256843215164,22.278346499089544,7.869371809648259,8.345009807562139,1.4518692751241238,51098,244,8250,32383,75.0353451866843,43.2558055895515,0.0009147376363658,False
0.44,1.1223095867832342,2.800000000000001,6544.0,33.21318,0.3,68900.0,0.33,276.0,2700.0,53.42708107206029,11.575548883451006,31253.98198531772,35.573035622872034,17.00126426640204,17.854045449188256,5.425715382951033,4903,118,1634,2446,90.35810543346204,52.04410053420799,0.0013306216607909,False
0.45,0.8770430465765606,2.800000000000001,6545.0,33.21318,0.2,68900.0,0.33,276.0,2700.0,34.9004654915237,7.661752981887256,20686.73305109559,25.095856050193607,9.592140757725652,9.80460944133009,1.9303877758383976,9407,134,2328,5307,76.32069297082691,44.00075586550538,0.000969404002333,False
0.46,0.9128200738709208,2.800000000000001,6546.0,33.21318,0.2,68900.0,0.33,276.0,2700.0,37.07308935666969,8.322950510347482,22471.966377938203,26.529978267304102,10.515554287809463,10.543111089365588,2.192603777461983,10367,140,2590,5826,78.73896788895689,45.32804461148978,0.0009999103336051,False
0.4700000000000001,1.0039767253313754,2.800000000000001,6547.0,33.21318,0.2,68900.0,0.33,276.0,2700.0,43.30666923917962,9.95962088849144,26890.976398926887,30.32939641814924,13.105522947848144,12.97727282103038,3.1459020593567057,11696,152,2878,6613,82.62314424488686,47.62807956738742,0.0011041923484101,False
0.4800000000000001,1.071611813679791,2.800000000000001,6548.0,33.21318,0.3,68900.0,0.33,276.0,2700.0,48.08986037458328,11.309943146736124,30536.846496187536,33.283394997546566,15.256103331902334,14.806465377036716,3.94616018516621,4828,112,1504,2494,84.67876042167258,48.85498930302192,0.0011652891174392,False
0.49,0.922279504901612,2.800000000000001,6549.0,33.21318,0.3,68900.0,0.33,276.0,2700.0,36.86781713779471,8.786211709358243,23722.77161526725,26.91453687099319,10.76832986749403,9.95328026680152,1.982118158135787,3976,96,1192,2090,84.63549505852454,46.46267467664375,0.000954687767035,False
0.5,0.994657435072855,2.800000000000001,6550.0,33.21318,0.3,68900.0,0.33,276.0,2700.0,41.708666346682605,10.165367198871506,27446.491436953067,29.93138354329882,12.82473079316144,11.777282803383784,2.6593635942899336,4359,102,1308,2293,81.0511964026545,46.78332566453026,0.0010324404879252,False
0.02,0.5028250404763752,2.800000000000001,6552.0,36.23256,0.1,68900.0,0.33,276.0,2700.0,23.44712791355266,0.2344545239747092,633.027214731715,12.023353587510616,2.7565595563363563,11.423774326042045,2.522105032361647,19254,214,6368,9696,871.9079899604488,500.3120054048544,0.0089504495469059,True
0.03,0.7258829142883977,2.800000000000001,6553.0,36.23256,0.1,68900.0,0.33,276.0,2700.0,37.71961005230877,0.5657376021168762,1527.4915257155658,19.39169535398685,6.237002545076006,18.327914698321923,5.67126494295913,30720,282,10106,15555,961.3659806430068,547.1797054438928,0.0099093410238067,True
0.04,0.3611599669919195,2.800000000000001,6554.0,36.23256,0.08,68900.0,0.33,276.0,2700.0,14.939255176596127,0.2986510622453705,806.3578680625004,7.9929716688602435,1.3447069853102336,6.946283507735884,1.0460559230648632,19482,210,6386,9897,343.6571289581914,196.72694881631503,0.0031192548972046,True
0.05,0.5882556516961743,2.800000000000001,6555.0,36.23256,0.1,68900.0,0.33,276.0,2700.0,27.80786622262741,0.6949348561778883,1876.3241116802983,14.697660046308608,3.89664995228824,13.110206176318805,3.201715096110352,22602,236,7414,11475,494.8417057949506,282.65929526593726,0.004567149826929,True
0.06,0.5628998785347468,2.800000000000001,6556.0,36.23256,0.2,68900.0,0.33,276.0,2700.0,25.910401284758898,0.7768596492006494,2097.5210528417533,13.884785250623407,3.534319094632289,12.025616034135489,2.75745944543164,5344,114,1752,2710,344.5835194921878,197.28499782313472,0.0036581155035801,True
0.0699999999999999,0.3977223218829008,2.800000000000001,6557.0,36.23256,0.1,68900.0,0.33,276.0,2700.0,16.10012786240142,0.5627860976639278,1519.5224636926052,8.984883310186008,1.654979797562667,7.11524455221541,1.0921936998987392,13516,174,4430,6865,201.86161311928103,116.41375975070608,0.0020808803210085,False
0.08,0.4076482030163338,2.800000000000001,6558.0,36.23256,0.08,68900.0,0.33,276.0,2700.0,16.37329441983933,0.6538594465008851,1765.4205055523898,9.259964250307975,1.745525843485272,7.113330169531352,1.091666396984387,21155,218,6972,10691,182.19334732845107,104.77921989261242,0.0018950067314835,False
0.09,0.503379217671942,2.800000000000001,6559.0,36.23256,0.1,68900.0,0.33,276.0,2700.0,21.460028707779223,0.9641744778204208,2603.271090115136,12.040110384400949,2.7632272674696905,9.419918323378274,1.7990527896492696,17553,202,5770,8892,201.52808908465445,115.81358589295375,0.002187972578883,False
0.0999999999999999,0.7197887920576205,2.800000000000001,6560.0,36.23256,0.3,68900.0,0.33,276.0,2700.0,34.90488722162469,1.7431499659788383,4706.504908142863,19.17377097325148,6.119491686248459,15.731116248373208,4.376341720269621,3487,94,1140,1771,260.1042086009333,150.16802811065833,0.0031243765072447,False
0.11,0.5425264531558087,2.800000000000001,6561.0,36.23256,0.2,68900.0,0.33,276.0,2700.0,23.20365447680097,1.2734133563427683,3438.2160621254743,13.243345966118731,3.2579903274387085,9.96030851068224,1.98457697109594,5092,110,1662,2593,246.99578761012484,137.81598039994967,0.001994290558361,False
0.12,0.5286273359893295,2.800000000000001,6562.0,36.23256,0.3,68900.0,0.33,276.0,2700.0,22.09896427568246,1.3223187418040117,3570.2606028708315,12.811730643534808,3.076924669824737,9.28723363214765,1.7546059280207251,2357,74,768,1199,168.52278088214246,97.29602885556592,0.0017865208900775,False
0.13,0.4556353774159619,2.800000000000001,6563.0,36.23256,0.1,68900.0,0.33,276.0,2700.0,17.68617456172728,1.144999960472314,3091.499893275248,10.624779967369898,2.2224007500943723,7.061394594357383,1.0774007896220583,14763,184,4876,7443,129.39274719165834,74.69793440667327,0.0013909320655173,False
0.14,0.7305124664907636,2.800000000000001,6564.0,36.23256,0.3,68900.0,0.33,276.0,2700.0,34.32866475754057,2.3972595128668788,6472.600684740572,19.557870921883328,6.327161862428464,14.770793835657244,3.929902349561585,3521,94,1148,1793,192.77217029145385,111.25213318913984,0.0023285711987794,False
0.15,0.4939110291468088,2.800000000000001,6565.0,36.23256,0.2,68900.0,0.33,276.0,2700.0,19.29156270573814,1.4397986194597836,3887.456272541416,11.754878954382,2.650581322666529,7.536683751356142,1.2107827032067453,3976,96,1308,2008,123.40610536272176,71.14628916349675,0.0013452185665277,False
0.16,0.8140350796511284,2.800000000000001,6566.0,36.23256,0.3,68900.0,0.33,276.0,2700.0,39.53019816071584,3.1538372105178656,8515.360468398238,22.64839768594002,8.08853047349896,16.881800474775815,4.934693262981094,4069,102,1334,2062,185.0152598933339,106.74749707081298,0.0023732495901584,False
0.17,0.7757827298198647,2.800000000000001,6567.0,36.23256,0.3,68900.0,0.33,276.0,2700.0,36.48021414520829,3.090528439204649,8344.426785852553,21.211212581188462,7.249781124234265,15.269001564019828,4.159252685029616,3783,98,1240,1917,168.43529467362828,97.24205377930232,0.002103244886228,False
0.18,0.8071035345182478,2.800000000000001,6568.0,36.23256,0.3,68900.0,0.33,276.0,2700.0,38.359661293406205,3.440155004169402,9288.418511257383,22.38524332516453,7.932454813423087,15.97441796824167,4.492299809253685,3798,100,1252,1914,164.072506367153,94.58721099846338,0.0021016194106407,False
0.19,0.6042224967861554,2.800000000000001,6569.0,36.23256,0.08,68900.0,0.33,276.0,2700.0,24.6613527087796,2.3284630513267475,6286.8502385822185,15.217828583858555,4.135469413239473,9.44352412492104,1.807006361912726,42312,274,10396,23990,121.14786979118392,69.91471545470074,0.0013939411264407,False
0.2,0.777857668248156,2.800000000000001,6570.0,36.23256,0.3,68900.0,0.33,276.0,2700.0,35.650586187102355,3.548303457891086,9580.419336305931,21.28822711615979,7.293872965828684,14.362359070942569,3.745569507937598,3785,98,1240,1919,145.20344060955614,83.82914543149742,0.0018158597129894,False
0.21,0.6210826470155205,2.800000000000001,6571.0,36.23256,0.3,68900.0,0.33,276.0,2700.0,25.12977567514062,2.619230252846502,7071.921682685555,15.77405433798878,4.396723276314504,9.35572133715184,1.7774930234680024,2551,78,836,1291,114.53740239221705,66.08752763370887,0.001310811778096,False
0.22,0.8849255950893502,2.800000000000001,6572.0,36.23256,0.3,68900.0,0.33,276.0,2700.0,42.66296674353472,4.670625222738548,12610.688101394078,25.40906493619672,9.791193476840306,17.253901807338007,5.120568254101758,4026,104,1324,2034,147.47303333693446,84.98765532609495,0.0019728966157466,False
0.23,0.7685496536065781,2.800000000000001,6573.0,36.23256,0.3,68900.0,0.33,276.0,2700.0,34.0629486825538,3.8917565932828606,10507.742801863724,20.943591857473194,7.097327460155789,13.119356825080608,3.2055708668729284,3567,94,1176,1797,125.82072827343384,72.64186652549128,0.0015738712404385,False
0.24,0.6034398904692017,2.800000000000001,6574.0,36.23256,0.08,68900.0,0.33,276.0,2700.0,23.246025700118047,2.760570166118684,7453.539448520446,15.192183473287653,4.123569880476088,8.053842226830394,1.3629997143574046,49838,264,9856,30252,107.855656548526,62.25648149078682,0.0011433452242877,False
0.25,0.5527550922362685,2.800000000000001,6575.0,36.23256,0.08,68900.0,0.33,276.0,2700.0,20.04226906366048,2.472558709482667,6675.9085156032015,13.564081644648178,3.395089836928859,6.478187419012299,0.922531127446192,44078,240,8414,26999,92.0981927494498,53.1309843057601,0.0010044620057399,False
0.26,0.8324838570579114,2.800000000000001,6576.0,36.23256,0.3,68900.0,0.33,276.0,2700.0,37.54482117330123,4.844015664209494,13078.842293365637,23.35468488804649,8.512867637636631,14.19013628525474,3.668851973427137,3673,96,1214,1846,120.36723449237736,69.41378906522523,0.0015662554575402,False
0.27,0.8456933513165972,2.800000000000001,6577.0,36.23256,0.3,68900.0,0.33,276.0,2700.0,38.15855673605323,5.110181180566777,13797.489187530298,23.865648146507937,8.824741169249883,14.292908589545291,3.7145599886831056,3899,100,1288,1961,117.84435434043436,67.97338489774103,0.0015432144595683,False
0.28,0.6596800675494188,2.800000000000001,6578.0,36.23256,0.08,68900.0,0.33,276.0,2700.0,25.565513641383223,3.533195748505916,9539.628520965973,17.074303313427947,5.030533783714703,8.491210327955276,1.4973380352087875,57939,276,10656,35753,95.71473059986928,55.2212478928967,0.0011167687454407,False
0.29,0.888206209222659,2.800000000000001,6579.0,36.23256,0.3,68900.0,0.33,276.0,2700.0,40.56095603407044,5.83025842278795,15741.697741527463,25.539878605465752,9.874765315022673,15.021077428604691,4.044506892234723,3954,102,1302,1995,115.68980070446054,66.68791400615939,0.0015405191651553,False
0.3,0.8451036940542705,2.800000000000001,6580.0,36.23256,0.3,68900.0,0.33,276.0,2700.0,37.166657558603774,5.518449966025833,14899.81490826975,23.842745798786044,8.81067536919744,13.32391175981773,3.2922254031716074,3658,96,1204,1846,108.2940837519376,62.50546190487259,0.0014028104536466,False
0.31,0.9451582851162188,2.800000000000001,6581.0,36.23256,0.3,68900.0,0.33,276.0,2700.0,44.09782519132729,6.772768780160332,18286.47570643289,27.853935793960417,11.39482271017556,16.24388939736687,4.622053930015227,4175,106,1372,2111,115.21075268225532,66.49784761389995,0.001576834577552,False
0.32,0.9716497556176252,2.800000000000001,6582.0,36.23256,0.3,68900.0,0.33,276.0,2700.0,45.75880455331125,7.252779589814398,19582.504892498877,28.958106618478396,12.147301044738304,16.800697934832858,4.894521454923907,4437,110,1464,2235,115.21515479164944,66.4426351383351,0.0015864243987122,False
0.33,1.0180679657640654,2.800000000000001,6583.0,36.23256,0.3,68900.0,0.33,276.0,2700.0,48.98987284754561,8.008062743050155,21621.76940623542,30.93535754730918,13.5371652768199,18.05451530023643,5.529102533769745,4703,114,1554,2366,116.81895069691232,67.40512809369201,0.0016418900954938,False
0.34,0.9219055022912936,2.800000000000001,6584.0,36.23256,0.3,68900.0,0.33,276.0,2700.0,41.39185514666182,6.954297269828047,18776.60262853573,26.899289670529605,10.758266611804729,14.492565476132214,3.80396934197668,4048,104,1338,2035,104.66232112194837,60.42222197970437,0.0014038798997868,False
0.3500000000000001,0.6950149895474306,2.800000000000001,6585.0,36.23256,0.1,68900.0,0.33,276.0,2700.0,25.86313826586565,4.436252006511384,11977.880417580736,18.29747531273712,5.655370903259374,7.5656629531285375,1.2191188967479905,37803,222,6960,23311,84.8483845378119,48.97660593568344,0.0009928285279979,False
0.36,0.9858065532797564,2.800000000000001,6586.0,36.23256,0.3,68900.0,0.33,276.0,2700.0,45.486576558423565,8.089867682618982,21842.64274307125,29.55539663914769,12.561477015510594,15.931179919275872,4.471609332891612,4377,110,1446,2202,105.61453267400915,60.87595359499819,0.0014577254359204,False
0.37,0.7594135593812623,2.800000000000001,6587.0,36.23256,0.2,68900.0,0.33,276.0,2700.0,29.36396187607484,5.326245551952317,14380.862990271256,20.607439586202755,6.907521988071662,8.75652228987208,1.581276436119345,7467,122,1976,4117,88.4822592348924,51.01496090764357,0.0010449190430644,False
0.38,0.8296197425161427,2.800000000000001,6588.0,36.23256,0.2,68900.0,0.33,276.0,2700.0,33.694990013974326,6.287124454596603,16975.23602741083,23.24447511035987,8.446135020951134,10.450514903614458,2.1590105663545307,9379,134,2372,5257,91.63117638525917,52.875664208247386,0.0011352276127022,False
0.39,0.8537824923188531,2.800000000000001,6589.0,36.23256,0.2,68900.0,0.33,276.0,2700.0,35.04295460373339,6.70913872464892,18114.674556552083,24.180713411151228,9.019066957315726,10.862241192582164,2.309928232666806,9455,134,2346,5336,91.2320941671853,52.6694116456938,0.0011496776394633,False
0.4,0.8129175648705314,2.800000000000001,6590.0,36.23256,0.2,68900.0,0.33,276.0,2700.0,32.012892779839405,6.2685372694147015,16925.050627419692,22.60588987242572,8.063244308805997,9.407002907413684,1.7947070393912954,8784,128,2192,4940,215.17979512477467,123.90972523398185,0.0010647649391729,False
0.4100000000000001,0.9278143785984704,2.800000000000001,6591.0,36.23256,0.3,68900.0,0.33,276.0,2700.0,39.61990059049262,7.977731816198879,21539.87590373697,27.140591541978424,10.917923666585663,12.479309048514196,2.940191850386784,3549,98,1182,1770,89.00496253841416,51.29532343140464,0.0012072094235407,False
0.42,1.104637092564333,2.800000000000001,6592.0,36.23256,0.3,68900.0,0.33,276.0,2700.0,52.70254046137291,10.912363952542206,29463.38267186396,34.767566524924845,16.37972888384548,17.934973936448067,5.467364931303274,4914,118,1634,2457,101.32833104653028,58.39346755026085,0.0014799224925205,False
0.43,1.013470372857297,2.800000000000001,6593.0,36.23256,0.3,68900.0,0.33,276.0,2700.0,45.28011316094225,9.568705258196609,25835.50419713084,30.73710022625468,13.395393053158363,14.543012934687567,3.8266877949617566,4494,110,1490,2247,91.33576740152024,52.6166285179352,0.0012979425572131,False
0.44,1.1265716509377763,2.800000000000001,6594.0,36.23256,0.3,68900.0,0.33,276.0,2700.0,53.770807944346814,11.651168795354003,31458.15574745581,35.76846487722446,17.15329513025783,18.002343067122354,5.502126334903826,4883,118,1622,2444,101.66800388371756,58.54672593839888,0.001730711310067,False
0.45,1.118858798600562,2.800000000000001,6595.0,36.23256,0.3,68900.0,0.33,276.0,2700.0,52.80416251132869,11.690084811343372,31563.228990627103,35.415140422241706,16.87878177296149,17.38902208908698,5.188696961618117,4758,116,1568,2392,96.73278797904644,55.72896641464121,0.0014161673033413,False
0.46,1.11132133209585,2.800000000000001,6596.0,36.23256,0.3,68900.0,0.33,276.0,2700.0,51.86083737656708,11.724132554923887,31655.157898294496,35.071294851257484,16.613138097387154,16.789542525309592,4.889005542463266,4833,116,1586,2436,93.41226385840132,53.79648244003574,0.001378312113558,False
0.4700000000000001,1.1355325905567262,2.800000000000001,6597.0,36.23256,0.3,68900.0,0.33,276.0,2700.0,53.455570580830944,12.344612703779474,33330.454300204576,36.18084157566468,17.475660318611855,17.274729005166265,5.131047614832381,4712,116,1554,2367,93.82203012228298,53.8190639154362,0.0013914465082001,False
0.4800000000000001,0.9702902365848782,2.800000000000001,6598.0,36.23256,0.3,68900.0,0.33,276.0,2700.0,40.54740944963292,9.49975492474804,25649.338296819707,28.901012180348488,12.107970763388431,11.646397269284437,2.608215838640392,4224,102,1312,2182,85.170819413688,49.113541680293054,0.001124755319157,False
0.49,1.1700141480978847,2.800000000000001,6599.0,36.23256,0.3,68900.0,0.33,276.0,2700.0,55.56085003886681,13.366004770120917,36088.21287932648,37.78648473833523,18.75082876223693,17.774365300531578,5.384823992116015,5696,122,1738,2965,99.29289336444558,57.23943075165613,0.0014078788435657,False
0.5,0.992205331813304,2.800000000000001,6600.0,36.23256,0.3,68900.0,0.33,276.0,2700.0,41.530754546696095,10.120889248874876,27326.40097196216,29.827020624133464,12.751463935219002,11.70373392256263,2.6305746863441275,4402,102,1308,2324,88.9952322162109,51.30222936843295,0.0011240860097134,False
0.03,0.6356454420488007,2.800000000000001,6603.0,39.25194,0.1,68900.0,0.33,276.0,2700.0,31.52473581370449,0.4728144885377248,1276.5991190518569,16.260239509100657,4.629971235640333,15.264496304603837,4.157156747102609,26078,254,8590,13187,925.3470916252488,527.2105171533664,0.0088375309115055,True
0.04,0.6845182859021886,2.800000000000001,6604.0,39.25194,0.1,68900.0,0.33,276.0,2700.0,34.489915949871765,0.6896642777104686,1862.093549818265,17.930839674564176,5.465234382506965,16.55907627530759,4.775570104796497,28217,268,9258,14324,802.1203411994468,457.2266047560749,0.0074000212557665,True
0.05,0.6584379812951995,2.800000000000001,6605.0,39.25194,0.2,68900.0,0.33,276.0,2700.0,32.388107461208214,0.8094408871421027,2185.490395283677,17.03187752381467,5.009352378527548,15.356229937393543,4.199911491385445,6692,132,2212,3368,496.2146753828337,285.9904342483608,0.0057170321394323,True
0.06,0.7431377573094796,2.800000000000001,6606.0,39.25194,0.2,68900.0,0.33,276.0,2700.0,37.89661299462211,1.136446000496549,3068.4042013406824,20.013787264560776,6.576959493963376,17.882825730061334,5.440513493466827,7900,144,2596,4000,476.79291591065913,272.45053705684694,0.0056383113169284,True
0.0699999999999999,0.6361093696440531,2.800000000000001,6607.0,39.25194,0.2,68900.0,0.33,276.0,2700.0,30.262599913853688,1.058472619464758,2857.876072554847,16.275815535340215,4.637518422319002,13.986784378513471,3.579045802854244,6169,124,2022,3130,357.5248692424631,204.15569891643608,0.0040089972298344,True
0.08,0.486062102826275,2.800000000000001,6608.0,39.25194,0.1,68900.0,0.33,276.0,2700.0,20.73597784664969,0.8283667835735622,2236.590315648618,11.520136213819784,2.559240395804228,9.215841632829902,1.7308736122306658,17175,200,5648,8697,244.5490552164688,140.3916516265594,0.0025329300793036,False
0.09,0.3944326982546194,2.800000000000001,6609.0,39.25194,0.08,68900.0,0.33,276.0,2700.0,15.414764411353152,0.6921375844812485,1868.771478099371,8.894262625575085,1.6255720416592976,6.520501785778068,0.9334344571780492,19597,208,6462,9898,170.7006287383646,98.51692603912797,0.0017744507267457,False
0.0999999999999999,0.5049366253641748,2.800000000000001,6610.0,39.25194,0.08,68900.0,0.33,276.0,2700.0,21.271814551657208,1.0614963324804674,2866.040097697262,12.087243442870951,2.7820153227799755,9.184571108786256,1.7205189902995082,27070,250,8930,13669,196.68465237465784,113.31379023296785,0.0021586114791177,False
0.11,0.6359436035160437,2.800000000000001,6611.0,39.25194,0.3,68900.0,0.33,276.0,2700.0,28.999200225215624,1.5921683725055749,4298.854605765052,16.2702494389741,4.634820904742177,12.728950786241525,3.042652532236602,3022,86,990,1531,268.83026412488493,154.01428520475417,0.007340944269847,False
0.12,0.6997366641797376,2.800000000000001,6612.0,39.25194,0.3,68900.0,0.33,276.0,2700.0,32.88604937873484,1.969543847987158,5317.768389565327,18.463299983094764,5.742156892879888,14.422749395640077,3.7726130448927298,3371,92,1102,1712,232.0110605903145,133.9256410929389,0.0027528407785911,False
0.13,0.5328985188886202,2.800000000000001,6613.0,39.25194,0.1,68900.0,0.33,276.0,2700.0,22.071873693930005,1.4300704040654926,3861.19009097683,12.943848778646023,3.131927901825809,9.12802491528398,1.7018574977603165,18299,208,6054,9212,160.97325519487663,92.89349980279452,0.0018122213187741,False
0.14,0.6168718007877253,2.800000000000001,6614.0,39.25194,0.1,68900.0,0.33,276.0,2700.0,26.88171078625059,1.8759727348765736,5065.12638416675,15.634466835146169,4.330595206238041,11.24724395110442,2.454622471361467,21948,230,7262,11049,171.5334570201231,98.90614898205811,0.0020288207834856,False
0.15,0.464300421311671,2.800000000000001,6615.0,39.25194,0.08,68900.0,0.33,276.0,2700.0,17.648221141691764,1.3165480021563056,3554.679605822025,10.87739349153289,2.315558025923705,6.770827650158873,0.9990100237673996,28869,228,7504,16057,129.05702632823798,74.47980451951358,0.0013648186189993,False
0.16,0.5369459909841234,2.800000000000001,6616.0,39.25194,0.08,68900.0,0.33,276.0,2700.0,21.486584317035167,1.71034810302341,4617.939878163207,13.06947009507815,3.184571854081657,8.417114221957016,1.474223751058247,36975,254,9096,20949,136.96842968752867,78.97477940296562,0.0015248159615476,False
0.17,0.7259814761042567,2.800000000000001,6617.0,39.25194,0.3,68900.0,0.33,276.0,2700.0,33.06102326951197,2.79989721477046,7559.722479880243,19.395227571427792,6.238913999851557,13.665795698084178,3.439016785081097,3238,90,1066,1633,172.3065564360376,99.4101908833682,0.0020902495829115,False
0.18,0.5135417460487754,2.800000000000001,6618.0,39.25194,0.1,68900.0,0.33,276.0,2700.0,19.614748746162544,1.7531128749174705,4733.4047622771695,12.348765929760834,2.887151393097146,7.26598281640171,1.1340385181796764,19193,194,5384,10385,121.63075591084588,70.22009393886873,0.0013080388931544,False
0.19,0.6353965470442042,2.800000000000001,6619.0,39.25194,0.3,68900.0,0.33,276.0,2700.0,26.580603112239537,2.5107918396554423,6779.137967069694,16.251885272716258,4.625925182949034,10.32871783952328,2.115133343293592,2760,82,900,1404,137.91914997332745,79.61394472033001,0.0015957462808598,False
0.2,0.655011034066828,2.800000000000001,6620.0,39.25194,0.2,68900.0,0.33,276.0,2700.0,27.521676031067013,2.7354124422875588,7385.613594176409,16.91502477137232,4.951185341452136,10.606651259694694,2.215772899164577,5826,120,1922,2937,132.40045504921912,76.29913850154989,0.0015805969154583,False
0.21,0.8671113656907448,2.800000000000001,6621.0,39.25194,0.3,68900.0,0.33,276.0,2700.0,41.69005658151063,4.358059748015354,11766.761319641457,24.70344928391003,9.344847405030375,16.986607297600596,4.986787657015023,4088,104,1344,2066,163.62021754537315,94.45228393827874,0.0021715708979661,False
0.22,0.8199124384648402,2.800000000000001,6622.0,39.25194,0.3,68900.0,0.33,276.0,2700.0,37.949260131144,4.152117495374991,11210.717237512476,22.872476157391205,8.222301302832946,15.076783973752796,4.070183807457955,3949,100,1298,1996,151.47002869131538,87.44576691891203,0.0019315262875736,False
0.23,0.8944645780301218,2.800000000000001,6623.0,39.25194,0.3,68900.0,0.33,276.0,2700.0,43.02826929245476,4.922768463421477,13291.474851237988,25.790179691846276,10.035386019505546,17.238089600608486,5.11261755608407,4002,104,1312,2028,155.23756342880563,89.60127993898372,0.0020822399652714,False
0.24,0.6267031028689098,2.800000000000001,6624.0,39.25194,0.1,68900.0,0.33,276.0,2700.0,24.64346653455306,2.928263066250884,7906.310278877388,15.96106408619203,4.485905820512431,8.68240244836103,1.557642754261547,27381,220,6722,15516,111.82214813065694,64.46772670009773,0.0012918241099115,False
0.25,0.7914420516093901,2.800000000000001,6625.0,39.25194,0.3,68900.0,0.33,276.0,2700.0,35.004602517492394,4.342850391211654,11725.696056271465,21.795105569638427,7.586497969439548,13.209496947853967,3.243647578227894,3510,94,1154,1773,134.36717370404037,77.55684194292549,0.0023665716989138,False
0.26,0.6799713814283332,2.800000000000001,6626.0,39.25194,0.2,68900.0,0.33,276.0,2700.0,27.37781015725997,3.5223042321241365,9510.221426735168,17.772882024086435,5.384063873426286,9.604928133173535,1.8617596413021495,5774,120,1912,2900,109.56252563458074,63.07343161668934,0.0013183638372766,False
0.27,0.9275515670247358,2.800000000000001,6627.0,39.25194,0.3,68900.0,0.33,276.0,2700.0,44.131464499073104,5.916523728574466,15974.614067151058,27.129840410650903,10.910792217808895,17.0016240884222,4.994268489234429,4190,106,1372,2126,139.09827078657898,80.30839643582478,0.001887415517777,False
0.28,0.7925276993118165,2.800000000000001,6628.0,39.25194,0.3,68900.0,0.33,276.0,2700.0,34.1536656293754,4.7355370268248205,12785.949972427015,21.835814828694573,7.610181871002205,12.317850800680825,2.874644844177385,3311,92,1088,1673,117.02066641599124,67.46247970743653,0.0014863226974238,False
0.29,0.7061987475523471,2.800000000000001,6629.0,39.25194,0.3,68900.0,0.33,276.0,2700.0,28.19007085893587,4.036480072393435,10898.496195462276,18.691155784699376,5.862203923131261,9.498915074236493,1.825723850737826,2813,82,926,1418,102.73238309929351,59.22184403285517,0.0012556736050212,False
0.3,0.7350387688000823,2.800000000000001,6630.0,39.25194,0.3,68900.0,0.33,276.0,2700.0,29.7527582699282,4.406365072724033,11897.185696354887,19.720861161732063,6.416055376079598,10.031897108196135,2.0096903033555646,3068,86,1010,1547,103.14552964174156,59.544879121733366,0.0012787092010564,False
0.31,0.902684016899256,2.800000000000001,6631.0,39.25194,0.3,68900.0,0.33,276.0,2700.0,40.96169383427869,6.286668419817795,16974.00473350805,26.120408422679823,10.248722809325145,14.84128541159886,3.962054389507349,3940,102,1296,1990,120.5415008946354,69.58406158660311,0.0016067723332175,False
0.32,0.9373319926878574,2.800000000000001,6632.0,39.25194,0.3,68900.0,0.33,276.0,2700.0,43.18080942360797,6.840300369062052,18468.810996467542,27.5311091407849,11.178093935251011,15.64970028282307,4.337793566188959,3964,104,1310,1993,121.76271133770253,70.28206661799965,0.0016407895718005,False
0.33,0.9770801791335056,2.800000000000001,6633.0,39.25194,0.3,68900.0,0.33,276.0,2700.0,45.83235513019464,7.487072319687397,20215.09526315597,29.186626341871325,12.305175971936968,16.64572878832331,4.81810365224957,4416,110,1458,2223,122.27417120934024,70.42782794385721,0.0016845249458547,False
0.34,0.7646771358740405,2.800000000000001,6634.0,39.25194,0.3,68900.0,0.33,276.0,2700.0,30.53851454562544,5.109229367651865,13794.919292660035,20.800850796025,7.016499534579892,9.737663749600436,1.9072701669280263,3149,86,1040,1583,96.441422883491,55.64880971244787,0.0012097792670017,False
0.3500000000000001,1.0324348259588685,2.800000000000001,6635.0,39.25194,0.3,68900.0,0.33,276.0,2700.0,49.4167054798729,8.558126268962651,23106.94092619916,31.558308870684645,13.98607795031121,17.858396609188258,5.427951681348558,4659,114,1534,2352,122.0116786684439,70.40571151421433,0.0017193274246894,False
0.36,0.6628539586021781,2.800000000000001,6636.0,39.25194,0.08,68900.0,0.33,276.0,2700.0,23.663568823928863,4.161726290409733,11236.66098410628,17.182889653488676,5.0848980158771,6.48067917044019,0.923171725467367,64907,264,10132,41465,90.28146066751468,51.05044530979107,0.0010006748296576,False
0.37,0.9246980310107572,2.800000000000001,6637.0,39.25194,0.3,68900.0,0.33,276.0,2700.0,40.63852216170574,7.412039204794039,20012.50585294391,27.01321932211728,10.833542681045769,13.62530283958846,3.421503476251728,3765,100,1252,1881,106.27675725024324,61.27214946722211,0.0014226000588843,False
0.38,0.7538555357664329,2.800000000000001,6638.0,39.25194,0.1,68900.0,0.33,276.0,2700.0,28.73755079356211,5.345211002718282,14432.069707339362,20.403964681652237,6.793551170972713,8.333586111909877,1.4483401682544308,44055,236,7732,27403,91.9826669054931,53.08669981844936,0.0011046549533388,False
0.39,0.8986667299393712,2.800000000000001,6639.0,39.25194,0.3,68900.0,0.33,276.0,2700.0,38.15917392806393,7.316801492893608,19755.364030812743,25.95879553954283,10.144114391632517,12.2003783885211,2.8273128987389065,3553,96,1180,1777,97.76582482781087,56.33119193389002,0.0013088246753076,False
0.4,0.986925613989056,2.800000000000001,6640.0,39.25194,0.3,68900.0,0.33,276.0,2700.0,44.25744491064832,8.7174476955765,23537.108778056547,29.60282579187218,12.594577833752798,14.654619118776145,3.877130138176298,4235,108,1406,2120,103.39885708535466,59.47916310376868,0.0014453119176609,False
0.4100000000000001,0.7759528616304765,2.800000000000001,6641.0,39.25194,0.2,68900.0,0.33,276.0,2700.0,29.338609377973945,5.870067117632617,15849.181217608066,21.217523212964828,7.253390363045264,8.121086165009114,1.3833232454126474,8129,122,2054,4548,89.50082905578752,51.65727979369557,0.0010729687847282,False
0.42,0.815377438926364,2.800000000000001,6642.0,39.25194,0.2,68900.0,0.33,276.0,2700.0,31.61975955296664,6.484979961776875,17509.445896797562,22.699499585935424,8.118967053690632,8.920259967031214,1.633987091913757,8704,128,2158,4905,90.65156278542791,52.32800433343028,0.0011135600681206,False
0.43,0.7591266373814881,2.800000000000001,6643.0,39.25194,0.1,68900.0,0.33,276.0,2700.0,27.74845866281841,5.7993995410999855,15658.37876096996,20.596916590518063,6.901610769984316,7.151542072300352,1.1022112288843309,46141,230,7468,29213,85.76249550484472,49.50508372329193,0.0010131407994976,False
0.44,1.081406930086659,2.800000000000001,6644.0,39.25194,0.3,68900.0,0.33,276.0,2700.0,50.17479350722866,10.86004561918805,29322.12317180773,33.720732745465355,15.584257979111616,16.45406076176331,4.724212359923566,4577,114,1520,2289,103.0194527240818,59.31518027918885,0.001499245235319,False
0.45,0.9117965737515163,2.800000000000001,6645.0,39.25194,0.1,68900.0,0.33,276.0,2700.0,37.292708806717705,8.200007727805906,22140.020865075945,26.48850427397712,10.488422078449195,10.804204532740584,2.28841435064329,65918,278,10176,42222,96.43355053496684,54.60997856114206,0.0012066603989512,False
0.46,0.9312439564440164,2.800000000000001,6646.0,39.25194,0.2,68900.0,0.33,276.0,2700.0,38.36222980745392,8.619452814027818,23272.52259787511,27.2810483075179,11.01124520727311,11.081181499936015,2.391792393245291,10253,142,2566,5750,93.2520169344838,53.823099669700696,0.0012122808144338,False
0.4700000000000001,1.122270565362785,2.800000000000001,6647.0,39.25194,0.3,68900.0,0.33,276.0,2700.0,52.3930405721279,12.094918151734282,32656.27900968256,35.57124847518167,16.999876190890983,16.821792096946233,4.904958039156702,4851,116,1586,2448,100.18862209609294,57.6459089459301,0.0014842429952294,False
0.4800000000000001,0.9651017246890384,2.800000000000001,6648.0,39.25194,0.2,68900.0,0.33,276.0,2700.0,40.17506197815536,9.410391531593424,25408.05713530225,28.68354207816805,11.958581983536174,11.491519899987312,2.54819045194275,11021,146,2724,6217,92.47353672233515,53.3502518934777,0.0012213374518666,False
0.49,1.1817697568196075,2.800000000000001,6649.0,39.25194,0.3,68900.0,0.33,276.0,2700.0,56.524546285458,13.602110350535748,36725.69794644652,38.34071827626817,19.198286165628875,18.183828009189824,5.596175815093128,5528,122,1742,2841,107.416064647236,61.89581398093114,0.0015363951660083,False
0.5,1.0356536011187247,2.800000000000001,6650.0,39.25194,0.3,68900.0,0.33,276.0,2700.0,44.72790069710783,10.9201757864778,29484.474623490063,31.69858722666152,14.087882743390852,13.029313470446308,3.1677069569130527,4498,106,1388,2336,96.42467130371293,55.565598796076095,0.0012740151266882,False
0.02,0.4565731353352452,2.800000000000001,6652.0,42.27132,0.1,68900.0,0.33,276.0,2700.0,20.727724534356412,0.2072604901827466,559.6033234934158,10.65202752628002,2.2323769957293376,10.075697008076396,2.025116505546591,16810,200,5568,8452,937.4211538712096,534.7345266769546,0.0092688799221315,True
0.03,0.5493027833100866,2.800000000000001,6653.0,42.27132,0.1,68900.0,0.33,276.0,2700.0,25.98042739496082,0.389649862256646,1052.0546280929443,13.455534884242692,3.348449891442754,12.524892510718129,2.958800029186108,21460,228,7044,10888,839.0717645509798,478.2539442562741,0.0079036217304666,True
0.04,0.4865088943119782,2.800000000000001,6654.0,42.27132,0.1,68900.0,0.33,276.0,2700.0,21.894211605000795,0.437750190813464,1181.9255151963528,11.533457126135223,2.5643904702270075,10.360754478865571,2.1266402794135435,18451,208,6052,9367,569.1992047367603,325.4071545556795,0.0059333734953144,True
0.05,0.5185394092853287,2.800000000000001,6655.0,42.27132,0.1,68900.0,0.33,276.0,2700.0,23.503167500797357,0.5873173881321342,1585.7569479567624,12.501506678394811,2.9492477785806988,11.00166082240254,2.3619303904485647,19559,216,6428,9911,497.8035731291353,284.64918086576847,0.0045566011984252,True
0.06,0.4478951487594769,2.800000000000001,6656.0,42.27132,0.1,68900.0,0.33,276.0,2700.0,19.11570068372459,0.5730186311696217,1547.1503041579786,10.400723426700642,2.1410306193757647,8.714977257023948,1.568011988206143,16389,194,5390,8298,329.82564226331607,189.0895743331317,0.0032231502413861,True
0.0699999999999999,0.6746590499845921,2.800000000000001,6657.0,42.27132,0.2,68900.0,0.33,276.0,2700.0,32.821132535018855,1.1480212612055392,3099.657405254956,17.5889919158385,5.290137189994708,15.232140619180356,4.142115928789169,6844,132,2242,3475,412.3702421967837,235.7599163367292,0.0046504032610813,True
0.08,0.752769166196116,2.800000000000001,6658.0,42.27132,0.2,68900.0,0.33,276.0,2700.0,37.88802754518371,1.5144487715149229,4089.011683090292,20.36428424738862,6.771406481122195,17.52374329779509,5.256957709607272,7963,144,2608,4045,411.4780755841482,235.505431255749,0.0047364720491421,True
0.09,0.7230748445511043,2.800000000000001,6659.0,42.27132,0.2,68900.0,0.33,276.0,2700.0,35.46519510537046,1.5944069657120234,4304.898807422464,19.29116348347114,6.1826905088241,16.17403162189932,4.588283543112077,7175,136,2350,3644,348.3333111162277,199.6907433231335,0.0040327622053599,True
0.0999999999999999,0.6291658586061395,2.800000000000001,6660.0,42.27132,0.3,68900.0,0.33,276.0,2700.0,28.871620862200707,1.4414866480076385,3892.013949620624,16.043257656748317,4.525315202722691,12.82836320545239,3.083828554715053,3003,86,984,1521,271.38336586342024,156.02543866033795,0.0030629062228574,False
0.11,0.4784594259342278,2.800000000000001,6661.0,42.27132,0.1,68900.0,0.33,276.0,2700.0,19.482551195984563,1.0687526758978636,2885.632224924232,11.294234424805598,2.472516171934806,8.188316771178965,1.4037634960369425,16374,194,5398,8271,182.4669410187628,105.32901325550594,0.0019956395146678,False
0.12,0.6226689589117826,2.800000000000001,6662.0,42.27132,0.3,68900.0,0.33,276.0,2700.0,27.84539086944097,1.667104337429525,4501.181711059718,15.82675536683239,4.4217876381372925,12.018635502608578,2.754683300707768,2936,84,960,1490,226.4068089536593,130.70780918134443,0.0025508487103683,False
0.13,0.7812453830020265,2.800000000000001,6663.0,42.27132,0.3,68900.0,0.33,276.0,2700.0,38.20116310171855,2.4784742155717527,6691.880382043732,21.414199918137488,7.366204705444764,16.78696318358106,4.887730489873011,3861,100,1272,1947,255.42531323662624,147.4289919532646,0.0031786387252933,False
0.14,0.5096480917469548,2.800000000000001,6664.0,42.27132,0.1,68900.0,0.33,276.0,2700.0,20.45045556775828,1.4257848695821116,3849.619147871701,12.23020142459666,2.839300515742313,8.22025414316162,1.413515646160202,17047,198,5636,8587,155.895510546476,89.7932057786142,0.0017311503227702,False
0.15,0.7874744517289429,2.800000000000001,6665.0,42.27132,0.3,68900.0,0.33,276.0,2700.0,37.96826029876311,2.840550938936655,7669.487535128968,21.646581765942503,7.5003184835103935,16.32167853282061,4.6597675445737385,3812,100,1254,1925,225.68214968713295,129.92659538556572,0.0028108608773883,False
0.16,0.5026457018532398,2.800000000000001,6666.0,42.27132,0.08,68900.0,0.33,276.0,2700.0,19.52143883941,1.5531364648133987,4193.468454996177,12.01793253300183,2.754403790772808,7.50350630640817,1.2012673259594089,33438,238,8218,18949,139.87208586055118,80.73399609711572,0.0015211919590065,False
0.17,0.849785779587656,2.800000000000001,6667.0,42.27132,0.3,68900.0,0.33,276.0,2700.0,41.79128458792791,3.5419694268358146,9563.3174524567,24.02483926004401,8.922735217989011,17.766445327883897,5.3807657911531965,4143,104,1364,2091,211.4549047154748,122.0152156727437,0.0027696608628155,False
0.18,0.8747923192807772,2.800000000000001,6668.0,42.27132,0.3,68900.0,0.33,276.0,2700.0,43.2963801922396,3.884459705064075,10488.041203673,25.00671119861805,9.53575717375764,18.28966899362155,5.651297468693567,4226,106,1382,2147,209.49464474644236,120.73655768710528,0.0027317876331361,False
0.19,0.7995042357941576,2.800000000000001,6669.0,42.27132,0.3,68900.0,0.33,276.0,2700.0,37.48943311179357,3.547130689613076,9577.252861955303,22.098125499617858,7.763434528581089,15.391307612175716,4.216303838968013,3756,98,1236,1896,182.4811414014767,105.35003302515844,0.0023022153657333,False
0.2,0.6911688987551274,2.800000000000001,6670.0,42.27132,0.3,68900.0,0.33,276.0,2700.0,29.83550751363324,2.9667955905441823,8010.348094469292,18.16281513831481,5.585256228721485,11.67269237531843,2.6184606381773023,3016,86,984,1534,154.18185502539407,88.92030902862646,0.0018230661872011,False
0.21,0.7177526314431284,2.800000000000001,6671.0,42.27132,0.3,68900.0,0.33,276.0,2700.0,31.27378759810221,3.264351504757417,8813.749062845027,19.10116637830604,6.080524743951222,12.17262121979617,2.816173239193805,3163,88,1040,1597,149.64989262737845,86.31288190954089,0.0018274515710376,False
0.22,0.6670617634733267,2.800000000000001,6672.0,42.27132,0.3,68900.0,0.33,276.0,2700.0,27.703928153842,3.025130977872339,8167.853640255315,17.32723895800906,5.157503803478416,10.376689195832938,2.132372825606077,2875,82,930,1474,136.452433029389,78.6980089694236,0.0016014075434598,False
0.23,0.6407841106081541,2.800000000000001,6673.0,42.27132,0.3,68900.0,0.33,276.0,2700.0,25.78045433944771,2.9392697438252733,7936.028308328237,16.433068377955205,4.71397098811971,9.347385961492506,1.774701244294437,2657,80,874,1340,124.65203887619222,71.96265073112487,0.001469796985584,False
0.24,0.9225065368026462,2.800000000000001,6674.0,42.27132,0.3,68900.0,0.33,276.0,2700.0,44.78468236090678,5.345208965413331,14432.064206615994,26.923794138523636,10.77444137678832,17.860888222383146,5.429232411374988,4292,108,1416,2162,164.68316211592125,95.07437952560464,0.0022482625537853,False
0.25,0.6480995476984177,2.800000000000001,6675.0,42.27132,0.2,68900.0,0.33,276.0,2700.0,25.675545697382677,3.1767182886979417,8577.139379484443,16.68025340234969,4.835089379351092,8.995292295032986,1.65837109065315,5427,116,1796,2727,148.37670038755547,84.12090550296017,0.0062548795984335,False
0.26,0.7981589623940099,2.800000000000001,6676.0,42.27132,0.3,68900.0,0.33,276.0,2700.0,35.15464664069947,4.533292974971273,12239.891032422436,22.047449391357794,7.73374059986262,13.107197249341674,3.200447624891347,3510,94,1156,1770,135.84604593434565,78.43066606714417,0.0017260647517902,False
0.27,0.7088048617437142,2.800000000000001,6677.0,42.27132,0.3,68900.0,0.33,276.0,2700.0,28.92285475889879,3.863361413650933,10431.07581685752,18.78334545487129,5.91103530080729,10.1395093040275,2.0476738871563573,2876,84,944,1454,121.06324136034816,69.84933416547464,0.0014423719733318,False
0.28,0.6467153442717681,2.800000000000001,6678.0,42.27132,0.1,68900.0,0.33,276.0,2700.0,24.774899301286727,3.422509740892409,9240.776300409503,16.63337867844622,4.8120329630655725,8.141520622840506,1.389523222173163,30535,220,6846,17874,110.8173592077946,63.95625356130794,0.0012710211877545,False
0.29,0.6408652146376617,2.800000000000001,6679.0,42.27132,0.08,68900.0,0.33,276.0,2700.0,24.15554535495477,3.4514738743161733,9318.979460653669,16.435801470144927,4.7153038870133095,7.719743884809844,1.2638300126971362,56817,268,10288,35147,106.73380429500256,61.51998977855588,0.0012266269831618,False
0.3,0.9791235339491452,2.800000000000001,6680.0,42.27132,0.3,68900.0,0.33,276.0,2700.0,47.016291061647465,6.995894991482507,18888.916477002767,29.272805443646813,12.364902634797629,17.74348561800065,5.36900764331512,4541,112,1502,2282,142.15838451134547,81.95457626932193,0.0019841007203932,False
0.31,0.749025798656281,2.800000000000001,6681.0,42.27132,0.3,68900.0,0.33,276.0,2700.0,30.373615650510523,4.645516301333741,12542.8940136011,20.22778223409692,6.695431078963017,10.145833416413602,2.049914777629276,3062,86,1008,1544,111.8028441445255,64.5389833506665,0.001370426173615,False
0.32,0.6478737410332738,2.800000000000001,6682.0,42.27132,0.1,68900.0,0.33,276.0,2700.0,23.79175930689874,3.73805235038858,10092.741346049164,16.67260338877399,4.831323730692691,7.119155918124751,1.093271380304111,34184,214,6556,20896,100.84807633154146,58.20279074248422,0.0011490255311984,False
0.33,0.862529703536774,2.800000000000001,6683.0,42.27132,0.3,68900.0,0.33,276.0,2700.0,37.45568295436688,6.104921410675833,16483.28780882475,24.523260622925584,9.232077529589745,12.932422331441296,3.127156118913912,3713,98,1230,1862,117.83434344558124,67.9494479764352,0.0015460720358279,False
0.34,0.8490080537013993,2.800000000000001,6684.0,42.27132,0.3,68900.0,0.33,276.0,2700.0,36.20530243516337,6.072583308873311,16395.97493395794,23.99455415380097,8.904062256324096,12.2107482813624,2.831478947450785,3496,94,1162,1747,113.65266409795892,65.57760594519753,0.0014740267577333,False
0.3500000000000001,0.6789623742752372,2.800000000000001,6685.0,42.27132,0.2,68900.0,0.33,276.0,2700.0,24.88519374729713,4.2651117157618925,11515.80163255711,17.73789996395882,5.3661485590587965,7.147293783338309,1.101036843296904,5939,112,1726,3158,98.206444463116,56.6574544966277,0.0011213354200779,False
0.36,0.8134886279278699,2.800000000000001,6686.0,42.27132,0.3,68900.0,0.33,276.0,2700.0,33.19009501452806,5.876501004717793,15866.55271273804,22.627607938351,8.076159898192882,10.56248707617706,2.19965889347509,3540,92,1170,1779,105.1290466621292,60.3935401453694,0.0013373601686657,False
0.37,0.977069236692068,2.800000000000001,6687.0,42.27132,0.3,68900.0,0.33,276.0,2700.0,44.49740793939589,8.125933073666715,21940.01929890013,29.18616512360386,12.304856601510888,15.311242815792031,4.178923527844173,4312,108,1428,2164,120.56023727509488,69.56151667459321,0.001644072655512,False
0.38,1.0061920057193696,2.800000000000001,6688.0,42.27132,0.3,68900.0,0.33,276.0,2700.0,46.3683543185239,8.695063672460964,23476.671915644605,30.424328812493293,13.17281619308011,15.944025506030606,4.477752520619145,4578,112,1510,2303,118.88664371582212,68.5484696516206,0.0016662711248876,False
0.39,0.6983111197492193,2.800000000000001,6689.0,42.27132,0.05,68900.0,0.33,276.0,2700.0,25.03177423366723,4.7569585524862505,12843.788091712877,18.413175979941425,5.71587237148414,6.618598253725807,0.958913818997889,264901,430,26348,180695,117.17431399886368,66.67643006144941,0.001074560178453,False
0.4,1.0896886986237817,2.800000000000001,6690.0,42.27132,0.3,68900.0,0.33,276.0,2700.0,52.20347211793123,10.30665313703309,27827.963469989343,34.09238299831153,15.865063053623414,18.1110891196197,5.558409916590325,4741,116,1570,2380,122.38610959404076,70.41865527294098,0.0017690830948177,False
0.4100000000000001,1.051211711042551,2.800000000000001,6691.0,42.27132,0.3,68900.0,0.33,276.0,2700.0,48.82778046657016,9.865347190794836,26636.437415146054,32.38030069106655,14.586348047087313,16.447479775503602,4.721000856292477,4731,114,1568,2373,132.04626445926442,76.23411113919681,0.0017839673629744,False
0.42,0.7832306962187491,2.800000000000001,6692.0,42.27132,0.1,68900.0,0.33,276.0,2700.0,29.536409814557015,6.047476516710869,16328.186595119349,21.48815820590912,7.408791998362135,8.048251608647899,1.3613154816512658,48685,240,8034,30688,95.42654206029428,55.07492639967135,0.0011506303643056,False
0.43,0.8328413314382392,2.800000000000001,6693.0,42.27132,0.1,68900.0,0.33,276.0,2700.0,32.49489459087372,6.819883265631874,18413.68481720606,23.368454805599445,8.521218800245434,9.126439785274275,1.70133553461356,54678,256,8820,34668,99.31580404860044,56.684497923158645,0.0012106695149235,False
0.44,0.8613883987101113,2.800000000000001,6694.0,42.27132,0.2,68900.0,0.33,276.0,2700.0,34.12329670238728,7.328716322122937,19787.53406973193,24.478457203830583,9.204114584168128,9.644839498556696,1.8753982620451903,9244,134,2314,5191,97.70290052835036,56.39224664511866,0.0012305162160775,False
0.45,1.1160785285762604,2.800000000000001,6695.0,42.27132,0.3,68900.0,0.33,276.0,2700.0,52.58161244513524,11.640011046449848,31428.02982541459,35.28814333255497,16.780494707751004,17.29346911258027,5.140483661301156,4762,116,1570,2393,112.27282332184792,64.45609421548602,0.0016468873140288,False
0.46,0.8357492964369815,2.800000000000001,6696.0,42.27132,0.08,68900.0,0.33,276.0,2700.0,31.865330740336567,7.1251660285908685,19237.948277195344,23.48058898086257,8.58933643852098,8.384741759473993,1.4641704099301125,104358,312,13264,68888,104.1655504846012,58.72673655358179,0.0011549118628484,False
0.4700000000000001,0.9645486572044066,2.800000000000001,6697.0,42.27132,0.3,68900.0,0.33,276.0,2700.0,40.43441773306378,9.28464178455422,25068.532818296397,28.660400838246225,11.94272444875667,11.77401689481756,2.6580826642024498,4032,102,1314,2031,94.89712479666969,54.59147028058969,0.0013221758590042,False
0.4800000000000001,1.012627393506086,2.800000000000001,6698.0,42.27132,0.2,68900.0,0.33,276.0,2700.0,43.63625549731399,10.241077976191242,27650.910535716357,30.700806918411445,13.369497610861314,12.935448578902545,3.128419634670072,11712,152,2882,6627,105.25274142280482,60.70192826108556,0.0013950063050162,False
0.49,1.1099768087183657,2.800000000000001,6699.0,42.27132,0.3,68900.0,0.33,276.0,2700.0,50.74746338630415,12.186725040243056,32904.15760865625,35.01011019795578,16.56602505876988,15.737353188348363,4.379300018526825,4958,114,1550,2555,104.36936085885696,60.13202861876057,0.001525068243283,False
0.5,1.0677351285600407,2.800000000000001,6700.0,42.27132,0.3,68900.0,0.33,276.0,2700.0,47.14952320097178,11.52558141244378,31119.06981359821,33.11097266044465,15.12740842535745,14.038550540527126,3.6018270129136685,4465,108,1430,2270,104.03748694579367,60.0130519205602,0.0014226909128298,False
0.03,0.4309623372681223,2.800000000000001,6703.0,45.2907,0.1,68900.0,0.33,276.0,2700.0,18.990222321015867,0.2847967861474753,768.9513225981834,9.915819050161266,1.9690326956584383,9.0744032708546,1.684235909510963,15875,192,5222,8036,663.5533124464324,378.4900469446766,0.0062861815812641,True
0.04,0.4841787599206805,2.800000000000001,6704.0,45.2907,0.1,68900.0,0.33,276.0,2700.0,21.75772032542138,0.4350203652218742,1174.5549860990604,11.464040233051826,2.537596866969092,10.293680092369556,2.102576501747217,17674,204,5804,8962,578.0479011354114,329.8808165312941,0.0055240234026661,True
0.05,0.687685789617211,2.800000000000001,6705.0,45.2907,0.2,68900.0,0.33,276.0,2700.0,34.36996764681252,0.8589873917825115,2319.265957812781,18.041184556568787,5.522205076141681,16.328783090243732,4.66321768435917,7105,136,2336,3595,598.6075239857418,345.16699732204336,0.0069721733925485,True
0.06,0.4416032335887861,2.800000000000001,6706.0,45.2907,0.1,68900.0,0.33,276.0,2700.0,18.76314324699257,0.5624419080676605,1518.5931517826832,10.21970071606009,2.0761601613144145,8.543442530932479,1.513718253246754,15211,186,4984,7729,352.8056249690671,202.38241009567577,0.0033945713037288,True
0.0699999999999999,0.3820023619843468,2.800000000000001,6707.0,45.2907,0.05,68900.0,0.33,276.0,2700.0,15.26660584208356,0.5336128269528025,1440.7546327725668,8.554294301078109,1.517130349248326,6.712311541005452,0.9835175222955236,49455,332,16338,24942,250.7815935647192,144.3467158310908,0.0024820700992792,False
0.08,0.4025256704689988,2.800000000000001,6708.0,45.2907,0.1,68900.0,0.33,276.0,2700.0,16.099048837854532,0.6428896232217575,1735.8019826987452,9.11769172791798,1.6984560545612335,6.981357109936552,1.0555664313394764,13625,176,4474,6908,224.9884901070133,129.52942087164143,0.002333370901126,False
0.09,0.6230774484821013,2.800000000000001,6709.0,45.2907,0.2,68900.0,0.33,276.0,2700.0,28.789730109912025,1.2940110409163978,3493.8298104742744,15.84033659518927,4.428255476388938,12.949393514722756,3.1342444354725405,6045,122,1984,3063,317.1427466488772,181.8082234961037,0.0035696897395885,True
0.0999999999999999,0.5522534866361755,2.800000000000001,6710.0,45.2907,0.2,68900.0,0.33,276.0,2700.0,24.07499076106599,1.2016551429509053,3244.4688859674443,13.548291669080562,3.3882899780501985,10.526699091985428,2.186634835099293,5350,112,1752,2716,254.01257542994264,146.58105254857168,0.0027816178037288,False
0.11,0.782308647457524,2.800000000000001,6711.0,45.2907,0.3,68900.0,0.33,276.0,2700.0,38.96165447307353,2.140103356137755,5778.279061571939,21.45379707549017,7.388994711668036,17.507857397583358,5.248891355530281,3969,102,1308,2001,320.27322167722286,184.90760647213344,0.0039825385206954,True
0.12,0.6078138467005704,2.800000000000001,6712.0,45.2907,0.3,68900.0,0.33,276.0,2700.0,26.908102889383525,1.6108670586260765,4349.341058290406,15.335710395335983,4.190333541025065,11.57239249404754,2.5794664823989883,2821,82,922,1432,236.56458490562528,136.580348704394,0.0026474053980154,False
0.13,0.715039967722189,2.800000000000001,6713.0,45.2907,0.3,68900.0,0.33,276.0,2700.0,33.598275704838315,2.179286534774519,5884.073643891202,19.004601187636435,6.028840719139744,14.59367451720188,3.849554184365225,3427,92,1120,1741,253.62424037963692,146.36215432068022,0.003033176794513,False
0.14,0.6096342202726732,2.800000000000001,6714.0,45.2907,0.3,68900.0,0.33,276.0,2700.0,26.42941474871701,1.8443120122492225,4979.6424330729005,15.395585799704907,4.2183047481060445,11.033828949012108,2.373992735856822,2777,80,908,1409,210.21506940125343,121.149002520733,0.0023086755494349,False
0.15,0.4686988041796865,2.800000000000001,6715.0,45.2907,0.1,68900.0,0.33,276.0,2700.0,17.889537338543988,1.3346467169202234,3603.546135684603,11.0063423463425,2.363684372110136,6.883194992201487,1.0290376551899127,14856,184,4920,7470,146.45893949891786,84.30072059103564,0.0015853012467348,False
0.16,0.7820149205187508,2.800000000000001,6716.0,45.2907,0.3,68900.0,0.33,276.0,2700.0,37.24787451939768,2.971251319212415,8022.37856187352,21.44285551539484,7.382694760496539,15.805019004002848,4.411443441284124,3897,100,1280,1971,223.86087719820983,129.14743712066215,0.0028098190274198,False
0.17,0.639672762486986,2.800000000000001,6717.0,45.2907,0.1,68900.0,0.33,276.0,2700.0,27.43059611529725,2.321310906662211,6267.53944798797,16.39563415628469,4.69572893255331,11.034961959012564,2.374418025891099,24398,236,7590,12637,176.02796840669978,101.4665086104763,0.0020557697937146,False
0.18,0.7428211870641135,2.800000000000001,6718.0,45.2907,0.3,68900.0,0.33,276.0,2700.0,33.884594169119794,3.0373989629836244,8200.977200055786,20.00230651864879,6.5706255417160495,13.882287650471005,3.533226578732425,3284,90,1074,1667,191.39225085410823,110.37658515616133,0.0023579280964285,False
0.19,0.6954301800439407,2.800000000000001,6719.0,45.2907,0.3,68900.0,0.33,276.0,2700.0,30.414227284680067,2.8749861360368234,7762.462567299423,18.312034286440458,5.662970863344277,12.102192998239609,2.787984727307453,2986,86,980,1510,173.2870633259395,99.93005033261528,0.0020631560370888,False
0.2,0.8606861521403488,2.800000000000001,6720.0,45.2907,0.3,68900.0,0.33,276.0,2700.0,41.55960230779121,4.13920506995998,11175.853688891944,24.45090586170718,9.186934346206726,17.10869644608403,5.047729276246747,4085,104,1344,2063,198.40597998777943,114.54389151349324,0.0025953684715946,False
0.21,0.6740291302249158,2.800000000000001,6721.0,45.2907,0.2,68900.0,0.33,276.0,2700.0,28.436689715784865,2.966456227114149,8009.431813208203,17.56723383576551,5.279064389879916,10.869455880019355,2.312608162765766,5976,122,1978,3003,150.05452141823352,86.44052500028944,0.0018096623384633,False
0.22,0.7369271039654959,2.800000000000001,6722.0,45.2907,0.3,68900.0,0.33,276.0,2700.0,32.241173646678504,3.5242279820843536,9515.415551627755,19.789011532006374,6.453359302970948,12.45216211467213,2.929131320886594,3083,88,1012,1559,158.3512140763698,91.29052058268732,0.0019415663136736,False
0.23,0.7957462295788673,2.800000000000001,6723.0,45.2907,0.3,68900.0,0.33,276.0,2700.0,35.93190692596372,4.106686791275008,11088.05433644252,21.95667629739329,7.680655530253349,13.975230628570426,3.573968738978341,3429,94,1130,1728,162.1560536312165,93.5334686057121,0.0020566637638659,False
0.24,0.8370152726784248,2.800000000000001,6724.0,45.2907,0.3,68900.0,0.33,276.0,2700.0,38.5117107451487,4.592452371522295,12399.621403110195,23.529472752418528,8.619093244903093,14.98223799273017,4.0266408733807975,3909,100,1284,1977,164.75887870874172,95.10894231981302,0.0021160004255807,False
0.25,0.5878515037752174,2.800000000000001,6725.0,45.2907,0.2,68900.0,0.33,276.0,2700.0,22.062742200232364,2.725117851554151,7357.818199196208,14.68457684159225,3.8907125674508407,7.378165358640114,1.1655947158966895,4613,104,1526,2318,113.11567030951,65.29402116246513,0.0013273862796659,False
0.26,0.6889612447675599,2.800000000000001,6726.0,45.2907,0.3,68900.0,0.33,276.0,2700.0,27.94467816647549,3.595997073322152,9709.19209796981,18.085688216862412,5.545244174768472,9.858989949613076,1.9492471014463204,2806,82,922,1417,129.31404534821792,74.65831189993877,0.0015453730475878,False
0.27,0.8191821781031905,2.800000000000001,6727.0,45.2907,0.3,68900.0,0.33,276.0,2700.0,36.29633548597048,4.858781311805608,13118.70954187514,22.84458722990085,8.205608624026961,13.451748256069628,3.346827312221354,3680,96,1214,1853,143.54941245303723,82.81703031177034,0.0018501339051706,False
0.28,0.7062635098103416,2.800000000000001,6728.0,45.2907,0.3,68900.0,0.33,276.0,2700.0,28.475980808789668,3.9406611519428183,10639.78511024561,18.69344464111531,5.863414478699597,9.782536167674358,1.9227533267567785,2802,82,922,1413,123.20559499961784,71.035220155146,0.0014920494803456,False
0.29,0.6922032120976175,2.800000000000001,6729.0,45.2907,0.1,68900.0,0.33,276.0,2700.0,27.30775007444791,3.908543558642681,10553.06760833524,18.198992197668943,5.60406097764634,9.108757876778968,1.695517419003659,35526,232,7364,21290,121.00702439968912,69.8320801406314,0.0014333509522365,False
0.3,0.9255466830019056,2.800000000000001,6730.0,45.2907,0.3,68900.0,0.33,276.0,2700.0,42.97040306767554,6.389011792386715,17250.33183944413,27.04788147705485,10.856482210184108,15.922521590620686,4.467470417797393,4157,106,1368,2099,146.6084083817187,84.59176845251233,0.0019745807798431,False
0.31,0.7350551845319044,2.800000000000001,6731.0,45.2907,0.3,68900.0,0.33,276.0,2700.0,29.46980477433172,4.505425615526024,12164.649161920264,19.72145322242041,6.416379113306816,9.748351551911307,1.910953497780792,3015,84,994,1518,115.4723140187306,66.60545217537147,0.0014382504536485,False
0.32,0.6452520256500206,2.800000000000001,6732.0,45.2907,0.08,68900.0,0.33,276.0,2700.0,23.63539192783932,3.713033569739072,10025.190638295491,16.583877156155857,4.7877292551151,7.051514771683465,1.0746956853760286,57973,264,9940,36235,107.59808490528482,62.09927801343213,0.0012260042217592,False
0.33,0.718831902571576,2.800000000000001,6733.0,45.2907,0.1,68900.0,0.33,276.0,2700.0,27.880238423150768,4.524973063025171,12217.427270167962,19.13963761559648,6.101160839156899,8.740600807554287,1.5761877761317278,40740,236,7682,24997,113.56210766184424,65.52806503290329,0.0013486482370748,False
0.34,0.9918982519581174,2.800000000000001,6734.0,45.2907,0.3,68900.0,0.33,276.0,2700.0,46.62310207335658,7.843609247366158,21177.744967888622,29.81396177697166,12.742306663160193,16.809140296384925,4.898697415794035,4423,110,1456,2233,138.48852979938223,79.82205321933029,0.0019313702521022,False
0.3500000000000001,0.9119764520934764,2.800000000000001,6735.0,45.2907,0.3,68900.0,0.33,276.0,2700.0,40.35127763374919,6.971676395890999,18823.526268905694,26.495791348264344,10.493187442060227,13.855486285484847,3.5215110461692287,3772,100,1252,1888,127.77371860593745,73.53897497139097,0.0016908417204003,False
0.36,0.8988223427417203,2.800000000000001,6736.0,45.2907,0.3,68900.0,0.33,276.0,2700.0,39.09289425877248,6.939004868681792,18735.31314544084,25.96504819152353,10.148154399040491,13.127846067248946,3.209149530358699,3769,98,1242,1900,121.3632131600336,70.02988892623173,0.0016196053039883,False
0.37,0.7541217875138387,2.800000000000001,6737.0,45.2907,0.2,68900.0,0.33,276.0,2700.0,29.02567998470497,5.263663402048899,14211.891185532028,20.413694244915536,6.798985057440289,8.611985739789432,1.5353216553913898,7429,122,1974,4086,113.22743340334596,65.331523088107,0.0012965773892307,False
0.38,0.9826352553345764,2.800000000000001,6738.0,45.2907,0.3,68900.0,0.33,276.0,2700.0,44.586991041638775,8.356604649852853,22562.832554602704,29.421158488844707,12.467960968263968,15.165832552794068,4.111356318411115,4326,108,1426,2177,123.91984299494764,71.42919635739555,0.0017332635487914,False
0.39,1.0859308238207557,2.800000000000001,6739.0,45.2907,0.3,68900.0,0.33,276.0,2700.0,52.25312756971763,10.065122453016071,27175.8306231434,33.92353206289517,15.737265518060653,18.329595506822457,5.67214306504458,4707,116,1558,2364,132.88104114146415,76.61570180392705,0.0019297219136625,False
0.4,0.7450391004106388,2.800000000000001,6740.0,45.2907,0.1,68900.0,0.33,276.0,2700.0,27.649090632798327,5.395776840006327,14568.597468017084,20.08279442245053,6.615078159053335,7.566296210347801,1.2193013190470072,43301,230,7452,27031,109.17620293919366,60.59856758637436,0.0012097572131822,False
0.4100000000000001,0.9346701928852372,2.800000000000001,6741.0,45.2907,0.3,68900.0,0.33,276.0,2700.0,40.11139910377772,8.078489011422393,21811.92033084046,27.42166340692914,11.10495733518942,12.68973569684858,3.026468323767027,3617,98,1202,1808,112.35030856624785,64.73683109037722,0.001523004279373,False
0.42,0.8010434778276889,2.800000000000001,6742.0,45.2907,0.2,68900.0,0.33,276.0,2700.0,30.6843944127196,6.2885532823250045,16979.093862277514,22.156164151446053,7.797493552340587,8.528230261273546,1.5089402700155825,8479,124,2136,4751,103.78547139181056,59.91628295268178,0.0012573890328754,False
0.43,0.8966476206929539,2.800000000000001,6743.0,45.2907,0.1,68900.0,0.33,276.0,2700.0,36.82386784356463,7.75061251496042,20926.65379039313,25.877721227614654,10.091782613719236,10.946146615949974,2.3411700987588158,62315,276,10008,39563,206.4046381544049,117.50225503202132,0.0026696408590295,False
0.44,0.9991640818569458,2.800000000000001,6744.0,45.2907,0.3,68900.0,0.33,276.0,2700.0,43.88996903595712,9.477384235508316,25588.937435872453,30.12358310088616,12.960053862610586,13.766385935070964,3.48266962710227,4029,104,1344,2007,112.42641992877928,64.84215518692454,0.001560636939246,False
0.45,0.8201485927720216,2.800000000000001,6745.0,45.2907,0.2,68900.0,0.33,276.0,2700.0,31.115210204800537,6.810070542374545,18387.190464411276,22.881497850247808,8.227703801821416,8.233712354552729,1.4176332594468717,8476,124,2100,4778,101.61988287119854,58.57326609892189,0.0012246207837519,False
0.46,0.98729017067866,2.800000000000001,6746.0,45.2907,0.3,68900.0,0.33,276.0,2700.0,42.38874668398595,9.545551695630223,25772.989578201603,29.61828359560193,12.605372559447805,12.77046308838402,3.059820863817581,4091,104,1342,2060,111.09905708714923,64.10855621601036,0.0014826107688133,False
0.4700000000000001,0.8944064127247939,2.800000000000001,6747.0,45.2907,0.2,68900.0,0.33,276.0,2700.0,35.51786121129299,8.129251001938083,21948.977705232825,25.78784886062953,10.033885993616485,9.730012350663454,1.9046349916784,10015,138,2474,5646,102.6919483428876,59.1970966676087,0.0013082224950229,False
0.4800000000000001,0.9263463001290833,2.800000000000001,6748.0,45.2907,0.3,68900.0,0.33,276.0,2700.0,37.43662709920447,8.753167160645209,23633.551333742063,27.08055742509072,10.878123222520088,10.356069674113751,2.1249560618748795,4024,96,1220,2104,107.45872370852246,62.00077768642473,0.0013287977747248,False
0.49,0.9413118460129536,2.800000000000001,6749.0,45.2907,0.3,68900.0,0.33,276.0,2700.0,38.19452269072479,9.111254569826116,24600.387338530512,27.6950816989696,11.2879898728479,10.49944099175519,2.1767353030217844,4017,96,1212,2107,113.0044809503256,64.23446402426481,0.0013348755988476,False
0.5,1.0149211278659098,2.800000000000001,6750.0,45.2907,0.3,68900.0,0.33,276.0,2700.0,43.19046276497184,10.535816303443813,28446.70401929829,30.799602289269952,13.44003038645733,12.390860475701889,2.9042140830135192,4169,104,1324,2125,108.42194160322516,62.254064437051376,0.0014331256971013,False
0.03,0.4097293254483851,2.800000000000001,6753.0,48.31008,0.08,68900.0,0.33,276.0,2700.0,17.810500440127726,0.2671009579341525,721.1725864222118,9.31795345284362,1.764857285243641,8.492546987284104,1.4977563273094885,23043,230,7584,11661,700.9276350069695,400.0643115085046,0.0063116826177573,True
0.04,0.654139479074239,2.800000000000001,6754.0,48.31008,0.1,68900.0,0.33,276.0,2700.0,32.42948348464307,0.6484556284063084,1750.8301966970328,16.885353388133336,4.936455898670397,15.544130096509736,4.288000270264089,26991,260,8880,13665,922.796454615491,525.8253513134757,0.0085887359651403,True
0.05,0.7395144798719756,2.800000000000001,6755.0,48.31008,0.1,68900.0,0.33,276.0,2700.0,37.98754055398121,0.949426714461726,2563.45212904666,19.88253593666304,6.504681869740059,18.105004617318173,5.555255155278333,31332,284,10296,15882,843.0926380839883,480.6744771401652,0.0081673305121602,True
0.06,0.3984402107226268,2.800000000000001,6756.0,48.31008,0.1,68900.0,0.33,276.0,2700.0,16.3982210345118,0.4914942416932355,1327.034452571736,9.004695457289369,1.661437055702066,7.39352557722243,1.1699428140088304,13922,178,4572,7058,325.11446028174595,186.68002807383303,0.0032052580511834,True
0.0699999999999999,0.6560785574843633,2.800000000000001,6757.0,48.31008,0.2,68900.0,0.33,276.0,2700.0,31.578624719672938,1.1045334876684294,2982.24041670476,16.951393753318673,4.96926193632561,14.627230966354263,3.864728448657181,6688,130,2200,3382,474.2467413881929,271.5226336716217,0.0051268168340101,True
0.08,0.5489934061203461,2.800000000000001,6758.0,48.31008,0.2,68900.0,0.33,276.0,2700.0,24.460818800469625,0.9773604217263576,2638.8731386611657,13.445822137164786,3.344288558387027,11.01499666330484,2.366928136660669,5231,112,1722,2642,334.780315001795,193.2717322441319,0.0036215299760997,True
0.09,0.4196332133782757,2.800000000000001,6759.0,48.31008,0.2,68900.0,0.33,276.0,2700.0,16.760058603035358,0.7526758231069165,2032.2247223886743,9.595410832560644,1.8585131707889369,7.164647770474714,1.1058373476820202,3560,92,1168,1802,236.4304618120676,136.50285490741553,0.0023476007550521,False
0.0999999999999999,0.5639343728402422,2.800000000000001,6760.0,48.31008,0.2,68900.0,0.33,276.0,2700.0,24.784317531215887,1.2371214814584033,3340.2279999376888,13.91763368866996,3.5486998143494466,10.866683842545926,2.3115783328910435,5187,112,1700,2631,276.9138302027448,159.82198278999925,0.0030452853260435,True
0.12,0.667252740516851,2.800000000000001,6762.0,48.31008,0.3,68900.0,0.33,276.0,2700.0,30.7250206330807,1.8398821232479097,4967.681732769356,17.333801007416927,5.160813534932865,13.391219625663773,3.3209314116849558,2931,86,962,1482,274.36208923598065,158.40261300153648,0.0031861773436758,False
0.13,0.5256298927336434,2.800000000000001,6763.0,48.31008,0.2,68900.0,0.33,276.0,2700.0,21.646496958868703,1.402420916286509,3786.536473973574,12.71928617859969,3.038660839136789,8.927210780269013,1.6362399228502802,4636,106,1524,2344,202.1789286305851,116.63086560685956,0.0021949465289388,False
0.14,0.7264883362690708,2.800000000000001,6764.0,48.31008,0.3,68900.0,0.33,276.0,2700.0,34.05387429661382,2.378024180602001,6420.665287625402,19.413396071772677,6.248749272266835,14.640478224841146,3.870725091664834,3518,94,1148,1790,255.6833390296996,147.56129913081392,0.0030829786629822,False
0.15,0.7516010799053572,2.800000000000001,6765.0,48.31008,0.3,68900.0,0.33,276.0,2700.0,35.453640478692414,2.651954452430669,7160.277021562806,20.32165214307824,6.747644142198404,15.131988335614178,4.095689689767736,3565,94,1162,1816,247.37688257986412,142.71783702630705,0.0030212407764214,False
0.16,0.7421159808963946,2.800000000000001,6766.0,48.31008,0.3,68900.0,0.33,276.0,2700.0,34.476087735994575,2.749508376540112,7423.672616658302,19.97674054570692,6.556528807165928,14.499347190287658,3.807020430625816,3593,94,1168,1835,229.3847133486046,132.3064468214494,0.0027997879816592,False
0.17,0.5074102230877261,2.800000000000001,6767.0,48.31008,0.2,68900.0,0.33,276.0,2700.0,19.52888660060494,1.649665597913363,4454.09711436608,12.16222918389568,2.8120070112244,7.366657416709261,1.162341413311037,3970,96,1306,2005,151.4401182972148,87.35202295931705,0.001658874654272,False
0.18,0.6939441754816573,2.800000000000001,6768.0,48.31008,0.3,68900.0,0.33,276.0,2700.0,30.620988304939,2.7436744352073483,7407.92097505984,18.259946390986244,5.635797805146584,12.361041913952755,2.892123369939236,2937,86,964,1485,193.4036464177625,111.62253089915136,0.0023057743944405,False
0.19,0.7813223919391533,2.800000000000001,6769.0,48.31008,0.3,68900.0,0.33,276.0,2700.0,36.21413815742859,3.425977668948398,9250.139706160677,21.41706686265183,7.367853900609096,14.797071294776764,3.941876231660698,3756,98,1230,1905,204.2946484169053,117.94555522594544,0.002553647446842,False
0.2,0.8168884518615487,2.800000000000001,6770.0,48.31008,0.3,68900.0,0.33,276.0,2700.0,38.3920940271796,3.8224542418988183,10320.62645312681,22.75707609464937,8.15330978338649,15.635017932530223,4.330855541487671,3872,100,1278,1949,199.46786628746696,114.88453534726742,0.0025853775668903,False
0.21,0.5680365339217657,2.800000000000001,6771.0,48.31008,0.1,68900.0,0.33,276.0,2700.0,21.957947702128138,2.286188315680193,6172.708452336522,14.0481549569572,3.6060597546713686,7.909792745170938,1.3198714389911754,24036,204,5922,13609,141.73665662868115,81.81151816183996,0.001586757398136,False
0.22,0.8122646402285609,2.800000000000001,6772.0,48.31008,0.3,68900.0,0.33,276.0,2700.0,37.40873119789724,4.092659312718408,11050.180144339702,22.581068576023704,8.048492470055585,14.827662621873536,3.955833157337177,3908,100,1286,1973,184.78748425566457,106.68070078486792,0.0023497377231064,False
0.23,0.7930825858835944,2.800000000000001,6773.0,48.31008,0.3,68900.0,0.33,276.0,2700.0,35.747218047619675,4.085447570265444,11030.708439716698,21.85663322143361,7.622304046999987,13.89058482618606,3.5368564767345427,3449,94,1136,1739,172.46937207374808,99.48372094744684,0.0021845185152351,False
0.24,0.7082443904522531,2.800000000000001,6774.0,48.31008,0.3,68900.0,0.33,276.0,2700.0,29.756502349991766,3.541827364103527,9562.933883079522,18.76350472354602,5.90051333537113,10.992997626445746,2.358685971267603,2973,84,976,1503,152.9369375034518,88.29748748937257,0.0018225174842436,False
0.25,0.7212737431016688,2.800000000000001,6775.0,48.31008,0.1,68900.0,0.33,276.0,2700.0,30.308844793051787,3.7558806756565817,10140.877824272771,19.22678646489544,6.148003153320407,11.082058328156348,2.392122477663825,33793,248,8222,19242,149.12991517047692,86.04300530221737,0.0018142343313156,False
0.26,0.6790869309027274,2.800000000000001,6776.0,48.31008,0.2,68900.0,0.33,276.0,2700.0,27.32225942424762,3.5150826368324517,9490.72311944762,17.74221693097557,5.368358200906664,9.58004249327205,1.853275564074212,5781,120,1912,2907,134.52033710335078,77.4669866718931,0.0016200467832817,False
0.27,0.5934263647885307,2.800000000000001,6777.0,48.31008,0.05,68900.0,0.33,276.0,2700.0,21.86992438267492,2.9112158128607084,7860.282694723913,14.865410249269388,3.973080740061127,7.004514133405529,1.0618649272004186,175412,404,23436,115022,163.6588900863928,93.226967290778,0.0013641301344563,False
0.28,0.6476822944110975,2.800000000000001,6778.0,48.31008,0.1,68900.0,0.33,276.0,2700.0,24.83357425257048,3.43072423407213,9262.955431994753,16.666118449156695,4.828132437865612,8.167455803413784,1.3974082037934823,30651,220,6806,17992,126.37561910248117,72.85439721479193,0.001455540563284,False
0.29,0.9711235221652208,2.800000000000001,6779.0,48.31008,0.3,68900.0,0.33,276.0,2700.0,46.74885916253269,6.727504376414967,18164.26181632041,28.93600137828395,12.132068136880852,17.812857784248738,5.404563760465885,4569,112,1510,2298,167.6932956393829,96.75401328254225,0.0023124278866318,False
0.3,0.8842895215756381,2.800000000000001,6780.0,48.31008,0.3,68900.0,0.33,276.0,2700.0,39.95317772276279,5.936427990649804,16028.35557475447,25.38373297030481,9.77503950066147,14.56944475245798,3.838611510011665,4009,102,1318,2026,148.87724866258569,85.90248914500565,0.0019815850370362,False
0.31,0.7508578009483347,2.800000000000001,6781.0,48.31008,0.3,68900.0,0.33,276.0,2700.0,30.49286228145904,4.663999529130756,12592.79872865304,20.29454225169935,6.732549561754023,10.198320029759689,2.068550032623268,3056,86,1002,1547,128.51433960985827,74.18581133862595,0.0015710616892141,False
0.32,0.6784265647674413,2.800000000000001,6782.0,48.31008,0.08,68900.0,0.33,276.0,2700.0,25.639500072377903,4.033690872865245,10890.965356736162,17.719333965548365,5.356649397851183,7.920166106829541,1.322958524985938,64352,280,10984,40268,118.91723252027016,68.4554155140105,0.0013820983613522,False
0.33,0.9798068010084092,2.800000000000001,6783.0,48.31008,0.3,68900.0,0.33,276.0,2700.0,46.03978007327412,7.521297435295531,20307.503075297933,29.30164584794282,12.384913630670551,16.738134225331304,4.8636161953750205,4417,110,1458,2224,150.92956798986472,86.93491027028175,0.0020809720314788,False
0.34,0.7363933007587931,2.800000000000001,6784.0,48.31008,0.2,68900.0,0.33,276.0,2700.0,28.71797683461176,4.799737956779541,12959.292483304762,19.76973738800393,6.442801009776188,8.948239446607829,1.6430630529966468,6608,122,1986,3469,123.48789634496612,71.29457198392815,0.0014350713689943,False
0.3500000000000001,0.7198073282026727,2.800000000000001,6785.0,48.31008,0.08,68900.0,0.33,276.0,2700.0,27.39896765173344,4.705022149038227,12703.559802403212,19.17443240624945,6.11984710017862,8.224535245483985,1.4148249511403934,73730,290,11640,46986,120.00144340134456,68.29524645478298,0.0013776701914735,False
0.36,0.9433448743235404,2.800000000000001,6786.0,48.31008,0.3,68900.0,0.33,276.0,2700.0,42.31796232019693,7.519517119738193,20302.69622329312,27.77899740995255,11.344380041914956,14.538964910244385,3.824862922176763,4045,104,1338,2032,134.5921657320151,77.37379297755793,0.0018347190460115,False
0.37,1.0213533663971066,2.800000000000001,6787.0,48.31008,0.3,68900.0,0.33,276.0,2700.0,47.867986490121424,8.749490105550942,23623.623284987545,31.07735598986354,13.63903350670362,16.790630500257883,4.889543401152677,4538,112,1502,2279,141.74422829979818,81.7750556942363,0.0019879913033719,False
0.38,0.9701770489924187,2.800000000000001,6788.0,48.31008,0.3,68900.0,0.33,276.0,2700.0,43.65617712196708,8.17975000511458,22085.325013809364,28.896260842536027,12.1046997963008,14.75991627943105,3.924949791186222,4305,108,1422,2162,132.15172875881711,76.14182752264276,0.0018195824549993,False
0.39,1.065697013775518,2.800000000000001,6789.0,48.31008,0.3,68900.0,0.33,276.0,2700.0,50.64534144993065,9.751604159657612,26329.331231075557,33.02047543617376,15.060016702045086,17.624866013756886,5.308412542387474,4824,116,1598,2421,140.42037365912608,80.93271906334785,0.0020069884067108,False
0.4,0.7286941028892555,2.800000000000001,6790.0,48.31008,0.2,68900.0,0.33,276.0,2700.0,26.63289440813617,5.192537595074048,14019.851506699932,19.49253739150166,6.29165795447016,7.140357016634511,1.0991203593961112,7057,114,1766,3964,107.98665362451096,62.34411076258262,0.0012525236346846,False
0.4100000000000001,0.8937747224249007,2.800000000000001,6791.0,48.31008,0.3,68900.0,0.33,276.0,2700.0,37.21455836383037,7.484636659733188,20208.51898127961,25.76254090527167,10.017604053558989,11.4520174585587,2.532967393825799,3566,96,1180,1790,117.01168719922062,67.3865890299896,0.0015340163733595,False
0.42,1.0811713427912752,2.800000000000001,6792.0,48.31008,0.3,68900.0,0.33,276.0,2700.0,50.83547765753411,10.520280763736054,28404.758062087345,33.71018581348077,15.576315045274736,17.125291844053343,5.0560342815386825,4578,114,1522,2289,132.0944957418318,76.02697935897571,0.0019174613132834,False
0.43,0.9489679842885476,2.800000000000001,6793.0,48.31008,0.3,68900.0,0.33,276.0,2700.0,40.52627329415999,8.546629686838367,23075.90015446359,28.011639097149192,11.501238111582731,12.5146341970108,2.9546084247443662,3589,98,1194,1792,115.94467673727596,66.77254539866905,0.001590379577838,False
0.44,0.7954887315600819,2.800000000000001,6794.0,48.31008,0.08,68900.0,0.33,276.0,2700.0,29.789122004269174,6.375197888536954,17213.034299049777,21.94699721283265,7.675002975815965,7.842124791436525,1.2998050872790108,93480,298,12412,61334,115.03273357766476,65.04612080487952,0.0012920000370972,False
0.45,1.0025155854278534,2.800000000000001,6795.0,48.31008,0.3,68900.0,0.33,276.0,2700.0,43.823390497533495,9.669411108239451,26107.409992246525,30.26684904450697,13.061253158256912,13.55654145302653,3.391842050017459,4036,104,1342,2015,116.63471414175244,67.15596154344502,0.0016403078691683,False
0.46,0.9697514132848982,2.800000000000001,6796.0,48.31008,0.3,68900.0,0.33,276.0,2700.0,41.11173929700608,9.251839996624623,24979.96799088649,28.87839658037033,12.092404317867226,12.233342716635748,2.840564321242601,3969,102,1308,1989,115.75491019590996,66.76368681656328,0.0015400625475692,False
0.4700000000000001,0.8621877997811829,2.800000000000001,6797.0,48.31008,0.2,68900.0,0.33,276.0,2700.0,33.342412874277215,7.618020642739381,20568.65573539633,24.509835307584552,9.223695229850003,8.832577566692663,1.605674587110622,9210,132,2266,5205,107.18028396797114,61.86065345887441,0.0013356909478307,False
0.4800000000000001,1.136514842830887,2.800000000000001,6798.0,48.31008,0.3,68900.0,0.33,276.0,2700.0,53.192432538078286,12.534560465974916,33843.31325813227,36.226166928081525,17.511221291010905,16.96626560999676,4.976660825035991,4889,116,1576,2485,127.86952528111212,73.68936547531025,0.0018226570115456,False
0.49,1.0510160814515497,2.800000000000001,6799.0,48.31008,0.3,68900.0,0.33,276.0,2700.0,46.19672884503156,11.07179507763128,29893.84670960446,32.37169097556128,14.580014344279856,13.82503786947028,3.508219266648574,4507,108,1448,2287,121.98909540617947,70.40736003178398,0.0016213223009965,False
0.5,1.043948634501173,2.800000000000001,6800.0,48.31008,0.3,68900.0,0.33,276.0,2700.0,45.34907901631625,11.07547036627992,29903.76998895578,32.06129561813691,14.352326726320769,13.287783398179345,3.276856360040848,4412,106,1386,2269,120.78681158454374,69.6816471659694,0.0015823437278537,False
0.02,0.3450916360749656,2.800000000000001,6802.0,51.32946,0.08,68900.0,0.33,276.0,2700.0,14.615058351950406,0.146133828358685,394.5613365684497,7.567676078350033,1.219698855690436,7.047382273600373,1.073565027331751,18833,206,6210,9512,884.6361805314543,504.5613921284647,0.0080456305407794,True
0.03,0.4203426736182483,2.800000000000001,6803.0,51.32946,0.1,68900.0,0.33,276.0,2700.0,18.397353218212764,0.2759037496054283,744.9401239346564,9.61538097988299,1.8653278165256624,8.781972238329773,1.589424066920234,15459,188,5074,7842,745.6783707366469,425.196628114473,0.0069172187263243,True
0.04,0.4321018148080825,2.800000000000001,6804.0,51.32946,0.1,68900.0,0.33,276.0,2700.0,18.77844148561614,0.3754347884257696,1013.673928749578,9.94822408543926,1.9803500080626728,8.830217400176878,1.6049152196369032,15845,190,5188,8057,613.1831949756789,349.78501801466786,0.0105775051165574,True
0.05,0.5528761507223323,2.800000000000001,6805.0,51.32946,0.1,68900.0,0.33,276.0,2700.0,25.592792073689537,0.6395580024544375,1726.8066066269812,13.567893375770243,3.396732114835091,12.024898697919292,2.757174112380653,20839,224,6834,10582,623.4360076704806,355.8130165307628,0.0059890106140005,True
0.06,0.418383988419261,2.800000000000001,6806.0,51.32946,0.1,68900.0,0.33,276.0,2700.0,17.47931148694142,0.5239269552661253,1414.6027792185384,9.56027793762336,1.8465482926124968,7.919033549318058,1.322621337346372,14631,182,4796,7431,371.8984322171649,213.2893108068153,0.0036085991227672,True
0.0699999999999999,0.5924056719935532,2.800000000000001,6807.0,51.32946,0.2,68900.0,0.33,276.0,2700.0,27.452343049901344,0.9601136292264256,2592.306798911349,14.832243323031454,3.9579246517737534,12.62009972686989,2.997811022547329,5899,120,1936,2989,429.2752617377944,245.83881469855243,0.0047866836174528,True
0.08,0.4800205676812535,2.800000000000001,6808.0,51.32946,0.2,68900.0,0.33,276.0,2700.0,20.38885827800846,0.8144820008279084,2199.101402235353,11.340502815922203,2.490184180585872,9.048355462086256,1.675702179757964,4448,102,1454,2261,310.0841071011215,178.98160587136286,0.0032638562806217,True
0.09,0.5566926447973897,2.800000000000001,6809.0,51.32946,0.2,68900.0,0.33,276.0,2700.0,24.635717783270277,1.1070804862175176,2989.1173127872976,13.688250987704672,3.448743455144497,10.9474667955656,2.34166296892698,5239,112,1720,2653,319.18640767785206,184.25188901933947,0.0035095475103326,True
0.0999999999999999,0.7084975859004666,2.800000000000001,6810.0,51.32946,0.3,68900.0,0.33,276.0,2700.0,34.130656943863414,1.704438452090776,4601.983820645095,18.772466886245454,5.905265303915072,15.35819005761796,4.200826851824296,3379,92,1106,1714,362.6965108744446,209.40055211897743,0.004336145525546,True
0.11,0.4444497296503749,2.800000000000001,6811.0,51.32946,0.2,68900.0,0.33,276.0,2700.0,17.591051835094838,0.9647202110489316,2604.7445698321158,10.301473115082423,2.105366833254367,7.289578720012415,1.1406466222054354,3528,92,1156,1788,217.23443000267787,125.38184304033612,0.0022230170987936,False
0.12,0.816227898062529,2.800000000000001,6812.0,51.32946,0.3,68900.0,0.33,276.0,2700.0,41.07191795235747,2.4606959624045106,6643.879098492179,22.73189891210149,8.138285826363026,18.34001904025597,5.677589863958515,4182,104,1374,2115,346.3275006113416,199.90710813746995,0.0044076483378547,True
0.13,0.5738048620807468,2.800000000000001,6813.0,51.32946,0.3,68900.0,0.33,276.0,2700.0,24.51533519827511,1.588895401847923,4290.017584989393,14.232405285792533,3.6876251286876314,10.282929912482578,2.098729726839707,2560,78,834,1303,239.896285173639,138.07447809815216,0.0026008085842122,False
0.14,0.4721514407721243,2.800000000000001,6814.0,51.32946,0.1,68900.0,0.33,276.0,2700.0,18.337797977780184,1.2778988382836465,3450.326863365845,11.107905075795031,2.401860515841299,7.229892901985151,1.1239616775576529,15044,186,4980,7568,177.83130781235766,102.52741299724237,0.00192366671068,False
0.15,0.7407614333772388,2.800000000000001,6815.0,51.32946,0.3,68900.0,0.33,276.0,2700.0,34.70653857362904,2.595921809551603,7008.988885789328,19.927668938207045,6.529502602936262,14.778869635421994,3.933580793384659,3549,94,1156,1809,258.9980365466098,149.43468986654457,0.0031505933779426,False
0.16,0.5317054574847729,2.800000000000001,6816.0,51.32946,0.1,68900.0,0.33,276.0,2700.0,21.182514207266987,1.6860224942419566,4552.260734453283,12.90689832240689,3.116507141069066,8.275615884860096,1.4304846468271095,17722,202,5820,8948,179.50083619815675,103.53114552869162,0.0019625513063598,False
0.17,0.6177426892396143,2.800000000000001,6817.0,51.32946,0.08,68900.0,0.33,276.0,2700.0,26.05962511073318,2.204778371274261,5952.9016024405055,15.663299811238144,4.34422363662577,10.396325299495036,2.139445265351509,44750,284,11064,25320,191.2077160140728,110.3456842643813,0.002235712047099,False
0.18,0.6577704277218526,2.800000000000001,6818.0,51.32946,0.3,68900.0,0.33,276.0,2700.0,28.28292569603187,2.533248800405667,6839.771761095301,17.009091996777844,4.997990293728473,11.273833699254029,2.4647414933228062,2873,82,936,1463,198.09581585824432,114.3061154116661,0.0022874190526302,False
0.19,0.6856784107963034,2.800000000000001,6819.0,51.32946,0.3,68900.0,0.33,276.0,2700.0,29.779175866665472,2.8146562513259035,7599.571878579939,17.971225151596244,5.486059818813966,11.807950715069229,2.6714035674880625,3007,86,984,1525,194.52979105744367,112.01675768452816,0.0022955921240142,False
0.2,0.5085678458453136,2.800000000000001,6820.0,51.32946,0.08,68900.0,0.33,276.0,2700.0,18.822479636330105,1.8654928028138649,5036.830567597435,12.197374698575851,2.826106623885408,6.625104937754253,0.9606138210715428,32799,234,7950,18696,143.85633490909115,82.99610914374875,0.0015527440216607,False
0.21,0.6554247704492753,2.800000000000001,6821.0,51.32946,0.3,68900.0,0.33,276.0,2700.0,27.258647089004025,2.8427617513021546,7675.456728515817,16.92911677357853,4.95818661764857,10.329530315425494,2.1154248663464155,2780,82,908,1412,172.56676662483173,99.54081060160216,0.0019809731166891,False
0.22,0.578247184100242,2.800000000000001,6822.0,51.32946,0.1,68900.0,0.33,276.0,2700.0,22.29026547158015,2.429628082823536,6559.995823623548,14.374870694398808,3.7511663110831366,7.915394777181341,1.3215382282596004,24959,208,6192,14097,147.1052345158863,84.89115083724778,0.0016572000431224,False
0.23,0.6405745777450749,2.800000000000001,6823.0,51.32946,0.3,68900.0,0.33,276.0,2700.0,25.76754515310378,2.937785187396116,7932.020005969513,16.426008179232603,4.71052845994409,9.341536973871175,1.772743272547974,2657,80,874,1340,151.31876019113395,87.3575558766597,0.0017840628996429,False
0.24,0.6070562055760587,2.800000000000001,6824.0,51.32946,0.2,68900.0,0.33,276.0,2700.0,23.461475140175324,2.7864240989255578,7523.345067099006,15.310814742730148,4.178724008051931,8.150660397445176,1.3922999091263728,4886,108,1616,2456,139.07283177532804,80.07344501487543,0.0016155431605833,False
0.25,0.7908019327135729,2.800000000000001,6825.0,51.32946,0.3,68900.0,0.33,276.0,2700.0,34.96064633320126,4.337355868175266,11710.86084407322,21.77111648467233,7.572554189010721,13.189529848528933,3.2351983208354547,3559,94,1174,1792,169.9924832600582,98.14491432453444,0.0021465290795677,False
0.26,0.5929573818059715,2.800000000000001,6826.0,51.32946,0.1,68900.0,0.33,276.0,2700.0,22.100975434718503,2.836315718193744,7658.052439123108,14.8501676191637,3.96611269010856,7.250807815554804,1.129796971914816,25340,206,6126,14453,131.8810031292425,76.03008404891287,0.0014871423149536,False
0.27,0.6196398699795146,2.800000000000001,6827.0,51.32946,0.08,68900.0,0.33,276.0,2700.0,23.41357681884079,3.1196088917431006,8422.944007706372,15.726176795111789,4.373999377550728,7.687400023729003,1.2543904858076274,52914,264,9874,32563,136.6574478601514,76.92215816096227,0.0015173259120857,False
0.28,0.8005561822255147,2.800000000000001,6828.0,51.32946,0.3,68900.0,0.33,276.0,2700.0,34.7011056815207,4.812178634125161,12992.882312137934,22.13778374446131,7.78670142957663,12.563321937059392,2.974522795451469,3320,92,1094,1673,155.0145264868592,89.25377951565366,0.0019689439472201,False
0.29,0.7460733108191772,2.800000000000001,6829.0,51.32946,0.3,68900.0,0.33,276.0,2700.0,30.7578699436146,4.408810939671853,11903.789537114004,20.120368103666785,6.635867421306316,10.637501839947817,2.227056481634463,3178,86,1042,1609,143.10892243648624,82.61594245063323,0.001750793001175,False
0.3,0.730905459684331,2.800000000000001,6830.0,51.32946,0.2,68900.0,0.33,276.0,2700.0,29.486204420850857,4.3663819953630085,11789.231387480124,19.57200202893025,6.334850749168758,9.914202391920613,1.968468753805749,5946,122,1970,2981,132.99150304450194,76.65134103330824,0.0016679309409487,False
0.31,0.7100803206583599,2.800000000000001,6831.0,51.32946,0.1,68900.0,0.33,276.0,2700.0,27.87853370444013,4.258778599692788,11498.70221917053,18.828526234876385,5.935021494983346,9.050007469563743,1.6762428952905577,39662,236,7612,24244,133.1888276433754,76.84258160178005,0.0015853420583408,False
0.32,0.8806925652505124,2.800000000000001,6832.0,51.32946,0.3,68900.0,0.33,276.0,2700.0,39.05545966136478,6.18024440710315,16686.659899178507,25.240673607963224,9.683992708406208,13.814786053401557,3.503748301303058,3675,98,1218,1842,152.1699251596172,87.61508795500266,0.0019754041407446,False
0.33,0.7168921327654056,2.800000000000001,6833.0,51.32946,0.2,68900.0,0.33,276.0,2700.0,27.75808003505632,4.50481692898959,12163.005708271894,19.07051438567327,6.064101404872816,8.68756564938305,1.559284475883226,6167,120,1898,3200,130.0640260472627,74.72577010406062,0.0015111785380344,False
0.34,0.8425755877595367,2.800000000000001,6834.0,51.32946,0.3,68900.0,0.33,276.0,2700.0,35.76046628452834,5.996961163265358,16191.795140816468,23.744652943146967,8.750522401883751,12.015813341381374,2.753561238618393,3555,94,1174,1788,137.31288762303936,78.99821894575076,0.0017733436027355,False
0.3500000000000001,0.786274902763536,2.800000000000001,6835.0,51.32946,0.3,68900.0,0.33,276.0,2700.0,31.668934590111057,5.4522663632543305,14721.119180786693,21.60175553695756,7.474379237991796,10.067179053153495,2.022112874737465,3236,90,1068,1628,125.66601691300772,72.52411214748271,0.0015941657273577,False
0.36,0.9649046370847908,2.800000000000001,6836.0,51.32946,0.3,68900.0,0.33,276.0,2700.0,43.915488825930005,7.80707189077015,21079.094105079403,28.675294731736685,11.95292962568756,15.24019409419332,4.14585773491741,4313,108,1430,2162,150.2116235049775,86.13651519761723,0.0021649908147331,False
0.37,0.8219602214643291,2.800000000000001,6837.0,51.32946,0.3,68900.0,0.33,276.0,2700.0,33.46896069722543,6.085670333865178,16431.30990143598,22.950753275256005,8.269219299954646,10.51820742196942,2.183548966089468,3540,92,1170,1779,125.5142835330639,72.07103011891351,0.0016074103394794,False
0.38,0.9777447679749643,2.800000000000001,6838.0,51.32946,0.3,68900.0,0.33,276.0,2700.0,44.220668499651005,8.287003366875172,22374.909090562964,29.214644060725437,12.32458238764048,15.006024438925571,4.037579020765307,4331,108,1428,2179,140.86545614636597,81.04707892192036,0.0019516320227748,False
0.39,0.8512157048728545,2.800000000000001,6839.0,51.32946,0.2,68900.0,0.33,276.0,2700.0,34.86780897135698,6.6749853263357055,18022.460381106404,24.080561066052795,8.957128776006602,10.787247905304184,2.282143449670897,9258,134,2334,5193,129.73611921371565,74.83692326492141,0.0016234674464674,False
0.4,0.9178533944634776,2.800000000000001,6840.0,51.32946,0.3,68900.0,0.33,276.0,2700.0,39.21482343883447,7.708923401213729,20814.09318327707,26.73432021207934,10.64960216593332,12.480503226755133,2.940678764719591,3587,98,1194,1790,128.3067227080818,73.94924656927203,0.0017231198517404,False
0.4100000000000001,0.8990750079784435,2.800000000000001,6841.0,51.32946,0.3,68900.0,0.33,276.0,2700.0,37.58526373903757,7.560631261650652,20413.70440645676,25.975201787452644,10.154716146784928,11.610061951584928,2.594084885134276,3616,96,1196,1816,125.15086077902104,72.06608246550499,0.0016417965772623,False
0.42,0.7656162486100223,2.800000000000001,6842.0,51.32946,0.2,68900.0,0.33,276.0,2700.0,28.416890906634567,5.81237754604715,15693.419374327306,20.83543188768413,7.036050114518848,7.581459018950433,1.2236725684716978,7913,120,2002,4422,112.81886103198806,64.95597185161608,0.0013574736616348,False
0.43,0.803833807090029,2.800000000000001,6843.0,51.32946,0.05,68900.0,0.33,276.0,2700.0,30.59452778906918,6.411304403243897,17310.52188875852,22.26152810502437,7.859463500073593,8.332999684044804,1.4481590968296958,355816,486,32576,244894,148.5909981113257,83.07364904938522,0.0014148274320613,False
0.44,1.123019505810451,2.800000000000001,6844.0,51.32946,0.3,68900.0,0.33,276.0,2700.0,53.4842712307099,11.588130718353923,31287.9529395556,35.6055559886618,17.026529783910448,17.878715242048102,5.438399065556522,4892,118,1630,2441,139.27992125412212,80.23331895343263,0.0020579445107875,False
0.45,1.070424570077141,2.800000000000001,6845.0,51.32946,0.3,68900.0,0.33,276.0,2700.0,48.98276016907555,10.830269284335753,29241.72706770653,33.23055014139428,15.21661920748214,15.752210027681263,4.386349923146389,4578,112,1508,2298,133.65110129981474,76.92479699249742,0.0018960282837707,False
0.46,0.7973574459318649,2.800000000000001,6846.0,51.32946,0.2,68900.0,0.33,276.0,2700.0,29.382559486924883,6.554128640306181,17696.14732882669,22.017278092028285,7.716081298702127,7.3652813948965985,1.161952658395946,8258,122,2076,4630,108.07503748949472,62.39646458389231,0.0013215867649923,False
0.4700000000000001,1.0868801985908036,2.800000000000001,6847.0,51.32946,0.3,68900.0,0.33,276.0,2700.0,49.600901170596,11.438765392374288,30884.666559410576,33.96615639584935,15.76949189495309,15.63474477474665,4.330726502578802,4540,112,1472,2298,128.67011105995252,74.08724964456732,0.0018634883330509,False
0.4800000000000001,0.9428406089839894,2.800000000000001,6848.0,51.32946,0.2,68900.0,0.33,276.0,2700.0,38.59287671204641,9.030667067727276,24382.801082863643,27.75817355859895,11.33037730699543,10.83470315344746,2.2997102392681548,10480,142,2578,5927,119.51958663654425,68.92578148725063,0.0015538816203365,False
0.49,1.1024773206860092,2.800000000000001,6849.0,51.32946,0.3,68900.0,0.33,276.0,2700.0,50.15893482614429,12.042535543003895,32514.845966110523,34.66966765831992,16.304744612096698,15.489267167824371,4.262209069092801,4965,114,1552,2561,125.13250507376054,71.95182342503519,0.0018391451271481,False
0.5,0.9753136275436214,2.800000000000001,6850.0,51.32946,0.3,68900.0,0.33,276.0,2700.0,40.31339286610594,9.81654882872722,26504.68183756349,29.112206075757825,12.25368203593538,11.20118679034812,2.437133207208161,4403,100,1294,2326,122.32949433020237,70.52713929892735,0.0015520293042018,False
0.03,0.4983521744881191,2.800000000000001,6853.0,54.34884,0.1,68900.0,0.33,276.0,2700.0,22.8845513981935,0.3432117223051377,926.6716502238718,11.888388958854517,2.7030827337787167,10.996162439338988,2.359871011473579,19037,212,6240,9671,975.3736255708046,556.9146416194427,0.0090047959654908,True
0.04,0.4869862274870232,2.800000000000001,6854.0,54.34884,0.1,68900.0,0.33,276.0,2700.0,21.92220582531973,0.438310075219841,1183.4372030935708,11.547694170118058,2.5698991696151907,10.374511655201674,2.1315890943953497,18430,208,6050,9349,722.1108849558937,412.5966395732774,0.0066765288068641,True
0.05,0.6594460333251128,2.800000000000001,6855.0,54.34884,0.2,68900.0,0.33,276.0,2700.0,32.45569859835257,0.8111306655710182,2190.0527970417493,17.06630647015753,5.026538748177532,15.389392128195038,4.215408082606514,6736,132,2216,3406,685.5037527064006,394.8461406898702,0.0079324053535115,True
0.06,0.5688807564782911,2.800000000000001,6856.0,54.34884,0.2,68900.0,0.33,276.0,2700.0,26.28194911089694,0.78800608398479,2127.616426758933,14.0750686394227,3.617930883272333,12.206880471474236,2.8299247992875425,5432,114,1784,2750,526.2016845184905,301.21451220343585,0.0055577686690696,True
0.0699999999999999,0.7022646595115912,2.800000000000001,6857.0,54.34884,0.2,68900.0,0.33,276.0,2700.0,34.69920876669658,1.2137539293142623,3277.135609148508,18.55231319410197,5.788944507702059,16.14689557259461,4.575190578387796,7239,136,2376,3669,550.6052374916134,314.48931352603427,0.0062923097060666,True
0.08,0.7207529803722197,2.800000000000001,6858.0,54.34884,0.2,68900.0,0.33,276.0,2700.0,35.64020734154584,1.424535963369404,3846.247101097392,19.208187965031986,6.13799540252099,16.432019376513857,4.713459439151586,7546,140,2474,3829,513.2125486590656,293.7893801154859,0.0057546128770986,True
0.09,0.6949031335458655,2.800000000000001,6859.0,54.34884,0.3,68900.0,0.33,276.0,2700.0,33.53369852135975,1.5074896194315484,4070.221972465181,18.293553736945874,5.653324440160983,15.24014478441388,4.145834820729434,3376,92,1106,1711,418.8519584000955,241.18340621327027,0.0049341020602781,True
0.0999999999999999,0.6589514706120381,2.800000000000001,6860.0,54.34884,0.2,68900.0,0.33,276.0,2700.0,30.80907017030856,1.5383591134130352,4153.569606215195,17.049412014746416,5.018102567284691,13.759658155562146,3.479743453871656,6477,128,2132,3273,356.5458850843368,204.69047959754536,0.0041756073608065,True
0.11,0.6875887552522992,2.800000000000001,6861.0,54.34884,0.3,68900.0,0.33,276.0,2700.0,32.39152402274342,1.7787461813696013,4802.614689697924,18.03780047062478,5.520454625444205,14.353723552118636,3.741708444074604,3370,92,1102,1711,340.5929059344584,195.62393415340725,0.0040409445835287,True
0.12,0.4762083691388585,2.800000000000001,6862.0,54.34884,0.2,68900.0,0.33,276.0,2700.0,19.088847850539867,1.1417117562954568,3082.6217419977334,11.227626491203734,2.447167201795233,7.861221359336133,1.305455445499776,3887,96,1276,1967,223.9770585114943,129.31217310390417,0.0023589035871479,False
0.13,0.53565135819968,2.800000000000001,6863.0,54.34884,0.3,68900.0,0.33,276.0,2700.0,22.233669536583925,1.440587133837998,3889.585261362595,13.02924381584618,3.1676777332958386,9.204425720737746,1.7270905994578405,2375,74,780,1199,240.2018059342184,138.23299159060358,0.0025313016734475,False
0.14,0.7991658234998701,2.800000000000001,6864.0,54.34884,0.3,68900.0,0.33,276.0,2700.0,39.14210695072959,2.7342004663901043,7382.341259253281,22.08537331241132,7.755958409060942,17.05673363831827,5.021757942670838,3877,100,1272,1963,310.3290723357776,179.16335476275597,0.0039294045859057,True
0.15,0.6471154348034638,2.800000000000001,6865.0,54.34884,0.3,68900.0,0.33,276.0,2700.0,28.498082621549383,2.130287613145628,5751.776555493196,16.64692241347274,4.818690529610868,11.851160208076642,2.68840291646524,2886,84,940,1470,245.0017087005458,141.45104816296467,0.0028041762484426,False
0.16,0.752778240156071,2.800000000000001,6866.0,54.34884,0.3,68900.0,0.33,276.0,2700.0,35.20896227111504,2.8081383393497994,7581.973516244459,20.364615557498155,6.7715912673251255,14.844346713616886,3.963452927975326,3521,94,1148,1793,260.53371914135323,150.28582294000287,0.0032090201276302,False
0.17,0.7070627695782623,2.800000000000001,6867.0,54.34884,0.3,68900.0,0.33,276.0,2700.0,31.79480177312733,2.692268387577482,7269.124646459201,18.721701112017787,5.878366687986448,13.073100661109546,3.186098300408966,3157,88,1036,1597,233.6532627253495,134.74233577484625,0.0027962824737471,False
0.18,0.8126028370947349,2.800000000000001,6868.0,54.34884,0.3,68900.0,0.33,276.0,2700.0,38.75214434828341,3.475478479108351,9383.791893592548,22.59392398197653,8.05613149043085,16.158220366306875,4.580653011322499,4029,102,1326,2034,247.4451738315452,142.77345197217016,0.0031827742085157,False
0.19,0.5305237765703242,2.800000000000001,6869.0,54.34884,0.1,68900.0,0.33,276.0,2700.0,20.318294397924987,1.915872511795558,5172.855781848007,12.870335596344392,3.101276911850416,7.4479588015805955,1.185404400054858,21954,198,5572,12308,164.12534941479882,94.58632087393846,0.0017969352290297,False
0.2,0.7244516639068221,2.800000000000001,6870.0,54.34884,0.3,68900.0,0.33,276.0,2700.0,32.023440435396296,3.185588882720487,8601.089983345315,19.340430311589717,6.2092848663974864,12.683010123806582,3.0236959836769994,3152,88,1034,1595,202.90104999075388,116.7372169472739,0.0024847943457867,False
0.21,0.6185900078349976,2.800000000000001,6871.0,54.34884,0.3,68900.0,0.33,276.0,2700.0,24.977564323418328,2.603248060915662,7028.769764472288,15.691370742300068,4.357507333057752,9.28619358111826,1.75425927214209,2516,78,826,1271,171.28762755129208,98.89237851094104,0.0019554993945602,False
0.22,0.6561479767894216,2.800000000000001,6872.0,54.34884,0.3,68900.0,0.33,276.0,2700.0,27.017314301967463,2.9496034541661302,7963.929326248552,16.953759760651064,4.97043877242233,10.0635545413164,2.0208353182562,2791,82,910,1420,171.35629027528714,98.73164874758936,0.0020157070455498,False
0.23,0.8774080280825698,2.800000000000001,6873.0,54.34884,0.3,68900.0,0.33,276.0,2700.0,41.76715365078668,4.777740164629648,12899.89844450005,25.11032391756228,9.601302921211625,16.656829733224402,4.823562756581975,4060,104,1336,2050,210.9965452389724,121.81608963900688,0.0028090101647985,False
0.24,0.728238211264943,2.800000000000001,6874.0,54.34884,0.3,68900.0,0.33,276.0,2700.0,31.06123362313924,3.698395116881224,9985.666815579303,19.4761703030788,6.282775200944423,11.585063320060442,2.5843800840631994,3225,88,1056,1635,173.89078998106137,100.0183765773556,0.0021238148323267,False
0.25,0.6299174862755597,2.800000000000001,6875.0,54.34884,0.1,68900.0,0.33,276.0,2700.0,24.56602678481027,3.0380284246263902,8202.676746491254,16.06837331547031,4.537383197007818,8.497653469339959,1.499354772381428,27063,216,6602,15382,151.06766745580458,87.1491516420052,0.001738966873964,False
0.26,0.5802681032960157,2.800000000000001,6876.0,54.34884,0.2,68900.0,0.33,276.0,2700.0,21.36324999895021,2.740411411543868,7399.110811168442,14.439845775367472,3.7802824006139657,6.923404223582736,1.0398709890700983,4620,104,1532,2316,129.87607376749062,74.69432894864319,0.0015201811580571,False
0.27,0.7912170633472047,2.800000000000001,6877.0,54.34884,0.3,68900.0,0.33,276.0,2700.0,34.37027330340595,4.598762917159394,12416.659876330365,21.78667273961845,7.581595275181025,12.583600563787504,2.9828323580216303,3279,92,1080,1653,167.85447393838416,96.72542471204416,0.0021210144608447,False
0.28,0.8899891417095809,2.800000000000001,6878.0,54.34884,0.3,68900.0,0.33,276.0,2700.0,41.01835555640489,5.69659361660895,15380.802764844164,25.61108604182781,9.920364661455856,15.40726951457708,4.223771044846905,3945,102,1298,1992,179.00250071618615,103.34679830745102,0.0023915672652758,False
0.29,0.9306345533607964,2.800000000000001,6879.0,54.34884,0.3,68900.0,0.33,276.0,2700.0,43.684097832536594,6.283113983565516,16964.407755626893,27.256068890826903,10.99462766406182,16.42802894170969,4.711513680496304,4140,106,1360,2094,181.95107123428343,104.99355440971394,0.0024606081960191,False
0.3,0.6968362828699105,2.800000000000001,6880.0,54.34884,0.1,68900.0,0.33,276.0,2700.0,27.321820991841108,4.041724481011551,10912.656098731188,18.36137254371253,5.688754148011616,8.960448448128574,1.6470296670000648,36823,230,7264,22361,142.85074032405882,82.43221898612782,0.0016851048726615,False
0.31,0.920833844886568,2.800000000000001,6881.0,54.34884,0.3,68900.0,0.33,276.0,2700.0,42.29070937101487,6.492665828011915,17530.19773563217,26.855620205221307,10.72946319077804,15.435089165793563,4.236797362766125,4071,104,1346,2046,169.56155799819504,97.8640530379709,0.0022830851127615,False
0.32,0.6359427365496559,2.800000000000001,6882.0,54.34884,0.05,68900.0,0.33,276.0,2700.0,23.082948020372577,3.624642544544392,9786.534870269856,16.270220329785236,4.634806798995411,6.812727690587341,1.0101642544510194,210115,412,24410,140590,161.8221622327115,91.01319233865034,0.0014504710128554,False
0.33,0.6560371685138301,2.800000000000001,6883.0,54.34884,0.1,68900.0,0.33,276.0,2700.0,24.02173676075145,3.888320288729093,10498.464779568549,16.949983157132646,4.968560364780836,7.071753603618806,1.0802400760517434,35110,216,6658,21515,131.15518209830563,75.66192313566452,0.0015137176533306,False
0.34,0.9817339889387676,2.800000000000001,6884.0,54.34884,0.3,68900.0,0.33,276.0,2700.0,45.84814314587541,7.711866229694354,20822.03882017476,29.383054828549263,12.44146183909976,16.465088317326146,4.729595609405405,4422,110,1462,2223,165.68838592376957,95.51661274017292,0.0022862777067676,False
0.3500000000000001,0.6903384438555786,2.800000000000001,6885.0,54.34884,0.1,68900.0,0.33,276.0,2700.0,25.576900430310868,4.3861603852892905,11842.633040281084,18.13378787273414,5.570184884017252,7.443112557576729,1.1840244987279611,37564,222,6942,23137,127.0517231310563,73.29635091389626,0.0014779260748559,False
0.36,1.0489047881744276,2.800000000000001,6886.0,54.34884,0.3,68900.0,0.33,276.0,2700.0,50.36255099408692,8.967543081038393,24212.366318803663,32.27883354670678,14.511766255097523,18.08371744738014,5.544223174059132,4647,114,1538,2334,166.60708318771262,95.9513201105073,0.0023721416928843,False
0.37,0.9997793502279588,2.800000000000001,6887.0,54.34884,0.3,68900.0,0.33,276.0,2700.0,46.21361910991087,8.44343214021147,22797.26677857097,30.149862679113888,12.978596034523273,16.063756430796985,4.535163894311802,4415,110,1458,2222,156.4891528322135,90.19560658634654,0.0021746247711131,False
0.38,0.9846820648695233,2.800000000000001,6888.0,54.34884,0.3,68900.0,0.33,276.0,2700.0,44.74066442321576,8.385802592352471,22641.666999351677,29.507769147166577,12.52826909578939,15.232895276049176,4.14246650343692,4309,108,1428,2161,149.13396171218844,86.0072874884344,0.0020853949567117,False
0.39,0.924086403434298,2.800000000000001,6889.0,54.34884,0.3,68900.0,0.33,276.0,2700.0,39.96892380684746,7.669702719256394,20708.197341992265,26.98824936376756,10.817028287816182,12.9806744430799,3.147325568559788,3789,100,1256,1899,138.36020808138773,79.68479808610181,0.0018817258777198,False
0.4,0.7625474031258598,2.800000000000001,6890.0,54.34884,0.1,68900.0,0.33,276.0,2700.0,28.75250803813984,5.616460321074805,15164.442866901973,20.72250945342044,6.972282724742793,8.029998584719404,1.3558224036679878,44566,234,7634,27853,124.35923501011592,71.78215671209479,0.0014892075731523,False
0.4100000000000001,0.8655671556217158,2.800000000000001,6891.0,54.34884,0.2,68900.0,0.33,276.0,2700.0,35.26545786633554,7.085071057746744,19129.69185591621,24.642659293707236,9.306747033876093,10.622798572628303,2.2216759761293465,9691,136,2404,5469,135.44029393187833,78.19424453765222,0.00168661187614,False
0.42,1.1160354555905978,2.800000000000001,6892.0,54.34884,0.3,68900.0,0.33,276.0,2700.0,53.61944387444517,11.104913669287384,29983.266907075933,35.286177374218695,16.778974784399193,18.333266500226472,5.67406111511181,4933,118,1634,2476,154.10649098616452,88.20846990975157,0.002320575065237,False
0.43,0.971056036405527,2.800000000000001,6893.0,54.34884,0.3,68900.0,0.33,276.0,2700.0,42.13062186036086,8.891564628571613,24007.22449714336,28.933167039341512,12.13011546448474,13.197454821019347,3.238550835913125,4075,104,1358,2028,134.57487486820523,77.20698214768606,0.0018421621305323,False
0.44,1.0360621781746515,2.800000000000001,6894.0,54.34884,0.3,68900.0,0.33,276.0,2700.0,46.66759302648955,10.088461513425443,27238.846086248697,31.716412163601102,14.100837700124242,14.951180862888446,4.012376186698798,4360,110,1448,2180,138.34427054557077,79.66167143806392,0.0019633990949425,False
0.45,0.7907814453605522,2.800000000000001,6895.0,54.34884,0.2,68900.0,0.33,276.0,2700.0,29.22504685883712,6.38478378953277,17238.91623173848,21.770348871049524,7.572108164324849,7.454697987787593,1.1873243747920783,7926,120,1978,4455,114.487490126464,66.06092664766446,0.0014093582628366,False
0.46,1.0369167020967764,2.800000000000001,6896.0,54.34884,0.3,68900.0,0.33,276.0,2700.0,46.08585599504645,10.395886837174135,28068.894460370164,31.75370592874056,14.12795606594237,14.332150066305886,3.732069228768236,4566,110,1450,2339,133.3912417765251,76.72772888785298,0.00189439301599,False
0.4700000000000001,0.8409825373805537,2.800000000000001,6897.0,54.34884,0.2,68900.0,0.33,276.0,2700.0,31.939074294643454,7.288236076525449,19678.23740661871,23.682923620206186,8.712745150941846,8.256150674437272,1.424509074416397,8576,126,2142,4821,118.02950132762078,67.91647178030117,0.0014631407449968,False
0.4800000000000001,1.0833353590699382,2.800000000000001,6898.0,54.34884,0.3,68900.0,0.33,276.0,2700.0,48.99587766947111,11.527387297509204,31123.94570327485,33.80711840480817,15.649369296760012,15.18875926466294,4.121981999250808,4686,112,1488,2398,132.54003653736578,76.32637208029523,0.0019312563426285,False
0.49,1.100922255661599,2.800000000000001,6899.0,54.34884,0.3,68900.0,0.33,276.0,2700.0,50.03725368463186,12.012723663333349,32434.35389100004,34.59925174108487,16.25088578305432,15.438001943546992,4.23816211972097,4966,114,1552,2560,140.10515146964178,80.7752195492972,0.0019435639635315,False
0.5,1.1673539465530638,2.800000000000001,6900.0,54.34884,0.3,68900.0,0.33,276.0,2700.0,54.99882682669146,13.487907318873708,36417.34976095901,37.66154796683686,18.650475315086695,17.337278859854607,5.162567996212991,5350,120,1676,2752,140.56991407060116,80.99114964030471,0.0020610059298137,False
0.05,0.4018993365671596,2.800000000000001,6905.0,57.36822,0.1,68900.0,0.33,276.0,2700.0,16.84741090854436,0.4209234733258097,1136.493377979686,9.100341263155205,1.6927507692322747,7.747069645389159,1.2718272959064651,14227,180,4666,7222,482.9013367635622,276.5343082214024,0.0045517819666608,True
0.06,0.7523351863724158,2.800000000000001,6906.0,57.36822,0.2,68900.0,0.33,276.0,2700.0,38.55205129274223,1.15610914944015,3121.4947034884053,20.34844111175908,6.762572230606524,18.203610180983148,5.606463081166374,7853,144,2578,3980,705.4165622808655,402.98618698733793,0.0083743796389745,True
0.0699999999999999,0.4111877549753943,2.800000000000001,6907.0,57.36822,0.1,68900.0,0.33,276.0,2700.0,16.82398475232951,0.5881210888114121,1587.9269397908126,9.358656568740672,1.778476538506567,7.465328183588836,1.190355449695155,14015,178,4596,7115,338.2767319380652,194.4365750932872,0.0034265601565837,True
0.08,0.6885098376359211,2.800000000000001,6908.0,57.36822,0.2,68900.0,0.33,276.0,2700.0,33.42852584686302,1.3360687035820933,3607.385499671652,18.069932875178893,5.537083722356231,15.358592971684123,4.201015018774138,6957,134,2280,3531,515.3453850108453,295.0990351629487,0.0057274827635984,True
0.09,0.7189987528532709,2.800000000000001,6909.0,57.36822,0.2,68900.0,0.33,276.0,2700.0,35.18326344495752,1.5817200409934442,4270.6441106823,19.145587702160693,6.104354789461678,16.037675742796825,4.522634748468234,7193,136,2352,3659,459.1376591686419,262.8833358200995,0.0054339741369593,True
0.0999999999999999,0.4031339936735483,2.800000000000001,6910.0,57.36822,0.08,68900.0,0.33,276.0,2700.0,15.622290996564107,0.7790201547258128,2103.3544177596946,9.134552705390254,1.7040076860017013,6.487738291173855,0.9249875312758884,20033,210,6600,10127,232.7077071203032,134.26516760753526,0.0024176100370969,False
0.11,0.5441284338425978,2.800000000000001,6911.0,57.36822,0.1,68900.0,0.33,276.0,2700.0,23.299343750515483,1.2786762663970657,3452.4259192720774,13.293405022108985,3.2792460001148034,10.005938728406498,2.0005697337177377,19305,214,6354,9768,280.2973155624577,161.3786191459714,0.0031664030003605,True
0.12,0.7471497560927618,2.800000000000001,6912.0,57.36822,0.3,68900.0,0.33,276.0,2700.0,36.13546441967657,2.1645087504436646,5844.173626197895,20.15950476175984,6.657546958077238,15.975959657916736,4.493038207633573,3622,96,1190,1831,360.5367620861233,208.0276457229163,0.0044277594783046,True
0.13,0.4931880994801544,2.800000000000001,6913.0,57.36822,0.1,68900.0,0.33,276.0,2700.0,19.78030647415616,1.28111853478019,3459.0200439065134,11.733193108579105,2.642091211404423,8.047113365577054,1.360972676624233,16139,192,5334,8132,219.2195948750021,126.45136600353514,0.0024148912007018,False
0.14,0.4930271148368681,2.800000000000001,6914.0,57.36822,0.2,68900.0,0.33,276.0,2700.0,19.505266643479857,1.3596216448826235,3670.978441183084,11.72836581264197,2.6402027360662244,7.776900830837887,1.2805810911836006,4142,98,1362,2093,209.2574892010429,120.80523638084443,0.002260324632967,False
0.15,0.5374771673794096,2.800000000000001,6915.0,57.36822,0.2,68900.0,0.33,276.0,2700.0,21.7895378638128,1.627146756315383,4393.296242051534,13.085986769309416,3.1915184344149123,8.703551094503382,1.5643716780995294,4619,106,1516,2339,214.1397207695441,123.44604172971644,0.0023519296835241,False
0.16,0.7234958375313051,2.800000000000001,6916.0,57.36822,0.3,68900.0,0.33,276.0,2700.0,33.20992838283341,2.648215628287274,7150.18219637564,19.306222849539477,6.190815123017976,13.903705533293936,3.542599494730702,3267,90,1072,1653,264.9319792100235,152.73589125942644,0.0032168496942286,False
0.18,0.7608144449074874,2.800000000000001,6918.0,57.36822,0.3,68900.0,0.33,276.0,2700.0,35.11627638383227,3.148250362307746,8500.275978230915,20.65884741639655,6.936426654405226,14.45742896743572,3.78817629209748,3521,94,1146,1796,247.0731943924152,142.34802004325397,0.0030780939690589,False
0.19,0.7286012401497507,2.800000000000001,6919.0,57.36822,0.3,68900.0,0.33,276.0,2700.0,32.61016572962544,3.0836002883071,8325.72077842917,19.489203077555963,6.289847978866462,13.12096265206948,3.206247690559361,3373,90,1106,1708,226.3039358126704,130.65407993297646,0.0027698494705129,False
0.2,0.5174804813953502,2.800000000000001,6920.0,57.36822,0.1,68900.0,0.33,276.0,2700.0,19.32111215309734,1.9153560544905883,5171.461347124588,12.469090853253965,2.936026749989749,6.852021299843376,1.0206706954991602,21191,190,5256,11959,163.1804009287143,94.18636250579588,0.0017695554414326,False
0.21,0.5747066051001868,2.800000000000001,6921.0,57.36822,0.2,68900.0,0.33,276.0,2700.0,22.34900216706589,2.3272490344986547,6283.572393146368,14.261284092581038,3.700472119899448,8.087718074484853,1.3732230854007934,4807,106,1588,2419,165.09992338117124,95.31097777394494,0.0018952061313223,False
0.22,0.5561060734163834,2.800000000000001,6922.0,57.36822,0.2,68900.0,0.33,276.0,2700.0,21.002404707956234,2.287963398824849,6177.501176827092,13.66972896400006,3.440719751526321,7.332675743956175,1.1527563527014717,4405,102,1458,2212,153.37880983422284,88.54007890051992,0.0017551596360106,False
0.23,0.7545177401703997,2.800000000000001,6923.0,57.36822,0.3,68900.0,0.33,276.0,2700.0,33.11321032537399,3.782536682207193,10212.84904195942,20.428166727209724,6.80707077898568,12.685043598164269,3.024534096778487,3147,88,1032,1593,196.12653990424243,113.04470159903104,0.0024350458909909,False
0.24,0.641429181146097,2.800000000000001,6924.0,57.36822,0.2,68900.0,0.33,276.0,2700.0,25.542134596936258,3.0361032337368683,8197.478731089544,16.454810923142162,4.724578488553535,9.087323673794096,1.6884752548166664,5481,116,1818,2748,161.10799075892675,92.69944452797802,0.0019273577558714,False
0.25,0.6571910429210722,2.800000000000001,6925.0,57.36822,0.3,68900.0,0.33,276.0,2700.0,26.23656534882906,3.246845745128738,8766.483511847591,16.989325002674516,4.988141211105708,9.247240346154545,1.74129546597697,2697,80,888,1359,161.16657861620664,93.02628731488991,0.0020206657572041,False
0.26,0.8181225546274304,2.800000000000001,6926.0,57.36822,0.3,68900.0,0.33,276.0,2700.0,36.53758277117352,4.713074671932894,12725.301614218812,22.80414363028259,8.18142339308971,13.73343914089093,3.4683487211568167,3660,96,1210,1839,188.3749804774785,108.54226609693636,0.0024208354696721,False
0.27,0.6119806896390678,2.800000000000001,6927.0,57.36822,0.1,68900.0,0.33,276.0,2700.0,22.95897384112789,3.058237489751862,8257.241222330027,15.472888319590064,4.254520685501706,7.4860855215378255,1.1962831957498443,27410,210,6334,15887,147.81337482951113,85.29006890469684,0.0016704325387301,False
0.28,0.8220554123395942,2.800000000000001,6928.0,57.36822,0.3,68900.0,0.33,276.0,2700.0,36.183033584973934,5.019648540608616,13553.051059643263,22.95439453837826,8.271404175552616,13.228639046595674,3.2517556349440007,3712,96,1222,1873,177.22362801443427,102.28386471004497,0.002278908158069,False
0.29,0.6117163491834494,2.800000000000001,6929.0,57.36822,0.1,68900.0,0.33,276.0,2700.0,22.424739618342223,3.2005070425073554,8641.36901476986,15.464172922415797,4.250431727108289,6.960566695926428,1.0499246846009336,29745,208,6202,17784,494.7850642811179,278.79086012964706,0.0015795122256186,True
0.3,0.7523542484207562,2.800000000000001,6930.0,57.36822,0.3,68900.0,0.33,276.0,2700.0,30.87875411246735,4.5752644491054895,12353.214012584822,20.349136903285803,6.7629601202062375,10.529617209181549,2.187695671100748,3165,86,1034,1608,156.25149667895133,90.19996629109664,0.0019211167919861,False
0.31,0.978736584133996,2.800000000000001,6931.0,57.36822,0.3,68900.0,0.33,276.0,2700.0,46.64129537608667,7.167006658798041,19350.91797875471,29.25647766485783,12.353578687279157,17.384817711228838,5.186572028481114,4361,110,1440,2195,187.85891422176576,108.45261474455302,0.0026122490000542,False
0.32,0.7998473510764743,2.800000000000001,6932.0,57.36822,0.3,68900.0,0.33,276.0,2700.0,33.4464239271099,5.282798689622359,14263.556461980368,22.111057845249142,7.771018951708669,11.335366081860752,2.48822026208631,3429,92,1130,1728,154.54609387524164,88.9133914127111,0.0019553390134856,False
0.33,0.7651616714007837,2.800000000000001,6933.0,57.36822,0.3,68900.0,0.33,276.0,2700.0,30.85409344957241,5.015659142384745,13542.279684438812,20.818690153850486,7.026582607440121,10.035403295721924,2.010923465055376,3196,88,1056,1606,144.14004899529542,83.21884611264885,0.0018160867823902,False
0.34,0.8132418882112733,2.800000000000001,6934.0,57.36822,0.3,68900.0,0.33,276.0,2700.0,33.75826711131001,5.656587303818244,15272.785720309255,22.618223188933133,8.070577926449582,11.14004392237688,2.4139906226313386,3537,92,1170,1776,149.9489825347705,86.19800722107942,0.0019024485002136,False
0.3500000000000001,0.7436555683580779,2.800000000000001,6935.0,57.36822,0.1,68900.0,0.33,276.0,2700.0,28.90546605170505,4.968659369033277,13415.380296389849,20.032571644737857,6.587327717222274,8.872894406967195,1.6186683481889963,42349,238,7798,26114,141.28894488762523,81.51709375385194,0.0016964466442261,False
0.36,0.8901386012305148,2.800000000000001,6936.0,57.36822,0.3,68900.0,0.33,276.0,2700.0,38.4754842027476,6.827871058597313,18435.251858212745,25.61705884241741,9.924192928445231,12.858425360330184,3.0963218698479187,3664,98,1214,1837,151.30884738365376,87.27129997844736,0.0020266324225073,False
0.37,1.0662072214433669,2.800000000000001,6937.0,57.36822,0.3,68900.0,0.33,276.0,2700.0,51.38241357578701,9.399659116399071,25379.079614277496,33.04312009411413,15.076869778269536,18.339293481672883,5.677210661870463,4823,116,1598,2420,174.64088793059267,100.74873200391616,0.0024984212278724,False
0.38,1.0377512336435752,2.800000000000001,6938.0,57.36822,0.3,68900.0,0.33,276.0,2700.0,48.79858189824878,9.156806912608715,24723.37866404353,31.7901448850272,14.154470738780024,17.008437013221577,4.99766382617131,4499,112,1490,2258,167.53424334956392,96.61278775458892,0.002354330065924,False
0.39,0.9092513946071552,2.800000000000001,6939.0,57.36822,0.3,68900.0,0.33,276.0,2700.0,38.90880112355516,7.462978796014159,20150.04274923823,26.38548335671547,10.42113522768236,12.52331776683969,2.9581564316682023,3578,98,1190,1787,145.53139896980215,83.89154254533558,0.0019442693426412,False
0.4,0.7049747417295855,2.800000000000001,6940.0,57.36822,0.1,68900.0,0.33,276.0,2700.0,25.18210515466685,4.902379744380204,13236.425309826553,18.647916251539705,5.839352306177515,6.534188903127145,0.9369725617973108,40204,220,6900,25124,125.01344845938428,71.91329426015128,0.0014412614505552,False
0.4100000000000001,0.9045972640716272,2.800000000000001,6941.0,57.36822,0.3,68900.0,0.33,276.0,2700.0,37.97299593074904,7.640116360951515,20628.31417456909,26.19751971715307,10.29877135869604,11.775476213595972,2.658654997744525,3579,96,1186,1794,137.39152037956708,79.22690484408463,0.0018484193936873,False
0.42,0.7946043600774931,2.800000000000001,6942.0,57.36822,0.2,68900.0,0.33,276.0,2700.0,30.26757041997103,6.201020243847807,16742.754658389076,21.913767292238813,7.6556083725981985,8.353803127732217,1.454588128750392,8071,122,2016,4535,129.95098615145687,75.00610137623838,0.0015808501692337,False
0.43,0.7419267751063636,2.800000000000001,6943.0,57.36822,0.05,68900.0,0.33,276.0,2700.0,26.680272465303275,5.56973950863423,15038.29667331242,19.96988335889848,6.552749740912638,6.710389106404797,0.9830102322784082,310774,448,28488,213844,162.63053581110623,92.4489020685542,0.0014472601807464,False
0.44,1.009665353240682,2.800000000000001,6944.0,57.36822,0.3,68900.0,0.33,276.0,2700.0,44.6735195304456,9.649765344295773,26054.36642959858,30.573422010107585,13.278749298630917,14.100097520338018,3.628983954335146,4118,106,1380,2042,144.01044728047916,82.85642945411925,0.0020024479886565,False
0.45,0.8697120675942556,2.800000000000001,6945.0,57.36822,0.2,68900.0,0.33,276.0,2700.0,34.403594840110884,7.549957085319369,20384.884130362298,24.80596501500122,9.409226982193909,9.597629825109664,1.8592698968745396,9190,134,2302,5159,131.85764504864872,76.12251986144398,0.0016589526195157,False
0.46,1.0398242027422648,2.800000000000001,6946.0,57.36822,0.3,68900.0,0.33,276.0,2700.0,46.30629969494526,10.446588888150869,28205.78999800734,31.88073467479942,14.220464603029836,14.42556502014584,3.7738757148789706,4554,110,1454,2323,139.59948106348676,80.37865802167752,0.0020062015773752,False
0.4700000000000001,1.0901005617545674,2.800000000000001,6947.0,57.36822,0.3,68900.0,0.33,276.0,2700.0,49.85236948686319,11.497860446696222,31044.2232060798,34.1109106441859,15.879108264502309,15.74145884267729,4.381247817806086,4608,112,1496,2330,144.62222771854678,83.16065728814478,0.002091212770584,False
0.4800000000000001,0.8933130284733948,2.800000000000001,6948.0,57.36822,0.08,68900.0,0.33,276.0,2700.0,35.16211625869572,8.20728455892311,22159.6683090924,25.744050004405864,10.005713913022262,9.418066254289856,1.7984293540991525,120466,332,14790,79963,149.72594787537662,84.35060388214521,0.0016380609772131,False
0.49,1.0354888673706883,2.800000000000001,6949.0,57.36822,0.3,68900.0,0.33,276.0,2700.0,45.02736839839165,10.7853017682045,29120.31477415215,31.691401596134508,14.082661508176832,13.335966802257136,3.2973597399723324,4281,106,1370,2180,133.66510294703488,76.86856664322953,0.0018875154015897,False
0.5,1.0786874741020251,2.800000000000001,6950.0,57.36822,0.3,68900.0,0.33,276.0,2700.0,47.98808900013784,11.735222862235284,31685.101728035268,33.599071176616235,15.492721399403123,14.389017823521606,3.757498537167841,5012,112,1494,2641,146.3021544879931,84.38770540258955,0.0019676398728009,False
0.04,0.5001379634931842,2.800000000000001,6954.0,60.3876,0.1,68900.0,0.33,276.0,2700.0,22.698022325486413,0.4538264052231777,1225.3312941025797,11.942213203756427,2.7243609355142637,10.755809121729984,2.2705345302910858,18621,210,6120,9435,860.106498971959,491.3715887374966,0.0076652724368917,True
0.05,0.6180468530263195,2.800000000000001,6955.0,60.3876,0.2,68900.0,0.33,276.0,2700.0,29.721858238193537,0.7427846565670385,2005.518572731004,15.673374417939748,4.3489893773149815,14.04848382025379,3.606204720747943,6251,124,2056,3161,793.3715570823081,454.4065643958625,0.0081227137501792,True
0.06,0.5812500525819401,2.800000000000001,6956.0,60.3876,0.1,68900.0,0.33,276.0,2700.0,27.056066828278816,0.8112296155062473,2190.319961866868,14.471453727658272,3.794477113582023,12.584613100620544,2.9832474980757757,22600,234,7416,11470,634.0882825958454,362.7294151819104,0.006333744703263,True
0.0699999999999999,0.7613671562482329,2.800000000000001,6957.0,60.3876,0.2,68900.0,0.33,276.0,2700.0,38.84889113450063,1.3589928121873995,3669.280592905978,20.67914364947985,6.947850642284466,18.16974748502077,5.588857830097067,7827,144,2572,3963,656.958303960129,375.1904458493023,0.0077645804613759,True
0.08,0.6138371258158802,2.800000000000001,6958.0,60.3876,0.2,68900.0,0.33,276.0,2700.0,28.5070887795661,1.1392112208902208,3075.870296403596,15.534145143809646,4.283301961430439,12.972943635756454,3.1440907405402183,6100,122,2000,3094,467.1795253400758,267.6760848480924,0.0052075068118033,True
0.09,0.710442584363028,2.800000000000001,6959.0,60.3876,0.3,68900.0,0.33,276.0,2700.0,34.5941740658906,1.5552110189354336,4199.06975112567,18.84136621404138,5.941844712280135,15.75280785184922,4.386633693344701,3349,92,1096,1699,481.4222259943483,277.8294066869544,0.0056432727086242,True
0.0999999999999999,0.4602183565695021,2.800000000000001,6960.0,60.3876,0.1,68900.0,0.33,276.0,2700.0,18.726023453350805,0.934206777565148,2522.3582994259,10.758153259827118,2.27139931709982,7.967870193523687,1.3371925395346718,15514,188,5106,7849,274.76239072728487,158.52916220450734,0.0029703536719328,False
0.11,0.4827580663153226,2.800000000000001,6961.0,60.3876,0.2,68900.0,0.33,276.0,2700.0,19.72576511647771,1.0821294415249878,2921.749492117467,11.421783398950506,2.5213400013310734,8.303981717527204,1.4392105598060856,4201,98,1378,2128,272.17621860190445,157.14076176633608,0.0028843011585779,False
0.12,0.6605098654437741,2.800000000000001,6962.0,60.3876,0.3,68900.0,0.33,276.0,2700.0,30.28309109873803,1.8133663511873477,4896.089148205838,17.10266822418464,5.044713772026707,13.18042287455339,3.23134742083936,3049,86,1006,1534,344.4267381765595,197.3711888773132,0.0039286602846483,True
0.13,0.4677230828856232,2.800000000000001,6963.0,60.3876,0.1,68900.0,0.33,276.0,2700.0,18.35251066269794,1.188311807035409,3208.4418789956044,10.9776948341404,2.35295922745242,7.3748158285575425,1.1646474204170107,15326,188,5066,7721,221.15043309293551,127.61313385688186,0.0023891482685533,False
0.14,0.7275343064735879,2.800000000000001,6964.0,60.3876,0.3,68900.0,0.33,276.0,2700.0,34.125220791131525,2.383018435218242,6434.149775089255,19.450909485925347,6.269074722686418,14.674311305206178,3.886056287468176,3534,94,1152,1800,320.2040083714529,184.79251763376183,0.003861300638947,True
0.15,0.705385433155516,2.800000000000001,6965.0,60.3876,0.3,68900.0,0.33,276.0,2700.0,32.309405558585944,2.41613683342315,6523.569450242505,18.6624202412393,5.847013823680672,13.646985317346644,3.430876990257522,3080,88,1012,1556,290.0574343510228,167.37571438234016,0.0034775269617565,True
0.16,0.510962069106744,2.800000000000001,6966.0,60.3876,0.2,68900.0,0.33,276.0,2700.0,19.99247239965156,1.5908191496327215,4295.2117040083485,12.270170361614234,2.8553969779076565,7.7223020380373235,1.264577828274935,4431,102,1460,2235,199.5682284841559,115.13447389587506,0.0022036591931933,False
0.17,0.5597887227989097,2.800000000000001,6967.0,60.3876,0.2,68900.0,0.33,276.0,2700.0,22.55295439230853,1.9067113602081676,5148.120672562051,13.786158378478596,3.4912748502085877,8.766796013829932,1.58456349000042,4821,108,1584,2439,206.46874694447132,118.96198310085276,0.0023283271719904,False
0.18,0.5246638228428564,2.800000000000001,6968.0,60.3876,0.1,68900.0,0.33,276.0,2700.0,20.245981060185784,1.809923783179565,4886.794214584826,12.6895396317917,3.026387490237312,7.556441428394084,1.2164637070577464,19397,196,5498,10456,189.97249376540705,109.61926171538084,0.0020602128301428,False
0.19,0.4967901500786779,2.800000000000001,6969.0,60.3876,0.08,68900.0,0.33,276.0,2700.0,18.421458248700056,1.73567307761919,4686.317309571813,11.841374763726453,2.6845495066784344,6.580083484973603,0.9488764290592444,32316,234,7936,18330,172.68231465038207,99.68545816861872,0.0018576265185199,False
0.2,0.7119650364876486,2.800000000000001,6970.0,60.3876,0.3,68900.0,0.33,276.0,2700.0,31.19607177389003,3.1028520165698543,8377.700444738606,18.895363663262025,5.970570887178333,12.300708110628005,2.867718870608478,2945,86,966,1490,224.451499746018,129.52102203072369,0.0027043361598072,False
0.21,0.652335860177685,2.800000000000001,6971.0,60.3876,0.3,68900.0,0.33,276.0,2700.0,27.06473898114303,2.82240139997676,7620.483779937252,16.824011277481908,4.906056487407862,10.240727703661122,2.083655087431102,2740,82,896,1390,200.39932995393391,115.60763076309289,0.0023172615827496,False
0.22,0.5729011717677139,2.800000000000001,6972.0,60.3876,0.1,68900.0,0.33,276.0,2700.0,21.977052507727016,2.3951746567996897,6466.971573359162,14.203484618570752,3.674776511108783,7.773567889156265,1.2796018543090932,23831,204,5904,13455,171.65518828276598,99.07494634678784,0.0019275768022682,False
0.23,0.6879175465260473,2.800000000000001,6973.0,60.3876,0.1,68900.0,0.33,276.0,2700.0,28.740397452653788,3.279663201844369,8855.090644979797,18.04926806609533,5.526387181984775,10.691129386558458,2.246723980140405,31694,240,7800,17958,191.77191628623453,110.61583588599304,0.0023006248476341,False
0.24,0.8683031821611766,2.800000000000001,6974.0,60.3876,0.3,68900.0,0.33,276.0,2700.0,40.76485658435794,4.862829872227468,13129.640655014162,24.75040778393732,9.374317362174724,16.014448800420627,4.511487489947256,4064,104,1338,2051,225.21174000670663,129.99891157279413,0.0029604796995717,False
0.25,0.9028912940414906,2.800000000000001,6975.0,60.3876,0.3,68900.0,0.33,276.0,2700.0,42.97165124218375,5.33873148179808,14414.575000854817,26.12875805325693,10.254137838262132,16.842893188926812,4.915406356464052,4039,104,1336,2029,221.9755411708015,128.12906598412562,0.003000656333011,False
0.26,0.7594818327265712,2.800000000000001,6976.0,60.3876,0.3,68900.0,0.33,276.0,2700.0,32.53237174801689,4.192397238922529,11319.472545090826,20.609943847134325,6.908929012396931,11.922427900882568,2.7165317734744026,3123,88,1026,1578,189.84349138676492,109.52503017669564,0.0023162406231615,False
0.27,0.7772521166912312,2.800000000000001,6977.0,60.3876,0.3,68900.0,0.33,276.0,2700.0,33.42317163204252,4.470904191525336,12071.441317118408,21.265739956208787,7.280988655786773,12.157431675833733,2.810084464261437,3379,92,1116,1699,182.6879148817908,105.18759396011612,0.0023039309598464,False
0.28,0.6642167099243255,2.800000000000001,6978.0,60.3876,0.2,68900.0,0.33,276.0,2700.0,25.84416249677405,3.5722065882606358,9644.957788303716,17.229590297363178,5.10834583685223,8.614572199410873,1.5361392485915948,5356,116,1766,2693,151.95921568624638,87.52190434673184,0.00185625725846,False
0.29,0.698561603763707,2.800000000000001,6979.0,60.3876,0.3,68900.0,0.33,276.0,2700.0,27.707381825875,3.966490162599606,10709.523439018936,18.421979626176807,5.720485680276474,9.28540219969819,1.7539955176768682,2805,82,924,1413,160.04404029649862,92.26449956355506,0.0019079523913407,False
0.3,0.9722256017664896,2.800000000000001,6980.0,60.3876,0.3,68900.0,0.33,276.0,2700.0,46.48729713925028,6.916545903122925,18674.673938431897,28.98230389076423,12.163983425465911,17.504993248486052,5.247437522342988,4555,112,1506,2290,203.23037414503523,117.2435406434786,0.0028081579983721,False
0.31,0.7922119200154198,2.800000000000001,6981.0,60.3876,0.3,68900.0,0.33,276.0,2700.0,33.22952321419051,5.088181973704129,13738.091329001149,21.823970785919556,7.603288442877051,11.405552428270957,2.515106469172921,3406,92,1120,1720,166.57284290478168,96.12506000415286,0.0020901343604692,False
0.32,0.9457539594041564,2.800000000000001,6982.0,60.3876,0.3,68900.0,0.33,276.0,2700.0,43.80799726411742,6.940650423543561,18739.75614356761,27.87856979865844,11.411421920024813,15.929427465458978,4.470771496481252,4184,106,1376,2114,187.63394199649468,108.24251682416454,0.0025569391106387,False
0.33,0.9087145665898766,2.800000000000001,6983.0,60.3876,0.3,68900.0,0.33,276.0,2700.0,40.753663525173145,6.649088204858859,17952.53815311892,26.363775023275284,10.406976588111618,14.38988850189786,3.75788838325276,4035,104,1336,2025,176.4561903355025,101.86669813127556,0.0023595893859042,False
0.34,1.0366781598087282,2.800000000000001,6984.0,60.3876,0.3,68900.0,0.33,276.0,2700.0,50.09911518163014,8.434531475772655,22773.234984586168,31.743293443271828,14.1203827062136,18.355821738358312,5.685851230440944,4635,114,1530,2334,192.37500649650516,110.87575701793688,0.002729090351361,False
0.3500000000000001,0.8699802677616837,2.800000000000001,6985.0,60.3876,0.3,68900.0,0.33,276.0,2700.0,37.36220612604173,6.448588882042195,17411.189981513926,24.816546728564823,9.415881365132416,12.545659397476904,2.9672924830902208,3495,96,1158,1752,162.71136954730608,93.67071430108176,0.0021196424002153,False
0.36,0.8015788576614911,2.800000000000001,6986.0,60.3876,0.3,68900.0,0.33,276.0,2700.0,32.39536647689556,5.733449867943946,15480.314643448655,22.176365138179044,7.809360923100741,10.219001338716517,2.0759110551567943,3228,90,1062,1629,147.48075857906858,85.10639757990685,0.0018749732920675,False
0.37,0.992907387960596,2.800000000000001,6987.0,60.3876,0.3,68900.0,0.33,276.0,2700.0,45.69156710681459,8.346852519639175,22536.50180302577,29.85688509642725,12.77241466094704,15.834682010387336,4.425562141307864,4450,110,1468,2242,195.13264478552716,112.65564540738092,0.0023948613784313,False
0.38,0.7390192365907462,2.800000000000001,6988.0,60.3876,0.1,68900.0,0.33,276.0,2700.0,27.80055791883373,5.16718235651989,13951.392362603705,19.864621639372917,6.49483961362571,7.935936279460819,1.3276572571058196,42997,232,7610,26684,139.71956894147712,80.66422077425995,0.0016630743813583,False
0.39,0.7982972848027515,2.800000000000001,6989.0,60.3876,0.3,68900.0,0.33,276.0,2700.0,31.330696699867836,5.985248433395364,16160.170770167484,22.05265786352648,7.736790616387708,9.278038836341352,1.7515421829923437,3146,88,1044,1572,134.39105118911715,77.24882059633967,0.0017525010156866,False
0.4,0.7668762438709711,2.800000000000001,6990.0,60.3876,0.1,68900.0,0.33,276.0,2700.0,29.027698288145352,5.671498371075908,15313.04560190495,20.881863705276636,7.062331907702683,8.14583458286872,1.3908335366267757,46489,240,7950,29058,138.67420553895928,79.96385235039432,0.0016660213132227,False
0.4100000000000001,0.7524022814067448,2.800000000000001,6991.0,60.3876,0.2,68900.0,0.33,276.0,2700.0,27.848018544267948,5.564495996722881,15024.13919115178,20.350890215209237,6.763937592122167,7.497128329058714,1.1994415953992856,7491,116,1854,4226,133.06971971464085,76.8177377816728,0.0015883680206178,False
0.42,0.8024434409253034,2.800000000000001,6992.0,60.3876,0.2,68900.0,0.33,276.0,2700.0,30.77529416811923,6.307642230958928,17030.634023589104,22.20900286030091,7.828548344911998,8.566291307818322,1.5209061139530702,8461,126,2142,4726,138.65845754726786,79.97063851481623,0.0016791629699022,False
0.43,0.9806991660044756,2.800000000000001,6993.0,60.3876,0.3,68900.0,0.33,276.0,2700.0,42.83873342826799,9.043808615671637,24418.28326231342,29.339329853676823,12.411078206207929,13.499403574591163,3.3672695905362904,4035,104,1346,2010,149.04786564070108,85.70254361597935,0.0020721836383474,False
0.44,1.1169259092607415,2.800000000000001,6994.0,60.3876,0.3,68900.0,0.33,276.0,2700.0,52.99420347757007,11.480315812663148,30996.8526941905,35.32682937933995,16.810413588432247,17.66737409823012,5.330097775769099,4910,118,1634,2453,163.47300186162423,94.14098450138296,0.0024039649793553,False
0.45,0.8389368406700219,2.800000000000001,6995.0,60.3876,0.2,68900.0,0.33,276.0,2700.0,32.34722079669946,7.087272925551801,19135.636898989866,23.6037481850236,8.664378074389958,8.743472611675863,1.5771051488381571,8891,130,2220,5003,135.14301032739206,78.01690517497985,0.0016792011095347,False
0.46,1.028278043737896,2.800000000000001,6996.0,60.3876,0.3,68900.0,0.33,276.0,2700.0,45.43338865204528,10.24581934828387,27663.71224036645,31.377536229267665,13.855272799753138,14.05585242277762,3.609453451469268,4160,106,1388,2070,148.5525721369619,85.41177691000512,0.0020774145374309,False
0.4700000000000001,1.061214562857284,2.800000000000001,6997.0,60.3876,0.3,68900.0,0.33,276.0,2700.0,47.615382973906016,10.972168616151787,29624.855263609832,32.82181106888431,14.912449481871432,14.793571905021707,3.940280865719643,4787,112,1516,2451,158.3233073043286,91.2858109126936,0.0021278014146886,False
0.4800000000000001,1.0536144123631697,2.800000000000001,6998.0,60.3876,0.3,68900.0,0.33,276.0,2700.0,46.712431375514086,10.97936018695952,29644.272504790708,32.48612273079276,14.664275338646275,14.226308644721328,3.684915151686756,4647,110,1504,2355,156.1007258043484,89.99760009935784,0.0020513509296129,False
0.49,0.999239449885648,2.800000000000001,6999.0,60.3876,0.3,68900.0,0.33,276.0,2700.0,42.34458182378652,10.128019057426249,27345.651455050865,30.126801737642843,12.962324338976602,12.217780086143676,2.834305281550355,4066,102,1306,2065,150.3327097032768,86.76717730037487,0.0019076874974852,False
0.5,1.042785825798087,2.800000000000001,7000.0,60.3876,0.3,68900.0,0.33,276.0,2700.0,45.26179298531366,11.053648858529238,29844.85191802894,32.01034646007731,14.315075198099,13.251446525236354,3.2614263395697627,4373,106,1384,2243,150.84293510529182,87.02140505132553,0.0019746612940853,False
0.03,0.4668596350334286,2.800000000000001,7003.0,63.40698,0.1,68900.0,0.33,276.0,2700.0,21.036245624769823,0.3154871357037834,851.8152664002151,10.952363664471427,2.343491497846093,10.083881960298395,2.02800436214231,17493,202,5756,8853,982.9693658633032,560.3239239918611,0.0096961232606579,True
0.04,0.3971958180581632,2.800000000000001,7004.0,63.40698,0.05,68900.0,0.33,276.0,2700.0,16.85780705044661,0.3370220997223787,909.9596692504224,8.970361200181571,1.6502530454139408,7.887445850265038,1.313230945691562,55305,352,18148,28077,703.5895225817674,402.7780153042975,0.0061001200949068,True
0.05,0.5558454731879818,2.800000000000001,7005.0,63.40698,0.2,68900.0,0.33,276.0,2700.0,25.77627961640292,0.6441451910222746,1739.1920157601414,13.66150282745578,3.437158488939672,12.114776788947136,2.7930132979173967,5346,114,1766,2691,695.7398517761092,397.85657310915786,0.0074636230120379,True
0.06,0.4557323237614978,2.800000000000001,7006.0,63.40698,0.1,68900.0,0.33,276.0,2700.0,19.557627294356752,0.5862764294885858,1582.9463596191815,10.627595822755424,2.223430920175868,8.930031471601328,1.637154490687282,16416,194,5384,8334,507.0802383668121,290.6441748667921,0.0049366044519939,True
0.0699999999999999,0.7339535461333344,2.800000000000001,7007.0,63.40698,0.2,68900.0,0.33,276.0,2700.0,36.90230402435554,1.2908622633323217,3485.328110997268,19.68173582348662,6.394675083067389,17.220568200868925,5.103812819735067,7683,142,2526,3888,665.3279632712571,380.3275831475265,0.0077714270848687,True
0.08,0.7387900320406606,2.800000000000001,7008.0,63.40698,0.2,68900.0,0.33,276.0,2700.0,36.90023131455172,1.474936922289636,3982.329690182017,19.856332773619396,6.490287501908328,17.043898540932325,5.015350579618692,7688,142,2532,3884,618.6311243020148,353.88229334090653,0.0069307715418786,True
0.09,0.404157804254892,2.800000000000001,7009.0,63.40698,0.08,68900.0,0.33,276.0,2700.0,15.9301430920199,0.7153296251112519,1931.38998780038,9.162950801672157,1.7133742726054613,6.767192290347742,0.9980446474942094,20603,214,6782,10424,282.73618030193364,163.115549847466,0.0029473901215648,True
0.0999999999999999,0.781579848490355,2.800000000000001,7010.0,63.40698,0.3,68900.0,0.33,276.0,2700.0,39.25535285955453,1.9606732478753324,5293.817769263397,21.42665272379506,7.3733690987160445,17.82870013575947,5.412695850840712,3979,102,1312,2005,491.2134115222652,283.6021861149899,0.0060832656870927,True
0.11,0.6813362052899778,2.800000000000001,7011.0,63.40698,0.3,68900.0,0.33,276.0,2700.0,31.973690662650924,1.7557653465645138,4740.566435724188,17.820240885966285,5.408353039830707,14.15344977668464,3.652587693266193,3094,88,1020,1558,401.7349681412371,231.93386243017227,0.0046549753276172,True
0.12,0.6840673948782816,2.800000000000001,7012.0,63.40698,0.3,68900.0,0.33,276.0,2700.0,31.83701219881913,1.906601617192217,5147.824366418986,17.915152691701117,5.457153064598176,13.921859507118016,3.5505514474059585,3093,88,1016,1563,517.5722716638422,294.55527112738304,0.0046202407593327,True
0.13,0.5601732232128025,2.800000000000001,7013.0,63.40698,0.3,68900.0,0.33,276.0,2700.0,23.691731219195365,1.5353611432077412,4145.475086660901,13.79833426686022,3.496577974509109,9.893396952335143,1.961216831301368,2333,74,760,1187,290.1930586974259,167.27642179420425,0.0031207437749778,True
0.14,0.7397063816362917,2.800000000000001,7014.0,63.40698,0.3,68900.0,0.33,276.0,2700.0,34.95953175873472,2.441420202950468,6591.834547966263,19.889479202796597,6.508498029663093,15.070052555938126,4.067077826712625,3579,94,1168,1821,341.59692449601226,197.1266439038,0.0041403804185981,True
0.15,0.6610238251628389,2.800000000000001,7015.0,63.40698,0.2,68900.0,0.33,276.0,2700.0,29.39229548682523,2.197353578041312,5932.85466071154,17.120245544296424,5.053508371315375,12.272049942528806,2.8561547932740634,6304,126,2078,3181,280.0527620921419,161.52650296210442,0.0033553962258293,True
0.16,0.8147831069402482,2.800000000000001,7016.0,63.40698,0.3,68900.0,0.33,276.0,2700.0,39.58413187460253,3.1581519076288065,8527.010150597778,22.676868540986533,8.105482740634518,16.907263333616,4.947330833005712,4069,102,1334,2062,324.06095800607045,186.97119484665137,0.0041582643215186,True
0.17,0.5930426346769097,2.800000000000001,7017.0,63.40698,0.1,68900.0,0.33,276.0,2700.0,24.544434202920105,2.0759871441101514,5605.165289097409,14.852938050560534,3.967378827624325,9.691496152359573,1.8913916835141735,21415,220,6764,11009,231.1705751642858,133.3042430070158,0.0026201960322938,False
0.18,0.5714684461045381,2.800000000000001,7018.0,63.40698,0.1,68900.0,0.33,276.0,2700.0,22.970513422584023,2.055131695795393,5548.855578647562,14.157675376617815,3.654459636387464,8.812838045966208,1.5993279405920706,22120,210,6192,11988,214.39641027985851,123.71428460818991,0.0023892034762273,False
0.19,0.7855323949506039,2.800000000000001,7019.0,63.40698,0.3,68900.0,0.33,276.0,2700.0,36.507954153037765,3.4538901885312723,9325.503509034435,21.574026707501016,7.458350061026173,14.93392744553675,4.0044598724949,3760,98,1230,1909,269.4647888404608,155.56993544595252,0.0033757182473527,False
0.2,0.6196893452711643,2.800000000000001,7020.0,63.40698,0.2,68900.0,0.33,276.0,2700.0,25.32480812452539,2.515725651633393,6792.4592594101605,15.727817731675202,4.3747774753268525,9.596990392850188,1.85905182369346,5286,114,1738,2673,203.49896783523755,117.45797328433518,0.0023921560717871,False
0.21,0.713597845597226,2.800000000000001,7021.0,63.40698,0.3,68900.0,0.33,276.0,2700.0,31.0000631470054,3.2356104373923027,8736.148180959217,18.95333993121731,6.001470732068444,12.046723215788091,2.765860294676141,3046,86,998,1543,226.8626879449179,130.65209693641268,0.0027238553959355,False
0.22,0.5984096986035016,2.800000000000001,7022.0,63.40698,0.1,68900.0,0.33,276.0,2700.0,23.484476035289767,2.5609912448315164,6914.676361045094,15.0277172948019,4.047564197533798,8.456758740487865,1.4865729527022813,25764,212,6352,14586,187.20628162095088,107.99337030806228,0.0021275566951344,False
0.23,0.694717173843044,2.800000000000001,7023.0,63.40698,0.08,68900.0,0.33,276.0,2700.0,29.17662555685824,3.32982943382788,8990.539471335276,18.28703484468568,5.649923182483611,10.88959071217256,2.3200937486557307,57739,302,12160,34465,203.3027247340836,117.330648881838,0.0024467941253064,False
0.24,0.6376525906021044,2.800000000000001,7024.0,63.40698,0.3,68900.0,0.33,276.0,2700.0,25.31062653375545,3.008322266155173,8122.470118618968,16.327666962807474,4.662675603369923,8.982959570947973,1.65435333721475,2706,80,886,1371,319.9593717932325,174.09104888960547,0.0020946022996581,True
0.25,0.8059305025380512,2.800000000000001,7025.0,63.40698,0.3,68900.0,0.33,276.0,2700.0,36.00501561582845,4.467902028503663,12063.33547695989,22.34082892980583,7.906222260251812,13.664186686022616,3.4383202317481487,3430,94,1130,1729,213.2296360900096,123.10803701599642,0.0027150808016159,False
0.26,0.6257792656613914,2.800000000000001,7026.0,63.40698,0.05,68900.0,0.33,276.0,2700.0,24.046706526312583,3.08926076010097,8341.00405227262,15.930270673725788,4.471174621339483,8.116435852586795,1.3819138612385131,185361,426,25546,121016,210.25659692199045,118.67268997521155,0.0019566425308598,False
0.27,0.6266714546446215,2.800000000000001,7027.0,63.40698,0.1,68900.0,0.33,276.0,2700.0,23.83352567987257,3.176301987982319,8576.015367552262,15.960008830332736,4.485400697874908,7.873516849539833,1.3090987098925893,27626,214,6456,15962,701.4936914378846,397.74638000793936,0.0030922845770239,True
0.28,0.9484613205548802,2.800000000000001,7028.0,63.40698,0.3,68900.0,0.33,276.0,2700.0,45.36599418261091,6.305263024277787,17024.210165550026,27.990644614530567,11.487050948774606,17.375349568080345,5.181787924496819,4140,106,1362,2091,222.06457037746597,128.14886972266365,0.0030400892942804,False
0.29,0.9067641245290798,2.800000000000001,7029.0,63.40698,0.3,68900.0,0.33,276.0,2700.0,41.91586697492153,6.026720509211337,16272.14537487061,26.28496371194669,10.355632446413363,15.630903262974831,4.328911937202026,3902,102,1286,1967,208.8174715267314,120.5516692174696,0.0027727829861783,False
0.3,0.6221109056267282,2.800000000000001,7030.0,63.40698,0.08,68900.0,0.33,276.0,2700.0,22.778908590122533,3.360287620753763,9072.77657603516,15.808208307432558,4.412960640800779,6.970700282689975,1.0526730200470156,54543,260,9630,33878,152.88784162608303,88.21776438658058,0.0017338573330663,False
0.31,0.8690814760614716,2.800000000000001,7031.0,63.40698,0.3,68900.0,0.33,276.0,2700.0,38.54486429754599,5.912059841624237,15962.56157238544,24.781092439970436,9.393592393435693,13.76377185757556,3.481532551811456,3702,98,1228,1854,192.4840629656115,110.85593294738445,0.0024693116600494,False
0.32,0.9715144684666596,2.800000000000001,7032.0,63.40698,0.3,68900.0,0.33,276.0,2700.0,45.74852538090579,7.251134922229716,19578.064290020237,28.95242301036271,12.14338376946113,16.79610237054308,4.892248847231413,4438,110,1464,2236,201.60164318393004,116.26033579765146,0.0027774949859435,False
0.33,0.8854593187837076,2.800000000000001,7033.0,63.40698,0.2,68900.0,0.33,276.0,2700.0,39.07964518379214,6.372875178531,17206.762982033702,25.430328611906628,9.804760570993572,13.64931657188551,3.431885392462572,8106,144,2614,4127,186.32451311760545,107.15135948410028,0.0024010695140318,False
0.34,0.8707774070865648,2.800000000000001,7034.0,63.40698,0.3,68900.0,0.33,276.0,2700.0,37.72618845617493,6.331133932445275,17094.06161760224,24.848008163615557,9.435676148950188,12.878180292559378,3.104542216504913,3718,98,1230,1867,173.632789614436,100.13293699146196,0.0022854852533147,False
0.3500000000000001,0.9729416586378228,2.800000000000001,7035.0,63.40698,0.3,68900.0,0.33,276.0,2700.0,44.8482259618489,7.758642353308459,20948.33435393284,29.01240449532023,12.184747179417364,15.835821466528667,4.426104826108905,4470,110,1472,2256,186.10096315927865,107.3918044186345,0.0025698685333197,False
0.36,0.8092584850523876,2.800000000000001,7036.0,63.40698,0.3,68900.0,0.33,276.0,2700.0,32.90700482554963,5.825544770701675,15728.970880894522,22.466926128336784,7.980781895724666,10.440078697212844,2.155237125022992,3360,90,1110,1689,156.60383549523803,90.00863665915941,0.00199048311411,False
0.37,0.9454230247856594,2.800000000000001,7037.0,63.40698,0.3,68900.0,0.33,276.0,2700.0,42.14912534273643,7.691500793284719,20767.052141868742,27.86488295515224,11.402198200965326,14.284242387584197,3.710697407680607,4054,104,1342,2035,172.7948298056159,99.62215107451593,0.0023595216707497,False
0.38,0.8010234278968346,2.800000000000001,7038.0,63.40698,0.2,68900.0,0.33,276.0,2700.0,31.789962760101748,5.925169276360816,15997.957046174204,22.155407766093376,7.797049330364105,9.634554994008372,1.871880054003289,8744,130,2248,4866,157.28912668152051,90.8083484225138,0.0019067884418153,False
0.39,0.6960435442434544,2.800000000000001,7039.0,63.40698,0.1,68900.0,0.33,276.0,2700.0,24.8947491275078,4.73023865678516,12771.644373319934,18.333550301123125,5.674209407688044,6.561198826384672,0.9439707509028832,38211,216,6650,23804,139.29748384568592,80.4165766836074,0.0016029811258158,False
0.4,0.841273952512175,2.800000000000001,7040.0,63.40698,0.3,68900.0,0.33,276.0,2700.0,33.90446540912566,6.646851795271971,17946.49984723432,23.694210937624582,8.71964835784152,10.21025447150108,2.0727965625695486,3362,92,1116,1682,146.33282541926354,84.13367251756961,0.0019137569398797,False
0.4100000000000001,0.7542465100387745,2.800000000000001,7041.0,63.40698,0.2,68900.0,0.33,276.0,2700.0,27.96373951644402,5.588218796018985,15088.19074925126,20.418252558097237,6.801531389187884,7.545486958346785,1.213312593168899,7444,116,1848,4194,142.80802556676272,82.44542273274443,0.0016740528084885,False
0.42,0.988387538844656,2.800000000000001,7042.0,63.40698,0.3,68900.0,0.33,276.0,2700.0,43.724176735287394,9.026907570064251,24372.65043917348,29.66483397204805,12.63790025968,14.059342763239345,3.610992689615749,4003,104,1332,1999,162.16873128673478,93.48898919191303,0.0022420828155235,False
0.43,0.9581320674309516,2.800000000000001,7043.0,63.40698,0.3,68900.0,0.33,276.0,2700.0,41.18892274935658,8.689099319705344,23460.56816320443,28.39248230874365,11.75968252879709,12.79644044061293,3.0705832090917458,4101,104,1366,2044,153.5946983194407,88.2627510554944,0.0021134937923541,False
0.44,0.8879956870206385,2.800000000000001,7044.0,63.40698,0.3,68900.0,0.33,276.0,2700.0,35.935100020902325,7.727313052196251,20863.74524092988,25.53147596330751,9.869389488030222,10.403624057594817,2.142076435833971,3636,94,1186,1839,140.64690549331115,80.6381759579308,0.0018869623939901,False
0.45,1.0306878684160128,2.800000000000001,7045.0,63.40698,0.3,68900.0,0.33,276.0,2700.0,45.935637852978005,10.144666763214472,27390.600260679075,31.48228322931604,13.931013342539826,14.453354623661966,3.786346579325354,4525,110,1464,2293,156.66796679885218,90.04453512457587,0.0022284224997963,False
0.46,0.7668220566184814,2.800000000000001,7046.0,63.40698,0.08,68900.0,0.33,276.0,2700.0,27.46075688285952,6.112114041371147,16502.7079117021,20.879866041271374,7.061200431005925,6.580890841588143,0.9490863896347772,92781,288,11756,61291,136.76857704041524,77.51063329234634,0.0015753106392031,False
0.4700000000000001,1.1079008995579571,2.800000000000001,7047.0,63.40698,0.3,68900.0,0.33,276.0,2700.0,51.25174751632519,11.826714283620651,31932.12856577576,34.91573191060958,16.493445229414956,16.33601560571561,4.6667309457943045,4912,116,1584,2496,160.31100400640327,92.2390848958766,0.0023569190285697,False
0.4800000000000001,1.142492566674611,2.800000000000001,7048.0,63.40698,0.3,68900.0,0.33,276.0,2700.0,53.67304049147395,12.649906374789884,34154.747211932685,36.50252768553962,17.728596869599,17.17051280593433,5.0786904948091145,4836,116,1568,2452,168.05300003197866,96.849889440089,0.0024088967798591,False
0.49,1.1820560820063746,2.800000000000001,7049.0,63.40698,0.3,68900.0,0.33,276.0,2700.0,56.5481051841396,13.607882280712738,36741.2821579244,38.354260779131394,19.20926601768078,18.193844405008207,5.601383736968041,5526,122,1742,2839,182.3878558671029,104.35109885972822,0.0037917495885284,False
0.5,1.111291102572049,2.800000000000001,7050.0,63.40698,0.3,68900.0,0.33,276.0,2700.0,50.520074788000926,12.368219309201075,33394.1921348429,35.06991870991138,16.612077929644844,15.450156078089549,4.243858620443769,5104,114,1552,2668,162.25613745408037,93.52311103523266,0.0022584634975578,False
0.05,0.4793625316822104,2.800000000000001,7055.0,66.42636,0.1,68900.0,0.33,276.0,2700.0,21.19137082823536,0.5295224713180845,1429.710672558828,11.320992783940106,2.482728141234205,9.87037804429525,1.9532056699161209,17563,202,5770,8902,677.1539327836846,387.5534100694154,0.0065069202460657,True
0.0699999999999999,0.5115179195471726,2.800000000000001,7057.0,66.42636,0.2,68900.0,0.33,276.0,2700.0,22.504344448757625,0.7869336781863959,2124.720931103269,12.287091439181332,2.862222059941809,10.217253009576291,2.075288381755413,4822,108,1586,2437,485.9506307618941,280.50787124146666,0.005162965698718,True
0.08,0.5656681294975345,2.800000000000001,7058.0,66.42636,0.2,68900.0,0.33,276.0,2700.0,25.481140427553942,1.0181732868097302,2749.067874386272,13.97274621101492,3.5728773693472093,11.508394216539026,2.554704082537479,5473,114,1796,2773,477.7080034491677,274.0707621881291,0.0051713765699121,True
0.09,0.4927582943088243,2.800000000000001,7059.0,66.42636,0.1,68900.0,0.33,276.0,2700.0,20.844444691254736,0.936473197076819,2528.4776321074114,11.720306394806416,2.6370509938845434,9.12413829644832,1.7005777968077245,17133,200,5632,8679,371.0435768869968,213.3990575416684,0.003908938353915,True
0.0999999999999999,0.7337349685721063,2.800000000000001,7060.0,66.42636,0.3,68900.0,0.33,276.0,2700.0,35.87001284465733,1.7914062471304726,4836.796867252276,19.67385906704124,6.390373958113333,16.196153777616093,4.59896771098286,3650,96,1198,1847,488.4898746905272,282.0250316153556,0.005871310700082,True
0.11,0.4183446425875137,2.800000000000001,7061.0,66.42636,0.1,68900.0,0.33,276.0,2700.0,16.178619813218933,0.8870364498457555,2394.99841458354,9.559172022259744,1.846172157282013,6.619447790959189,0.9591357074362572,13340,174,4392,6746,255.05455758039264,147.05024832646157,0.0026815331356952,False
0.12,0.7532798218123171,2.800000000000001,7062.0,66.42636,0.3,68900.0,0.33,276.0,2700.0,36.56383229088526,2.190210822716179,5913.569221333683,20.38293261869086,6.781810378411914,16.1808996721944,4.591599555695735,3615,96,1190,1824,422.2189443284086,243.76142493911829,0.005130309578354,True
0.13,0.7270522885867784,2.800000000000001,7063.0,66.42636,0.3,68900.0,0.33,276.0,2700.0,34.41706327785971,2.2325077270209244,6027.770862956496,19.43361864001714,6.259703203882548,14.98344463784257,4.027195476861624,3551,94,1160,1805,377.7592688109796,218.04154476519304,0.0045454022723604,True
0.14,0.8081179681811093,2.800000000000001,7064.0,66.42636,0.3,68900.0,0.33,276.0,2700.0,39.78722268126594,2.7793585675276526,7504.2681323246625,22.4236806131796,7.955182651656513,17.36354206808634,5.175824084128861,3771,100,1240,1905,387.2733159816472,223.4019581794332,0.0048773656983649,True
0.15,0.6116660100221039,2.800000000000001,7065.0,66.42636,0.3,68900.0,0.33,276.0,2700.0,26.262905821043347,1.9626493531076752,5299.153253390723,15.462513421739462,4.249653315381674,10.800392399303885,2.2870039622739986,2743,80,896,1393,289.5667843827102,166.40362212810902,0.0031927339838744,True
0.16,0.5618331575387872,2.800000000000001,7066.0,66.42636,0.2,68900.0,0.33,276.0,2700.0,22.94945025316275,1.827377377913617,4933.918920366767,13.85094168049669,3.519525956046684,9.098508572666058,1.6921485781330667,4867,108,1596,2467,240.4295692247184,138.71323213445305,0.0027134872471182,False
0.17,0.5480788637922546,2.800000000000001,7067.0,66.42636,0.2,68900.0,0.33,276.0,2700.0,21.864917959801243,1.848228263445049,4990.216311301634,13.417124589444636,3.332004909069679,8.447793370356608,1.4837766456246295,4635,104,1534,2328,227.1180184278685,130.51939350810736,0.0024989422657162,False
0.18,0.840333816830966,2.800000000000001,7068.0,66.42636,0.3,68900.0,0.33,276.0,2700.0,40.75445345878303,3.6556862990533183,9870.35300744396,23.657804535622,8.697389699920064,17.09664892316103,5.041703400866746,4026,102,1318,2043,314.2725321329856,181.43524640729643,0.0040668032671218,True
0.19,0.6550064472822302,2.800000000000001,7069.0,66.42636,0.1,68900.0,0.33,276.0,2700.0,27.812928098722452,2.627862713371321,7095.229326102567,16.91486856803703,4.951107756235123,10.898059530685426,2.323245042863802,30380,238,7688,17052,251.57698785699776,141.6179916459041,0.003589140631335,False
0.2,0.7307372154746363,2.800000000000001,7070.0,66.42636,0.3,68900.0,0.33,276.0,2700.0,32.44288896270977,3.2275337354518343,8714.341085719952,19.56595188934981,6.331558382115706,12.876937073359958,3.104024646663872,3286,90,1078,1663,251.83654644891456,144.99712066925792,0.0030717300116313,False
0.21,0.7261072491635394,2.800000000000001,7071.0,66.42636,0.3,68900.0,0.33,276.0,2700.0,31.826830865347876,3.322421047818263,8970.536829109311,19.39973532867811,6.241353680431744,12.427095536669764,2.918932632613481,3054,88,1004,1542,238.35625620205312,137.23313542595582,0.0029149233309088,False
0.22,0.8428468436887678,2.800000000000001,7072.0,66.42636,0.3,68900.0,0.33,276.0,2700.0,39.58783929342463,4.33236120322613,11697.37524871055,23.75517023042195,8.75696470617972,15.83266906300268,4.424603502953589,4051,102,1326,2056,261.08255596189946,150.722664688742,0.0033918256526369,False
0.23,0.7504641535049117,2.800000000000001,7073.0,66.42636,0.3,68900.0,0.33,276.0,2700.0,32.84068920290119,3.751196753122823,10128.23123343162,20.280190225331456,6.724563492028203,12.560498977569733,2.97336673890538,3079,88,1010,1558,224.7965861602076,129.708249401383,0.0028003794982389,False
0.24,0.6429061454272293,2.800000000000001,7074.0,66.42636,0.1,68900.0,0.33,276.0,2700.0,25.63286871799637,3.0469913282640784,8226.876586313012,16.50463240300202,4.748918442064962,9.12823631499435,1.7019271138008838,28810,226,7074,16339,193.42864062186945,111.61229754467271,0.0022522776773443,False
0.25,0.6223274071041902,2.800000000000001,7075.0,66.42636,0.2,68900.0,0.33,276.0,2700.0,24.10777576035513,2.980747046569492,8048.017025737628,15.815402866277848,4.416383920050614,8.29237289407728,1.4356368734811222,4916,108,1626,2471,178.1790860183337,102.65542384413752,0.0020794985487609,False
0.26,0.8849809791943131,2.800000000000001,7076.0,66.42636,0.3,68900.0,0.33,276.0,2700.0,41.31495052260059,5.334132479618415,14402.15769496972,25.411271118864025,9.792600796253112,15.903679403736568,4.458468316634697,4035,104,1332,2031,232.8790988634976,134.35751186129596,0.0031012849734308,False
0.27,0.6376954927453891,2.800000000000001,7077.0,66.42636,0.2,68900.0,0.33,276.0,2700.0,24.49691927462878,3.2658601232744804,8817.822332841097,16.32910930779002,4.663376126217146,8.16780996683876,1.3975160029426652,5072,110,1680,2546,170.7219076449121,98.11242212874691,0.0020056949134164,False
0.28,0.8217360830321145,2.800000000000001,7078.0,66.42636,0.3,68900.0,0.33,276.0,2700.0,36.16085244231911,5.016543180636941,13544.66658771974,22.942180380131617,8.264076114878605,13.218672062187494,3.247532934241664,3718,96,1226,1873,207.1229854693894,119.5480352810116,0.0026374293895375,False
0.29,0.9355273951962932,2.800000000000001,7079.0,66.42636,0.3,68900.0,0.33,276.0,2700.0,44.050078037945255,6.336181113349732,17107.68900604428,27.456889720051304,11.128478345154434,16.59318831789395,4.792297231804702,4137,106,1362,2088,224.0641921436644,129.3466856042551,0.0030281267658393,False
0.31,0.791895896248511,2.800000000000001,7081.0,66.42636,0.3,68900.0,0.33,276.0,2700.0,33.20828399638679,5.084889894944559,13729.20271635031,21.81212008276654,7.596393422038402,11.39616391362025,2.5115035270938435,3410,92,1120,1724,183.18294123251977,105.71026757444554,0.002298011327148,False
0.32,0.9110892914180172,2.800000000000001,7082.0,66.42636,0.3,68900.0,0.33,276.0,2700.0,41.24936617822947,6.531269449801172,17634.427514463165,26.45985935487044,10.469697358100412,14.789506823359034,3.9384279082992393,4026,104,1330,2025,198.6636302465131,114.41018050474882,0.0026753386876547,False
0.33,0.6690150601825811,2.800000000000001,7083.0,66.42636,0.08,68900.0,0.33,276.0,2700.0,24.802930929431355,4.017217326561469,10846.486781715968,17.39439829031869,5.191414617758383,7.408532639112664,1.174197291196914,62604,272,10434,39365,159.45665100154432,91.19589813071062,0.0018284814018178,False
0.34,0.7400784109627745,2.800000000000001,7084.0,66.42636,0.2,68900.0,0.33,276.0,2700.0,28.952897035150645,4.839674390871151,13067.120855352108,19.90294236486989,6.515900003452719,9.049954670280757,1.6762256125815682,6539,122,1986,3416,171.51221186321354,98.98541797848088,0.0019840354437255,False
0.3500000000000001,0.9364761727938123,2.800000000000001,7085.0,66.42636,0.3,68900.0,0.33,276.0,2700.0,42.13598575260146,7.284000316690153,19666.80085506341,27.49590080728453,11.15454733165215,14.640084945316932,3.870547014961997,3985,104,1318,2002,189.80006286664155,109.52693830141388,0.002561217529069,False
0.36,0.750458854928208,2.800000000000001,7086.0,66.42636,0.1,68900.0,0.33,276.0,2700.0,29.065153229900144,5.1340114834847705,13861.83100540888,20.27999707062608,6.724456036396453,8.785156159274063,1.5904445529116824,43244,240,7852,26728,164.58758316817222,92.961221491613,0.0019410191396154,False
0.37,0.8628511444412141,2.800000000000001,7087.0,66.42636,0.3,68900.0,0.33,276.0,2700.0,36.2589750141779,6.601822982501262,17824.92205275341,24.53588511610173,9.239962337609002,11.723089898076164,2.6381393551077403,3588,96,1190,1797,167.8015762106873,96.69007125449195,0.0022014483834262,False
0.38,0.8268439431994195,2.800000000000001,7088.0,66.42636,0.1,68900.0,0.33,276.0,2700.0,33.50827068435215,6.251647781968388,16879.44901131465,23.13786039082206,8.381761038149337,10.370410293530089,2.130113256180949,51194,260,8940,31872,166.7192389427301,96.20229500020534,0.002080691066611,False
0.39,0.8689891317216747,2.800000000000001,7089.0,66.42636,0.3,68900.0,0.33,276.0,2700.0,36.08737765085253,6.912801218837298,18664.563290860704,24.777450918659486,9.391304167953512,11.309926732193038,2.4785029491162147,3612,96,1198,1809,160.44798360592395,92.1698948780406,0.0021253857668181,False
0.4,1.0889309556677695,2.800000000000001,7090.0,66.42636,0.3,68900.0,0.33,276.0,2700.0,52.142937984184826,10.294546310283804,27795.27503776627,34.058307099912064,15.839242701849978,18.08463088427276,5.544696391566173,4741,116,1570,2380,192.1880036289117,110.5768270693733,0.0027753395105513,False
0.4100000000000001,0.7306961367056741,2.800000000000001,7091.0,66.42636,0.05,68900.0,0.33,276.0,2700.0,26.498857001920065,5.287917880541571,14277.378277462243,19.56447478587705,6.330754667237462,6.934382216043016,1.042836786695891,295443,446,28054,202582,192.59181928859283,108.2872009772396,0.0017081952250036,False
0.42,0.7747053583231587,2.800000000000001,7092.0,66.42636,0.1,68900.0,0.33,276.0,2700.0,28.99261866356902,5.933280375003171,16019.85701250856,21.17126695705929,7.226950289146359,7.821351706509727,1.2936699141431882,47739,238,7852,30115,153.17801055448527,86.78061934793543,0.0017858962724309,False
0.43,0.889634155897441,2.800000000000001,7093.0,66.42636,0.1,68900.0,0.33,276.0,2700.0,36.33802468139746,7.6461562350945345,20644.62183475524,25.59690211342943,9.911275606918409,10.741122567968027,2.2651193718238742,59689,270,9504,37933,161.5605015401351,92.74851017017927,0.0020557006339062,False
0.44,0.7418184244075592,2.800000000000001,7094.0,66.42636,0.08,68900.0,0.33,276.0,2700.0,26.42054947962977,5.634111933116291,15212.102219413986,19.965956923420308,6.550586202814336,6.454592556209462,0.9164742696980452,82964,278,11126,54303,649.286256911911,334.4766330378786,0.0016646433404971,True
0.45,1.0622547338774275,2.800000000000001,7095.0,66.42636,0.3,68900.0,0.33,276.0,2700.0,48.34979245898211,10.68785154956539,28857.19918382656,32.867866951052875,14.946613729213462,15.481925507929232,4.258762179648072,4607,112,1522,2308,168.75339422159436,97.1998979905936,0.0024291215642369,False
0.46,0.7687949165098402,2.800000000000001,7096.0,66.42636,0.05,68900.0,0.33,276.0,2700.0,27.58350633286767,6.1403464148730205,16578.935320157154,20.952644943015358,7.102465256461517,6.630861389852317,0.9621188415884968,336852,454,29134,233127,362.3667699776981,202.3950677919605,0.0016566441005271,True
0.4700000000000001,1.110450770988593,2.800000000000001,7097.0,66.42636,0.3,68900.0,0.33,276.0,2700.0,51.453510448028425,11.874128572570916,32060.14714594147,35.03167341228688,16.58262363993223,16.421837035741547,4.708495067361314,4891,116,1584,2479,167.8183552772465,96.57850145151004,0.0024757100865811,False
0.4800000000000001,0.993286900227579,2.800000000000001,7098.0,66.42636,0.2,68900.0,0.33,276.0,2700.0,42.21402821031496,9.899743427311725,26729.307253741656,29.87303416783891,12.7837487793659,12.340994042476048,2.884005352054176,11690,152,2886,6607,161.45401806001755,93.12485012342704,0.0021401542155469,False
0.49,0.9187364059977596,2.800000000000001,7099.0,66.42636,0.3,68900.0,0.33,276.0,2700.0,36.62284525645613,8.726193598430292,23560.72271576179,26.770234222288824,10.673224733842424,9.852611034167309,1.947031135412132,3774,94,1160,1958,155.1635025408199,89.39207979656327,0.0018974582668295,False
0.5,0.9739270031158508,2.800000000000001,7100.0,66.42636,0.2,68900.0,0.33,276.0,2700.0,40.21409776204354,9.791725052711731,26437.65764232168,29.053846105495545,12.213354807108365,11.160251656548,2.421629754396632,10707,144,2622,6062,155.92936185548453,89.87429713266798,0.0020222749045819,False
0.05,0.4274375503257518,2.800000000000001,7105.0,69.44574,0.1,68900.0,0.33,276.0,2700.0,18.246208085389075,0.4558934027469298,1230.9121874167104,9.815785984523524,1.9342579354878644,8.43042210086555,1.4783645327409345,14899,184,4882,7570,626.7314634552331,358.21682925368845,0.005926064551304,True
0.06,0.5251824454621808,2.800000000000001,7106.0,69.44574,0.2,68900.0,0.33,276.0,2700.0,23.608718892220047,0.707809177424485,1911.0847790461096,12.705505779797257,3.0329727124297667,10.903213112422792,2.3251635350052817,4940,110,1628,2492,600.9149111588745,346.92566434974486,0.0064295008258212,True
0.0699999999999999,0.5454475050444193,2.800000000000001,7107.0,69.44574,0.2,68900.0,0.33,276.0,2700.0,24.539813680925896,0.8581751013124044,2317.072773543492,13.334672077496212,3.296808160139559,11.205141603429684,2.4386330588271545,5282,112,1736,2672,545.3622485313077,314.8650216476146,0.0058458368295367,True
0.08,0.6606503163962429,2.800000000000001,7108.0,69.44574,0.1,68900.0,0.33,276.0,2700.0,31.55961690671338,1.2613123459761093,3405.543334135495,17.10747095958116,5.0471161953371295,14.45214594713222,3.78580384936102,26405,256,8690,13364,619.7885072615578,354.7937961056756,0.0065709484197411,True
0.09,0.4798067970076888,2.800000000000001,7109.0,69.44574,0.2,68900.0,0.33,276.0,2700.0,20.101454620182107,0.9030386438785488,2438.2043384720814,11.334163560911378,2.4877605912542124,8.767291059270729,1.5847219473756635,4439,102,1452,2255,379.5544549906522,219.1343545466412,0.0039590871242104,True
0.0999999999999999,0.611969429363362,2.800000000000001,7110.0,69.44574,0.2,68900.0,0.33,276.0,2700.0,27.773358946435717,1.3865735522193932,3743.7485909923616,15.472517028554998,4.254346458603685,12.300841917880716,2.867772906384292,6138,122,2012,3114,436.2653354568161,250.636544540732,0.0048517820521232,True
0.11,0.7478424909691399,2.800000000000001,7111.0,69.44574,0.2,68900.0,0.33,276.0,2700.0,36.51875779466411,2.005744038825241,5415.508904828152,20.18470614171605,6.671520878357393,16.33405165294806,4.665776839532152,7530,140,2474,3813,472.6701689669174,271.1764121373187,0.0057525708083578,True
0.12,0.7249098497182269,2.800000000000001,7112.0,69.44574,0.3,68900.0,0.33,276.0,2700.0,34.597201220776974,2.0722129585097204,5594.974987976245,19.356836173598403,6.218150135418366,15.240365047178573,4.145937176908646,3564,94,1162,1815,422.2172241722152,243.73424014396232,0.0051004079414677,True
0.13,0.6023070785390924,2.800000000000001,7113.0,69.44574,0.2,68900.0,0.33,276.0,2700.0,26.267580165561725,1.702791324721555,4597.536576748198,15.155089793430854,4.106381006919289,11.112490372130871,2.403589682197734,5310,114,1742,2691,326.561874879402,188.1671842173548,0.0037308878449898,True
0.14,0.7111125564656482,2.800000000000001,7114.0,69.44574,0.3,68900.0,0.33,276.0,2700.0,33.011425560347234,2.305052769063299,6223.642476470907,18.86512121899012,5.954475858984407,14.146304341357112,3.649423089921108,3100,88,1020,1564,360.71072395711394,208.22370488570272,0.0043087466185248,True
0.15,0.6972395436499106,2.800000000000001,7115.0,69.44574,0.3,68900.0,0.33,276.0,2700.0,31.7663375384258,2.375406731911358,6413.598176160667,18.375531591182785,5.696161424182384,13.390805947243011,3.3207546922710254,3115,88,1018,1582,330.9481946838192,191.00707730943523,0.0039382595305846,True
0.16,0.7385429727645116,2.800000000000001,7116.0,69.44574,0.3,68900.0,0.33,276.0,2700.0,34.23177395279311,2.7299632738839925,7370.90083948678,19.84739969500325,6.485382914237944,14.384374257789858,3.755419640353952,3570,94,1162,1821,326.579772898592,188.4091098414831,0.0039997958367109,True
0.17,0.685790911100246,2.800000000000001,7117.0,69.44574,0.3,68900.0,0.33,276.0,2700.0,30.392571437828977,2.573078809077403,6947.312784508988,17.975143234629343,5.488081807495527,12.417428203199634,2.915002998418124,2884,86,948,1456,295.86124498335016,170.13172091505868,0.0034415546536798,True
0.18,0.8654249426687537,2.800000000000001,7118.0,69.44574,0.3,68900.0,0.33,276.0,2700.0,42.59946259967364,3.821737121733472,10318.690228680374,24.637063895620955,9.30324292640416,17.96239870405269,5.481505804670688,4190,106,1378,2117,340.12952156090256,196.12442264719627,0.0044223319831235,True
0.19,0.5514991884843059,2.800000000000001,7119.0,69.44574,0.1,68900.0,0.33,276.0,2700.0,21.52657922714604,2.030659570571315,5482.78084054255,13.524559122935594,3.3780794782900334,8.002020104210443,1.3474199077187183,23272,202,5856,13082,216.54272287319475,124.91450753022592,0.0024003140492297,False
0.2,0.7945618729500625,2.800000000000001,7120.0,69.44574,0.3,68900.0,0.33,276.0,2700.0,36.81451016297286,3.664695855478136,9894.678809790968,21.912171349515493,7.654677353478442,14.902338813457366,3.989981498000306,3710,98,1214,1883,282.1645081208228,162.83280170079152,0.0035794977336523,True
0.21,0.6112995546391853,2.800000000000001,7121.0,69.44574,0.2,68900.0,0.33,276.0,2700.0,24.534170200646628,2.5566916780246323,6903.067530666507,15.45043462818512,4.2439892073773535,9.083735572461508,1.6872975293527213,5225,112,1724,2633,214.10634558919529,123.45122204428314,0.0024690768729459,False
0.22,0.7385537426290366,2.800000000000001,7122.0,69.44574,0.3,68900.0,0.33,276.0,2700.0,32.34973471883744,3.536169700021832,9547.658190058946,19.84778907583221,6.485596670140532,12.501945643005229,2.9494269701187,3097,88,1016,1567,242.00041294657015,139.50216726394186,0.0029853656102852,False
0.23,0.902577005978496,2.800000000000001,7123.0,69.44574,0.3,68900.0,0.33,276.0,2700.0,43.63321213877786,4.992336890748641,13479.30960502133,26.116098183529584,10.245927870993103,17.517113955248274,5.253590980244464,4179,106,1376,2109,275.59454576061137,159.0306404889016,0.0037243855728723,False
0.24,0.6769001266320559,2.800000000000001,7124.0,69.44574,0.3,68900.0,0.33,276.0,2700.0,27.751520797946423,3.301229577858088,8913.319860216836,17.666481874931627,5.329642275924836,10.085038923014796,2.0284126980667483,2878,84,944,1456,209.21140301589244,120.78791450519718,0.0024787615126463,False
0.25,0.5685559717109312,2.800000000000001,7125.0,69.44574,0.1,68900.0,0.33,276.0,2700.0,20.94425078471016,2.585306424613876,6980.327346457466,14.06471243205088,3.61336119721966,6.87953835265928,1.0280547726057838,22983,198,5620,13057,522.9319082241971,285.7024987763637,0.0019806466267283,True
0.26,0.7927704721565425,2.800000000000001,7126.0,69.44574,0.3,68900.0,0.33,276.0,2700.0,34.78480361072104,4.485213381074074,12110.0761289,21.844922297370857,7.615484119378149,12.939881313350185,3.130270738304075,3486,94,1148,1758,222.03423155216564,128.0010359364824,0.0028119149110353,False
0.27,0.8377260368893006,2.800000000000001,7127.0,69.44574,0.3,68900.0,0.33,276.0,2700.0,37.59519636668834,5.034127530702364,13592.14433289638,23.556935500833905,8.63582691105403,14.038260865854436,3.6016993803516666,3617,96,1192,1823,225.1759349370081,129.9894625559915,0.0029189096629381,False
0.28,0.7368685423159793,2.800000000000001,7128.0,69.44574,0.3,68900.0,0.33,276.0,2700.0,30.44751215422261,4.216675540303434,11385.023958819273,19.78689668454829,6.452200487738228,10.660615469674326,2.2355249474347936,3184,86,1042,1615,198.45153381317567,114.42703619393258,0.0024048182851759,False
0.29,0.7811468763171123,2.800000000000001,7129.0,69.44574,0.3,68900.0,0.33,276.0,2700.0,33.0825659453637,4.7458918599252735,12813.90802179824,21.41053285715734,7.364095444218286,11.67203308820636,2.6182035842930125,3410,92,1120,1724,199.6625266988225,115.18977590236496,0.0025027071881468,False
0.3,0.735283258318929,2.800000000000001,7130.0,69.44574,0.3,68900.0,0.33,276.0,2700.0,29.768552106637756,4.408734148230438,11903.58220022218,19.729679783858355,6.420877997935887,10.038872322779396,2.012143849705449,3069,86,1010,1548,182.54876075653388,105.38344397788865,0.0022632214545031,False
0.31,0.6941817255421645,2.800000000000001,7131.0,69.44574,0.1,68900.0,0.33,276.0,2700.0,26.88188825652993,4.1042985552666895,11081.606099220062,18.26826934299316,5.640136445047542,8.613618913536765,1.5358378897808524,37868,230,7312,23112,177.3594217323127,102.2458858478476,0.0020892077662727,False
0.32,0.9793337223000412,2.800000000000001,7132.0,69.44574,0.3,68900.0,0.33,276.0,2700.0,46.34414549483133,7.346434140457793,19835.37217923604,29.281676152636845,12.371056369740334,17.062469342194486,5.02462222928254,4449,110,1462,2250,222.00111374228808,128.00796012889504,0.0030714236394391,False
0.33,0.7323067544167345,2.800000000000001,7133.0,69.44574,0.1,68900.0,0.33,276.0,2700.0,28.73404715127563,4.665851503165777,12597.799058547596,19.622420873804664,6.362312212582378,9.111626277470965,1.696460709416601,41962,240,7884,25782,178.85289102128684,101.9739641436248,0.0021134764378269,False
0.34,1.0158418596617522,2.800000000000001,7134.0,69.44574,0.3,68900.0,0.33,276.0,2700.0,48.46917142797084,8.157441037650582,22025.09080165657,30.839297098683343,13.468406832086163,17.62987432928749,5.310965794435582,4701,114,1554,2364,218.0545744035009,125.68102314374326,0.0030553645077069,False
0.3500000000000001,0.8302082610136536,2.800000000000001,7135.0,69.44574,0.3,68900.0,0.33,276.0,2700.0,34.613173903733646,5.967508243138283,16112.272256473365,23.267104195505397,8.459821482909199,11.346069708228251,2.492313239770916,3549,94,1176,1779,177.8687439019367,102.53300774805302,0.0022983554320744,False
0.36,0.7752168050252268,2.800000000000001,7136.0,69.44574,0.2,68900.0,0.33,276.0,2700.0,30.661606817083705,5.421373129177811,14637.70744878009,21.1902261917834,7.237783111848898,9.471380625300302,1.816409982671088,7858,128,2178,4263,175.34889763812566,101.12622560941138,0.0020978172484556,False
0.37,0.7457057660538933,2.800000000000001,7137.0,69.44574,0.2,68900.0,0.33,276.0,2700.0,28.490576705674144,5.164669295427833,13944.60709765515,20.107011832837337,6.628474739953087,8.383564872836807,1.4638054445252535,6936,118,1900,3778,168.8511533694125,97.3487483650491,0.0019629336616773,False
0.38,0.988777849465889,2.800000000000001,7138.0,69.44574,0.3,68900.0,0.33,276.0,2700.0,45.048806081119366,8.444349507354161,22799.743669856234,29.6813982520523,12.649481991939076,15.367407829067066,4.205132484584913,4295,108,1420,2159,191.3902540011858,109.96645206121455,0.0026799550274748,False
0.39,0.8809547155785828,2.800000000000001,7139.0,69.44574,0.2,68900.0,0.33,276.0,2700.0,36.91736983089184,7.074649693945042,19101.554173651613,25.251088953610815,9.690610924428666,11.666280877281023,2.6159612304836246,9911,138,2476,5571,179.4084988864899,103.49407725252983,0.0022922060352311,False
0.4,0.7147267512048006,2.800000000000001,7140.0,69.44574,0.1,68900.0,0.33,276.0,2700.0,25.77516124021145,5.020990961489122,13556.67559602063,18.99346324043212,6.022889908500217,6.781697999779329,1.001898947011095,40434,220,6926,25269,153.49333045455688,88.56253173350525,0.0017719099502268,False
0.4100000000000001,0.8838519894758334,2.800000000000001,7141.0,69.44574,0.2,68900.0,0.33,276.0,2700.0,36.524352449232055,7.343144447240535,19826.490007549444,25.366313924676945,9.76393711354532,11.15803852455511,2.4207926663047843,9617,136,2380,5429,173.52926569064988,100.10422928263486,0.0022086275278477,False
0.42,0.8877802779281514,2.800000000000001,7142.0,69.44574,0.3,68900.0,0.33,276.0,2700.0,36.50225286208491,7.510303556691724,20277.81960306765,25.52287942203443,9.863890701870618,10.97937344005048,2.353587145178894,3563,94,1174,1794,161.56341597483134,92.65033484505624,0.0021478131139195,False
0.43,1.0136324738038416,2.800000000000001,7143.0,69.44574,0.3,68900.0,0.33,276.0,2700.0,45.292323481247664,9.571330477062272,25842.592288068136,30.74408130525302,13.40037613200992,14.548242175994645,3.829045654947647,4494,110,1490,2247,175.08505605733205,100.8628456743068,0.0024882332782757,False
0.44,0.9527668347004858,2.800000000000001,7144.0,69.44574,0.3,68900.0,0.33,276.0,2700.0,40.49439549451726,8.730358056391538,23571.96675225715,28.16925652873441,11.607949406008172,12.325138965782848,2.877591349616635,3572,98,1186,1787,164.73720001178495,94.8719692891976,0.0022533305770163,False
0.45,1.0604080207812103,2.800000000000001,7145.0,69.44574,0.3,68900.0,0.33,276.0,2700.0,48.20718107817165,10.655763988883038,28770.562769984204,32.78611834411419,14.885991705172115,15.42106273405745,4.230227716289079,4642,112,1530,2329,175.3500687826163,101.01470581530324,0.0025338159139183,False
0.46,0.9032746996869908,2.800000000000001,7146.0,69.44574,0.3,68900.0,0.33,276.0,2700.0,36.411898308778845,8.170876569332595,22061.36673719801,26.1442054169206,10.264158712794831,10.267692891858244,2.093282143462236,3565,94,1146,1812,163.21516311053182,93.878976368772,0.0020403436378626,False
0.4700000000000001,1.1513343098522617,2.800000000000001,7147.0,69.44574,0.3,68900.0,0.33,276.0,2700.0,54.733118780939314,12.644836530804977,34141.05863317344,36.91294369839441,18.05315579354136,17.820175082544907,5.408319262736381,5398,122,1738,2741,183.13869351893223,105.4024511745168,0.0027196406818876,False
0.4800000000000001,0.893200525659612,2.800000000000001,7148.0,69.44574,0.2,68900.0,0.33,276.0,2700.0,35.154463580507645,8.205447916157969,22154.70937362652,25.739545064326308,10.002817888370805,9.414918516181338,1.7973699722128362,9925,136,2464,5591,155.37082867637974,89.65293344160793,0.0019702197730427,False
0.49,0.7955489639602581,2.800000000000001,7149.0,69.44574,0.2,68900.0,0.33,276.0,2700.0,28.497957756985727,6.7355961610600446,18186.10963486212,21.94926113723133,7.676324964315097,6.548696619754395,0.9407288032550528,7919,118,1936,4489,139.08871929654063,80.26118788314001,0.0017129000232303,False
0.5,0.96312971828633,2.800000000000001,7150.0,69.44574,0.3,68900.0,0.33,276.0,2700.0,39.44421882763183,9.599255319108805,25917.989361593773,28.601065296891413,11.902099193337452,10.843153530740416,2.302843874228648,4534,100,1310,2415,163.10198102204475,94.154662723483,0.0020703324582366,False
0.04,0.3671324032358534,2.800000000000001,7154.0,72.46512,0.1,68900.0,0.33,276.0,2700.0,15.25271557682203,0.3049202702498873,823.2847296746958,8.152703942865669,1.3929210482302032,7.1000116339563615,1.0880007779803158,13019,170,4260,6623,657.1355667226921,375.959251179753,0.0063591756383499,True
0.06,0.6191557437924387,2.800000000000001,7156.0,72.46512,0.2,68900.0,0.33,276.0,2700.0,29.476245197760274,0.8838349665906904,2386.354409794864,15.710123130247696,4.366389809779271,13.76612206751258,3.4825548431885807,6254,124,2052,3170,734.4330941298048,419.9427653271458,0.0082499192649312,True
0.0699999999999999,0.3974162920652208,2.800000000000001,7157.0,72.46512,0.08,68900.0,0.33,276.0,2700.0,16.08378263881145,0.5622140148382804,1517.977840063357,8.976441500503464,1.6522314471441413,7.107341138307985,1.090017432305861,20816,216,6838,10553,410.79397535563726,236.13799232089124,0.0041590984570991,True
0.08,0.70178781422227,2.800000000000001,7158.0,72.46512,0.2,68900.0,0.33,276.0,2700.0,34.3329845602221,1.3722470521164627,3705.0670407144494,18.535510709841866,5.78010193086926,15.797473850380236,4.407854878752797,7271,136,2384,3689,645.0847321039618,368.8766949574826,0.0074125255128406,True
0.09,0.5055319724318507,2.800000000000001,7159.0,72.46512,0.2,68900.0,0.33,276.0,2700.0,21.58549253580293,0.9698203500814888,2618.5149452200203,12.10527700668674,2.789216795392695,9.480215529116192,1.819396445311206,4539,104,1484,2307,413.3262141859957,238.61910200609455,0.0044013516774491,True
0.0999999999999999,0.7721160588370435,2.800000000000001,7160.0,72.46512,0.3,68900.0,0.33,276.0,2700.0,38.57659850164889,1.9267355299800475,5202.185930946128,21.075382996022245,7.172255710997924,17.501215505626643,5.245520181017876,3941,102,1300,1985,556.0648228609573,320.92752968320224,0.0068398285517893,True
0.11,0.5287224292360613,2.800000000000001,7161.0,72.46512,0.2,68900.0,0.33,276.0,2700.0,22.38445941016219,1.2283576276776338,3316.565594729612,12.814667119939388,3.0781431185056203,9.569792290222802,1.8497854908279865,4755,108,1562,2406,353.154512532245,203.38456085288308,0.0038627050723293,True
0.12,0.7158993153649533,2.800000000000001,7162.0,72.46512,0.3,68900.0,0.33,276.0,2700.0,33.981048332918554,2.035243785238176,5495.158220143076,19.0351721639751,6.045185412591067,14.945876168943451,4.009941627352891,3380,92,1108,1712,439.10553126720185,253.50800912431063,0.0052386628428829,True
0.13,0.7162539811105681,2.800000000000001,7163.0,72.46512,0.3,68900.0,0.33,276.0,2700.0,33.68069619285115,2.184643866495364,5898.538439537481,19.04779467812485,6.051938774412772,14.6329015147263,3.8672949079174086,3356,92,1100,1700,407.5643241351892,235.2828389550485,0.0048669245812817,True
0.14,0.4738093868366065,2.800000000000001,7164.0,72.46512,0.2,68900.0,0.33,276.0,2700.0,18.42971756259444,1.284333209220644,3467.6996648957397,11.156781679260847,2.420317331187672,7.272935883333591,1.1359841219670272,3734,94,1224,1892,257.1065515666277,148.44052988171734,0.0027267407574734,False
0.15,0.5683125929130293,2.800000000000001,7165.0,72.46512,0.3,68900.0,0.33,276.0,2700.0,23.615224916069,1.764073285234597,4762.997870133412,14.056953703233557,3.6099390886003495,9.55827121283544,1.8458658033657525,2365,74,770,1204,293.03426221439616,168.91802523430164,0.0031875654780513,True
0.16,0.4636785275188778,2.800000000000001,7166.0,72.46512,0.08,68900.0,0.33,276.0,2700.0,17.36067099359001,1.3802750371477963,3726.7426002990505,10.85920045737504,2.308799100000802,6.501470536214969,0.9285240628530054,29672,224,7320,16784,224.2072109649953,129.4043639359111,0.0023810671391787,False
0.17,0.6866220835099595,2.800000000000001,7167.0,72.46512,0.3,68900.0,0.33,276.0,2700.0,30.44693491125376,2.577699704318511,6959.78920165998,18.004100590834366,5.503034283687935,12.44283432041939,2.925334579369424,2884,86,948,1456,309.3046136075042,177.8655354728682,0.003596715870688,True
0.18,0.4997763216583094,2.800000000000001,7168.0,72.46512,0.08,68900.0,0.33,276.0,2700.0,18.84210366449183,1.6835748175671084,4545.652007431193,11.931306732505664,2.720044103835987,6.910796931986166,1.036469286268879,32691,236,8064,18503,216.6325931366673,124.96348610544815,0.0023463434308443,False
0.19,0.6137040039303427,2.800000000000001,7169.0,72.46512,0.3,68900.0,0.33,276.0,2700.0,25.23991852684064,2.3834268040425437,6435.252370914867,15.52974963811282,4.281234319312625,9.71016888872782,1.8978075152700813,2601,78,852,1317,248.0600978156581,143.17969532995264,0.002822450104175,False
0.2,0.7006548577243474,2.800000000000001,7170.0,72.46512,0.3,68900.0,0.33,276.0,2700.0,30.45341942593163,3.0285867817740204,8177.184310789855,18.495611909671968,5.7591246084164665,11.957807516259663,2.730537826642446,3009,86,984,1527,267.66035303209856,154.53348755707088,0.0031789604439703,False
0.21,0.8229367075341498,2.800000000000001,7171.0,72.46512,0.3,68900.0,0.33,276.0,2700.0,38.49254008248965,4.022320515618155,10860.265392169018,22.98811685790628,8.291648631378713,15.504423224583366,4.269328115760558,3963,100,1306,1998,288.0443957978527,166.06580556263737,0.0037400971944222,True
0.22,0.8686175502801816,2.800000000000001,7172.0,72.46512,0.3,68900.0,0.33,276.0,2700.0,41.4606075296803,4.538365709214366,12253.587414878788,24.76280008355453,9.382100049121666,16.697807446125772,4.8437343399073,4073,104,1340,2057,292.80761039938574,169.02573418697176,0.003850767229429,True
0.23,0.9144427161817816,2.800000000000001,7173.0,72.46512,0.3,68900.0,0.33,276.0,2700.0,44.52399466066885,5.094776880765913,13755.897578067965,26.59578449423889,10.558656334088608,17.928210166429956,5.463879453322695,4308,108,1420,2172,291.17889792222167,168.10732650223815,0.0039613508914573,True
0.24,0.8839502142586017,2.800000000000001,7174.0,72.46512,0.3,68900.0,0.33,276.0,2700.0,41.91010841215415,5.000260091562437,13500.702247218578,25.37022403487921,9.766428906253486,16.539884377274937,4.766168814691049,4039,104,1332,2035,271.45268827365834,156.64827464535625,0.003636998971266,False
0.25,0.8102378161621855,2.800000000000001,7175.0,72.46512,0.3,68900.0,0.33,276.0,2700.0,36.30446605712343,4.505333333665534,12164.40000089694,22.50408597529161,8.00280264935356,13.800380081831822,3.4974693156880265,3439,94,1134,1732,244.7450453080189,141.30293785651708,0.0031237392431758,False
0.26,0.7837105533947293,2.800000000000001,7176.0,72.46512,0.3,68900.0,0.33,276.0,2700.0,34.1662592681751,4.404802616543055,11892.967064666247,21.506049048904732,7.419107537569662,12.66021021927036,3.014304921026607,3375,92,1112,1701,228.50812344733677,131.7832081407309,0.0028905370664474,False
0.27,0.7856711811103556,2.800000000000001,7177.0,72.46512,0.3,68900.0,0.33,276.0,2700.0,33.992978495203744,4.547828118052101,12279.135918740674,21.57920860039296,7.461344596925196,12.413769894810784,2.9135164788730945,3256,92,1076,1636,221.057689934799,127.4329556888244,0.0028040180311973,False
0.28,0.6467609279802606,2.800000000000001,7178.0,72.46512,0.1,68900.0,0.33,276.0,2700.0,24.777664284810605,3.42289683858575,9241.821464181525,16.634921560305134,4.812791209315434,8.14274272450547,1.3898943707296842,30693,220,6846,17998,189.73794606439836,109.4943785178825,0.0021790602682632,False
0.29,0.7200408941076977,2.800000000000001,7179.0,72.46512,0.2,68900.0,0.33,276.0,2700.0,29.072406025844955,4.164418671595254,11243.930413307186,19.18276757583063,6.12432656721595,9.889638450014324,1.959907895620696,5934,122,1972,2970,190.97224474835528,110.20288245334038,0.0023758265771578,False
0.3,0.8140013201612346,2.800000000000001,7180.0,72.46512,0.3,68900.0,0.33,276.0,2700.0,35.00989851373399,5.194936109295483,14026.327495097805,22.647113089153372,8.087765896829916,12.362785424580611,2.892829787534433,3509,94,1156,1769,208.9658708322637,120.61848182241944,0.002672551548982,False
0.31,0.7481709591072092,2.800000000000001,7181.0,72.46512,0.3,68900.0,0.33,276.0,2700.0,30.31803112220621,4.636900699446564,12519.63188850572,20.196659878462025,6.678152874337844,10.121371243744186,2.04125217489128,3055,86,1006,1540,191.27169817502195,110.41403490294034,0.0023461255446254,False
0.32,0.9618659762672688,2.800000000000001,7182.0,72.46512,0.3,68900.0,0.33,276.0,2700.0,45.01780154286517,7.13421910814321,19262.391591986667,28.548262202111257,11.865988194303675,16.469539340753915,4.731769086160467,4451,110,1470,2240,228.7018433154626,131.90068442652935,0.0031320607222577,False
0.33,1.0209705805921814,2.800000000000001,7183.0,72.46512,0.3,68900.0,0.33,276.0,2700.0,49.21667928435434,8.045485805123763,21722.81167383416,31.060797625828293,13.627140705246914,18.15588165852605,5.581654900123152,4692,114,1550,2361,234.53350225776504,135.20943781125038,0.0032958295224514,False
0.34,0.6400696465447961,2.800000000000001,7184.0,72.46512,0.05,68900.0,0.33,276.0,2700.0,22.819598565435967,3.797013651019652,10251.93685775306,16.408999082569995,4.702238750399781,6.4105994828659725,0.9052250993801289,218457,412,24476,146827,213.24179252020463,119.82100094423112,0.0018602722373751,False
0.3500000000000001,0.88942342513444,2.800000000000001,7185.0,72.46512,0.3,68900.0,0.33,276.0,2700.0,38.73504889330766,6.6888363663137325,18059.85818904708,25.58848358470857,9.90588243924614,13.146565308599094,3.2170460729324075,3766,98,1242,1897,198.9890408029505,114.79616467967666,0.0026187493055787,False
0.36,0.6694416172914026,2.800000000000001,7186.0,72.46512,0.08,68900.0,0.33,276.0,2700.0,24.05634012616552,4.232425124812536,11427.547836993846,17.40907717041231,5.198837452530568,6.647262955753206,0.9664123277180324,65425,268,10202,41772,163.25964458103985,94.14617705557605,0.00186628082997,False
0.37,0.7225070346795719,2.800000000000001,7187.0,72.46512,0.08,68900.0,0.33,276.0,2700.0,27.03399944695033,4.895202502564288,13217.04675692358,19.270859376669414,6.171742560584393,7.763140070280915,1.276540058020105,74796,284,11340,48054,186.08852427578657,104.78503394901315,0.0019873330043956,False
0.38,0.7793570960741503,2.800000000000001,7188.0,72.46512,0.2,68900.0,0.33,276.0,2700.0,30.37396634294819,5.656129957101635,15271.550884174416,21.34394803841233,7.325834893622899,9.030018304535858,1.6697049365212635,8203,126,2122,4556,174.66294601893458,100.81370452943828,0.0021105915979921,False
0.39,1.0282733766734942,2.800000000000001,7189.0,72.46512,0.3,68900.0,0.33,276.0,2700.0,47.72587544501945,9.18230828869993,24792.23237948981,31.377333509229256,13.855126359243837,16.34854193579019,4.672818070543906,4538,112,1504,2276,203.1544398495607,116.99958739742208,0.0028725772209571,False
0.4,0.8032915854067526,2.800000000000001,7190.0,72.46512,0.2,68900.0,0.33,276.0,2700.0,31.379960492238784,6.141950811894592,16583.2671921154,22.24103827843819,7.847398372180186,9.138922213800594,1.7054475602855943,8685,128,2178,4878,171.61027680595973,99.07616180823024,0.0020973713345829,False
0.4100000000000001,0.8104963048817626,2.800000000000001,7191.0,72.46512,0.1,68900.0,0.33,276.0,2700.0,31.575408910410747,6.328611021782156,17087.24975881182,22.51389812036184,8.008620969850803,9.061510790048906,1.6800099480686468,50527,250,8406,31798,169.48184233418968,97.81207268688524,0.0020880492756559,False
0.42,0.8609068156404462,2.800000000000001,7192.0,72.46512,0.3,68900.0,0.33,276.0,2700.0,34.6592873021243,7.1232807890999945,19232.858130569984,24.45956184959883,9.192330723682511,10.199725452525469,2.069049934582518,3474,94,1150,1737,165.15033011344545,95.23837914685392,0.0021598274665055,False
0.43,0.91827203380646,2.800000000000001,7193.0,72.46512,0.3,68900.0,0.33,276.0,2700.0,38.33741814685735,8.076025830168355,21805.26974145456,26.751344746747016,10.660797767598329,11.586073400110337,2.5847719374299736,3715,98,1234,1858,176.200502982528,101.5349320750615,0.0022881153736525,False
0.44,1.046446783691092,2.800000000000001,7194.0,72.46512,0.3,68900.0,0.33,276.0,2700.0,47.46166840323656,10.263158096309771,27710.52686003638,32.170868444680146,14.432557457978604,15.290799958556413,4.169399361668832,4397,110,1464,2195,187.54778007867088,107.97223981935986,0.0026512473641168,False
0.45,1.0566030183616,2.800000000000001,7195.0,72.46512,0.3,68900.0,0.33,276.0,2700.0,47.913882379477215,10.589771781676763,28592.383810527263,32.617952212999946,14.761560497189125,15.29593016647727,4.17178871551236,4686,112,1540,2354,182.97428824914428,105.47327801644283,0.0026317495177575,False
0.46,1.1581227403035643,2.800000000000001,7196.0,72.46512,0.3,68900.0,0.33,276.0,2700.0,55.63593852602915,12.592405819300152,33999.49571211041,37.22938239276206,18.30481015043598,18.406556133267088,5.712404331135828,5351,122,1746,2702,204.21482574471068,117.73016339018042,0.0029143216437926,False
0.4700000000000001,0.8996678864622025,2.800000000000001,7197.0,72.46512,0.1,68900.0,0.33,276.0,2700.0,35.87807987885009,8.213902388814004,22177.53644979781,25.999033480020227,10.170123349248392,9.87904639882986,1.956220960434388,63629,268,9556,40959,540.5544322722828,299.84820927945225,0.0021194226669871,True
0.4800000000000001,1.0043996546419107,2.800000000000001,7198.0,72.46512,0.2,68900.0,0.33,276.0,2700.0,43.02892050363295,10.095317577708045,27257.35745981172,30.347510869946,13.118353968972093,12.681409633686958,3.023036391264048,11613,152,2870,6558,176.69629651050104,101.81866447567764,0.0023690141822404,False
0.49,0.8927572619401984,2.800000000000001,7199.0,72.46512,0.1,68900.0,0.33,276.0,2700.0,34.84590827473067,8.290844037907553,22385.27890235039,25.721798590715228,9.991412415255931,9.12410968401544,1.7005683773483806,64788,266,9490,41861,162.86484756809864,93.4192917001958,0.0020347308141685,False
0.5,0.8950582895014234,2.800000000000001,7200.0,72.46512,0.2,68900.0,0.33,276.0,2700.0,34.72545119402842,8.41956341070795,22732.821208911464,25.81397607890965,10.050705008691205,8.911475115118773,1.6311415979832553,10007,136,2432,5679,157.61730569717412,90.96588310099963,0.001996604775815,False
0.04,0.4602247401261174,2.800000000000001,7204.0,75.4845,0.1,68900.0,0.33,276.0,2700.0,20.37039986945768,0.4072739561025997,1099.6396814770192,10.758339401452288,2.271467992974353,9.61206046800539,1.864194036871753,16900,198,5530,8599,913.4338598414952,521.9095255913015,0.0086570624187928,True
0.05,0.4174592789659369,2.800000000000001,7205.0,75.4845,0.08,68900.0,0.33,276.0,2700.0,17.69576897884414,0.4421324250831192,1193.757547724422,9.53429689845088,1.8377198273395707,8.161472080393258,1.3955874022564516,22985,228,7534,11678,668.8196130276384,382.7390519636476,0.0062625722207032,True
0.06,0.3871590067133736,2.800000000000001,7206.0,75.4845,0.08,68900.0,0.33,276.0,2700.0,15.795555029976605,0.4734142615571805,1278.2185062043875,8.694856627588385,1.5616039336725691,7.10069840238822,1.0881896721153883,20328,214,6676,10308,497.5253603865152,285.6227189713971,0.0048438607005567,True
0.0699999999999999,0.5242059595517359,2.800000000000001,7207.0,75.4845,0.2,68900.0,0.33,276.0,2700.0,23.258738842915417,0.813337481981922,2196.0112013511894,12.675449619174934,3.0205806417095022,10.583289223740485,2.20724315972758,5099,110,1676,2579,556.0269716587864,320.9859539306606,0.0060456078801408,True
0.08,0.7257761602722794,2.800000000000001,7208.0,75.4845,0.2,68900.0,0.33,276.0,2700.0,35.98947135565036,1.4385065239335897,3883.967614620692,19.387869823307184,6.234932607915557,16.601601532343174,4.796426083981967,7541,140,2472,3827,719.380316834453,411.83213760852846,0.0080642640314591,True
0.09,0.7882749439284098,2.800000000000001,7209.0,75.4845,0.3,68900.0,0.33,276.0,2700.0,40.08842032259269,1.802452100487023,4866.620671314962,21.6765156672404,7.517658383212086,18.411904655352288,5.715206282725063,3961,102,1300,2005,654.045441049795,377.2308473973276,0.0080731785695631,True
0.0999999999999999,0.7240920572819152,2.800000000000001,7210.0,75.4845,0.3,68900.0,0.33,276.0,2700.0,35.20164575916513,1.7579878928558603,4746.567310710823,19.32755788458774,6.202332234131297,15.874087874577391,4.444344341275436,3635,96,1192,1841,546.8077872447177,315.6962967423622,0.0065591128083429,True
0.11,0.579644125346204,2.800000000000001,7211.0,75.4845,0.2,68900.0,0.33,276.0,2700.0,25.453893270790736,1.3971764900122037,3772.37652303295,14.41977314987316,3.771278518198128,11.034120120917576,2.374102028185924,5462,114,1794,2765,402.28945576280967,232.06196275380935,0.0045105400921385,True
0.12,0.7477573837372823,2.800000000000001,7212.0,75.4845,0.3,68900.0,0.33,276.0,2700.0,36.17784099325657,2.167051344858456,5851.038631117831,20.181609329451017,6.6698031456736615,15.996231663805547,4.502751800815206,3637,96,1196,1837,470.7565169307667,271.78580554594544,0.0057704469593674,True
0.13,0.5394212262937838,2.800000000000001,7213.0,75.4845,0.1,68900.0,0.33,276.0,2700.0,22.45585840845667,1.4550294105097248,3928.579408376257,13.14649681453546,3.21701716580542,9.309361593921212,1.761987755295695,18098,208,5978,9125,312.6317391442724,180.3106337403553,0.0035372905423759,True
0.14,0.7757167211905232,2.800000000000001,7214.0,75.4845,0.3,68900.0,0.33,276.0,2700.0,37.47139664707174,2.6172507451340548,7066.577011861948,21.208764345155338,7.248381081968062,16.262632301916405,4.631130336834007,3851,100,1270,1940,422.02622899360495,243.3453821907961,0.0052484847753747,True
0.15,0.638531947398667,2.800000000000001,7215.0,75.4845,0.2,68900.0,0.33,276.0,2700.0,27.9510761146746,2.08926212513002,5641.007737851053,16.3572396674515,4.6770464493409465,11.5938364472231,2.587784324210926,6094,122,2008,3076,324.02746306356227,186.79738946248943,0.0038257060336145,True
0.16,0.7835105861605254,2.800000000000001,7216.0,75.4845,0.3,68900.0,0.33,276.0,2700.0,37.3533347212851,2.9796881353634017,8045.157965481185,21.498592830541693,7.414807777938583,15.854741890743409,4.435119642575182,3910,100,1284,1978,373.5469968289392,215.50080349147527,0.0046943931216544,True
0.17,0.4847656283727978,2.800000000000001,7217.0,75.4845,0.08,68900.0,0.33,276.0,2700.0,18.264200237390455,1.5421672570401306,4163.851594008353,11.481510739456478,2.544329876536868,6.78268949793398,1.0021626194967372,31705,232,7802,17958,230.5807375608885,133.04355172960683,0.0024776149999513,False
0.18,0.7088021385492782,2.800000000000001,7218.0,75.4845,0.3,68900.0,0.33,276.0,2700.0,31.600377750533774,2.831819485310885,7645.91261033939,18.78324903447043,5.910984150236744,12.817128716063344,3.079164664925859,3123,88,1026,1578,305.9939369967672,176.5079284536788,0.0036960285013067,True
0.19,0.7314866421145123,2.800000000000001,7219.0,75.4845,0.3,68900.0,0.33,276.0,2700.0,32.80379532533785,3.1019950998997654,8375.386769729366,19.592907091199734,6.34623172728815,13.210888234138114,3.2442366273883847,3348,90,1094,1701,382.6097430003565,214.7308394231357,0.0060383868948999,True
0.2,0.7171612432637491,2.800000000000001,7220.0,75.4845,0.3,68900.0,0.33,276.0,2700.0,31.539422310786136,3.1371870702594653,8470.405089700556,19.08009842373754,6.069234770044621,12.459323887048598,2.9320476997851554,3055,88,1004,1543,280.97210241909846,162.0621995145706,0.0034078751629758,True
0.21,0.6980138438803289,2.800000000000001,7221.0,75.4845,0.3,68900.0,0.33,276.0,2700.0,29.98109332431892,3.128618606010229,8447.270236227618,18.402729808215927,5.710400131348165,11.578363516102993,2.581781525337936,3026,86,992,1532,261.9314691610733,151.02891517304988,0.0031551999414866,False
0.22,0.7849960596631607,2.800000000000001,7222.0,75.4845,0.2,68900.0,0.33,276.0,2700.0,35.50537951619948,3.8832906277316543,10484.884694875467,21.55400597548211,7.446784518446349,13.951373540717372,3.5634938907146947,7371,138,2434,3714,274.20220799793987,158.23520661355644,0.0035101314459337,False
0.23,0.6574852369191051,2.800000000000001,7223.0,75.4845,0.3,68900.0,0.33,276.0,2700.0,26.81649826850424,3.058414795667166,8257.719948301348,16.999361027351043,4.993140844767905,9.817137241153194,1.934726049100739,2715,80,890,1374,228.52267310143208,131.87883083175333,0.0027046216897827,False
0.24,0.6173297241288478,2.800000000000001,7224.0,75.4845,0.1,68900.0,0.33,276.0,2700.0,24.07712760085212,2.860302394206737,7722.816464358189,15.649625175064012,4.337758064005669,8.427502425788106,1.4774556697989325,26363,214,6510,14902,213.2518994299112,123.05166884567714,0.0024417358457314,False
0.25,0.65609945920166,2.800000000000001,7225.0,75.4845,0.3,68900.0,0.33,276.0,2700.0,26.1689862273501,3.2383983549438384,8743.675558348365,16.95210613054132,4.969616257010577,9.21688009680878,1.7312179020667382,2702,80,890,1361,211.5249699499165,122.08866138587912,0.0025136258798769,False
0.26,0.9358615874630568,2.800000000000001,7226.0,75.4845,0.3,68900.0,0.33,276.0,2700.0,45.101184687945526,5.826342921113256,15731.125887005792,27.47062819248965,11.137656520935437,17.630556495455878,5.3113135998221805,4271,108,1404,2159,277.35575238868176,159.9434457877821,0.003801783532484,True
0.27,0.8149630508063039,2.800000000000001,7227.0,75.4845,0.3,68900.0,0.33,276.0,2700.0,36.00323040582011,4.819212125985293,13011.87274016029,22.683719528159603,8.109563920414429,13.319510877660507,3.290351794429136,3721,96,1224,1879,238.5702356734572,137.69944868448516,0.0030689408589268,False
0.28,0.7798653513963945,2.800000000000001,7228.0,75.4845,0.3,68900.0,0.33,276.0,2700.0,33.296839774750254,4.615581407177304,12462.069799378722,21.36284836949112,7.336687871633074,11.933991405259132,2.7211064644557696,3383,92,1116,1703,222.345516245932,127.9862459520468,0.002800540681941,False
0.29,0.7320419286559718,2.800000000000001,7229.0,75.4845,0.3,68900.0,0.33,276.0,2700.0,29.84517861774045,4.276470697420103,11546.470883034275,19.612888611666293,6.35711695227965,10.23229000607416,2.0806462548595475,3045,86,1000,1539,205.44439888991053,118.6025284181022,0.0025168234631193,False
0.3,0.7489631473821379,2.800000000000001,7230.0,75.4845,0.3,68900.0,0.33,276.0,2700.0,30.65704990520092,4.542008818015518,12263.423808641895,20.22550064991998,6.6941638541055655,10.431549255280942,2.152155036090048,3207,86,1052,1623,204.0128002106319,117.44782029693476,0.0025124809663218,False
0.31,0.6844501606322951,2.800000000000001,7231.0,75.4845,0.1,68900.0,0.33,276.0,2700.0,26.278108041547107,4.010712621944405,10828.924079249891,17.928469195594094,5.464012919959856,8.349638845953013,1.453300298015451,36288,224,6942,22213,192.07276949067543,110.80049973539028,0.0022363673979953,False
0.32,0.8234326356734472,2.800000000000001,7232.0,75.4845,0.3,68900.0,0.33,276.0,2700.0,35.048827888788544,5.539183323490941,14955.794973425542,23.007101882821495,8.30305379274659,12.041726005967046,2.7638704692556493,3575,94,1184,1793,208.1066266067628,120.0045833900993,0.002670046294521,False
0.33,0.7818794753570367,2.800000000000001,7233.0,75.4845,0.3,68900.0,0.33,276.0,2700.0,31.953680555998563,5.197091014945019,14032.14574035155,21.437810806786462,7.379790771109625,10.515869749212095,2.182699756164606,3380,90,1114,1703,194.57532565996704,112.30713753583312,0.0024447800433418,False
0.34,0.8054403536864189,2.800000000000001,7234.0,75.4845,0.3,68900.0,0.33,276.0,2700.0,33.23304730763285,5.567299937193115,15031.70983042141,22.3222807158666,7.895276474547152,10.91076659176625,2.3279765373540364,3335,90,1098,1682,194.8393225407097,112.44370654725088,0.0024706292374673,False
0.3500000000000001,0.8513253128758578,2.800000000000001,7235.0,75.4845,0.3,68900.0,0.33,276.0,2700.0,36.06287907839447,6.221206648703542,16797.257951499563,24.084834427829712,8.959768432410947,11.978044650564756,2.738561783707405,3515,94,1166,1760,200.44538533273683,115.64880329790115,0.0025763956778482,False
0.36,0.7573249066407597,2.800000000000001,7236.0,75.4845,0.1,68900.0,0.33,276.0,2700.0,29.50480567724465,5.21314892400678,14075.502094818306,20.53088458047015,6.864560170399928,8.9739210967745,1.651411246393148,43662,240,7896,27032,184.6839940360228,106.61281306740294,0.0022291093369276,False
0.37,1.0434205480328134,2.800000000000001,7237.0,75.4845,0.3,68900.0,0.33,276.0,2700.0,49.584375230915725,9.067022022597891,24480.959461014307,32.0381529819147,14.335401700911705,17.546222249001026,5.2683796783138135,4643,114,1536,2333,224.76734595762971,129.65756437314295,0.0031942436086061,False
0.38,0.854851569667932,2.800000000000001,7238.0,75.4845,0.2,68900.0,0.33,276.0,2700.0,35.41001692700212,6.612979568071878,17855.04483379407,24.222476113555143,9.044940331528528,11.187540813446972,2.43196076345665,9061,134,2318,5064,198.38838550027089,114.53554313299176,0.0024509925627672,False
0.39,1.048837243883472,2.800000000000001,7239.0,75.4845,0.3,68900.0,0.33,276.0,2700.0,49.32137556912154,9.493430812899849,25632.263194829586,32.27586471016408,14.50958610443737,17.045510858957464,5.0161552915375225,4515,112,1496,2265,216.2069275803472,124.59750652942466,0.0030710197441417,False
0.4,0.8904605295751988,2.800000000000001,7240.0,75.4845,0.2,68900.0,0.33,276.0,2700.0,37.281417855807234,7.322242284608285,19770.05416844237,25.629925863615647,9.932441856853584,11.651491992191588,2.6101995722453,9964,138,2476,5610,193.2094454323704,111.53451021689976,0.0024728994791474,False
0.4100000000000001,0.8405745686846708,2.800000000000001,7241.0,75.4845,0.3,68900.0,0.33,276.0,2700.0,33.57192437927532,6.737896692899402,18192.321070828384,23.667125445051497,8.703086482200487,9.904798934223829,1.9651897893010848,3430,92,1132,1722,168.6251729577853,97.21560984627264,0.0022315065313951,False
0.42,1.0617362691619012,2.800000000000001,7242.0,75.4845,0.3,68900.0,0.33,276.0,2700.0,49.310072585044495,10.199945698513243,27539.853385985763,32.84490737521546,14.929578852081583,16.46516520982903,4.72963315356834,4702,114,1560,2356,204.37683289114597,117.78438979259435,0.0029268427635724,False
0.43,1.0059224777316822,2.800000000000001,7243.0,75.4845,0.3,68900.0,0.33,276.0,2700.0,44.713027444666906,9.4467818291974,25506.31093883298,30.41277201968909,13.164617542438611,14.300255424977816,3.717835713241211,4481,110,1480,2247,191.5153044825067,110.23595681171548,0.0026775379727072,False
0.44,0.7527721641817875,2.800000000000001,7244.0,75.4845,0.2,68900.0,0.33,276.0,2700.0,27.09629214994454,5.782775320585535,15613.493365580944,20.364393710168816,6.771467533118664,6.731898439775723,0.9886922125331292,7241,114,1822,4056,157.41533785387438,90.88237786130018,0.0018886800222403,False
0.45,0.780533455295292,2.800000000000001,7245.0,75.4845,0.2,68900.0,0.33,276.0,2700.0,28.575656785205663,6.238671022965695,16844.411762007378,21.38770281568825,7.350968775971907,7.187953969517416,1.112297753006212,7895,120,1986,4424,159.87770444754057,92.27643578296978,0.0019294895628489,False
0.46,1.1188648603298297,2.800000000000001,7246.0,75.4845,0.3,68900.0,0.33,276.0,2700.0,52.46187152819196,11.862370409797608,32028.40010645354,35.41541752197285,16.878996450794553,17.046454006219115,5.016626040996945,4806,116,1580,2414,197.64209443320107,113.81482319496844,0.0028960428943673,False
0.4700000000000001,0.7878279811384483,2.800000000000001,7247.0,75.4845,0.1,68900.0,0.33,276.0,2700.0,28.520708896065845,6.484920207859529,17509.28456122073,21.65979978973457,7.507973523167571,6.86090910633127,1.023053315308042,50247,232,7676,32197,160.3841064745739,92.55103311053884,0.0018991615757076,False
0.4800000000000001,1.0530062730977414,2.800000000000001,7248.0,75.4845,0.3,68900.0,0.33,276.0,2700.0,46.66617187908557,10.968257907816664,29614.296351104997,32.459324772949124,14.64452740074841,14.206847106136443,3.6762694929317465,4373,108,1456,2177,180.21965718007144,103.9182734563667,0.0025824080234757,False
0.49,0.9762252202987052,2.800000000000001,7249.0,75.4845,0.2,68900.0,0.33,276.0,2700.0,40.67559825106037,9.719118082108333,26241.618821692497,29.150599335466964,12.280238010000534,11.524998915593407,2.561119927892202,11119,146,2736,6285,175.37124723036658,101.03377597687997,0.0023423492076054,False
0.5,1.060763177197669,2.800000000000001,7250.0,75.4845,0.3,68900.0,0.33,276.0,2700.0,46.61885685838567,11.392914826797274,30760.87003235264,32.80183342678919,14.897638696035203,13.817023431596482,3.50472386923793,4593,108,1444,2357,189.6487735811328,109.19058724665024,0.0025254864280648,False
0.04,0.4018760651699584,2.800000000000001,7254.0,78.50388,0.05,68900.0,0.33,276.0,2700.0,17.111773147869094,0.3421014216708297,923.6738385112404,9.099696797683762,1.6925389990749056,8.012076350185332,1.3504375774040758,55914,356,18376,28344,896.1597451345071,512.3540043103045,0.0076584060262861,True
0.06,0.4446143782418525,2.800000000000001,7256.0,78.50388,0.1,68900.0,0.33,276.0,2700.0,18.9316196544028,0.5674962002899687,1532.2397407829155,10.306209269346242,2.107063346184125,8.625410385056556,1.5395671458941569,15757,190,5162,8008,611.0907118962189,350.5481233100017,0.0059334681487708,True
0.0699999999999999,0.6167031931202556,2.800000000000001,7257.0,78.50388,0.2,68900.0,0.33,276.0,2700.0,29.00288367640212,1.0143825511539506,2738.8328881156667,15.628886852166024,4.32795958567683,13.373996824236093,3.313577034522879,6333,124,2076,3213,747.2452698952267,428.5419050139681,0.0077041044011354,True
0.08,0.6303059495286127,2.800000000000001,7258.0,78.50388,0.2,68900.0,0.33,276.0,2700.0,29.568404739012998,1.1816638592680933,3190.492420023852,16.081359390921627,4.543627691760998,13.487045348091367,3.361963832492904,6287,124,2064,3185,636.0489742494957,364.29477384063904,0.0070056701883299,True
0.09,0.6246863244988411,2.800000000000001,7259.0,78.50388,0.2,68900.0,0.33,276.0,2700.0,28.89315447640396,1.2986651374085327,3506.3958710030383,15.89386837434214,4.453783668309623,12.999286102061822,3.1551185309010905,6038,122,1980,3062,552.2632941509098,316.7161675680364,0.0062080489610164,True
0.0999999999999999,0.4739481909194463,2.800000000000001,7260.0,78.50388,0.1,68900.0,0.33,276.0,2700.0,19.496963670758905,0.9727537884355548,2626.435228775997,11.160876787222684,2.4218662222393563,8.33608688353622,1.4491124338038015,16170,192,5324,8178,366.9358687857532,211.74554009086995,0.0039995239467601,True
0.11,0.42672965755935,2.800000000000001,7261.0,78.50388,0.05,68900.0,0.33,276.0,2700.0,16.62856197963666,0.9117832689987304,2461.8148262965724,9.795733718100342,1.9273165097629992,6.832828261536319,1.0155332407642683,72921,348,17910,41370,308.9648078905747,178.3257955118694,0.0032531331876883,True
0.12,0.6885603767894999,2.800000000000001,7262.0,78.50388,0.3,68900.0,0.33,276.0,2700.0,32.13654945135466,1.9245738523443467,5196.349401329736,18.071696575072075,5.537997006036647,14.064852876282586,3.6134231536923,3102,88,1018,1569,459.3311997826576,265.1822670188112,0.0053917131069628,True
0.13,0.4915718092379211,2.800000000000001,7263.0,78.50388,0.08,68900.0,0.33,276.0,2700.0,19.688714058155963,1.2751650277401787,3442.9455748984824,11.684756483292457,2.623166118538542,8.003957574863508,1.3480010907983633,25765,242,8376,13079,303.7584266765977,175.32998877224992,0.0032927092590914,True
0.14,0.7786916092663557,2.800000000000001,7264.0,78.50388,0.3,68900.0,0.33,276.0,2700.0,37.68182177418741,2.6319805040321533,7106.347360886814,21.319210605166777,7.311639009612097,16.362611169020635,4.679658505579944,3842,100,1266,1937,440.7147116733997,254.04815668324463,0.0054855683143813,True
0.15,0.5075822744064138,2.800000000000001,7265.0,78.50388,0.08,68900.0,0.33,276.0,2700.0,20.065166504784752,1.49781890438828,4044.111041848356,12.1674505441091,2.81409998795396,7.897715960675651,1.3162810835656795,33222,244,8542,18553,276.8362067837031,159.70495304837243,0.0030236323150452,True
0.16,0.670688999781399,2.800000000000001,7266.0,78.50388,0.3,68900.0,0.33,276.0,2700.0,29.71388940082285,2.3685325097264256,6395.037776261349,17.452028911472162,5.220580015119819,12.261860489350688,2.8520475053933936,2964,86,972,1500,341.8864934189337,197.38820085149857,0.0039952871078936,True
0.17,0.5234319689497555,2.800000000000001,7267.0,78.50388,0.08,68900.0,0.33,276.0,2700.0,20.43926081409231,1.727047406059791,4663.027996361435,12.651643274025894,3.0107791767431955,7.787617540066417,1.2837317706834048,35110,246,8700,19834,255.6052786838604,147.47734102562617,0.0028108164675044,False
0.18,0.6422765994195365,2.800000000000001,7268.0,78.50388,0.3,68900.0,0.33,276.0,2700.0,27.30161339259279,2.444930693096193,6601.312871359722,16.483389631095548,4.738534703800903,10.818223761497244,2.2936040107047093,2907,82,940,1491,293.4933350456065,169.3868402825209,0.0033934972768395,True
0.19,0.6020032381707453,2.800000000000001,7269.0,78.50388,0.2,68900.0,0.33,276.0,2700.0,24.52658517533349,2.3156601356493294,6252.282366253189,15.145146092147916,4.101777789561878,9.381439083185578,1.786117653912549,5111,110,1676,2591,257.74275826719594,148.80682006383503,0.0029869696246591,False
0.2,0.8089777424536752,2.800000000000001,7270.0,78.50388,0.3,68900.0,0.33,276.0,2700.0,37.83026149205429,3.766270988386284,10168.931668642965,22.456278045838346,7.974475967229832,15.373983446215949,4.208204978843549,3755,98,1228,1907,326.93661086050656,188.7470067804228,0.0041425895391203,True
0.21,0.5681289559805651,2.800000000000001,7271.0,78.50388,0.1,68900.0,0.33,276.0,2700.0,21.963350965124786,2.286755658294837,6174.24027739606,14.05110048452272,3.607358250189032,7.912250480602065,1.320602591894195,24073,204,5922,13630,229.9992824703893,132.72722565632165,0.0025793151679015,False
0.22,0.8384100312757801,2.800000000000001,7272.0,78.50388,0.3,68900.0,0.33,276.0,2700.0,39.268782661613486,4.297264973727198,11602.615429063431,23.5833758961083,8.651948764569568,15.685406765505183,4.35468379084237,3831,100,1264,1929,304.8625945080988,175.9180325364414,0.0039797915485349,True
0.23,0.8398969888044847,2.800000000000001,7273.0,78.50388,0.3,68900.0,0.33,276.0,2700.0,39.04513170683166,4.464707641074824,12054.710630902026,23.64089609259419,8.687059001069366,15.404235614237471,4.222351359994542,3893,100,1284,1961,292.6035805489108,168.833758782724,0.0038303360091434,True
0.24,0.8113163268571388,2.800000000000001,7274.0,78.50388,0.3,68900.0,0.33,276.0,2700.0,36.69785161586235,4.374789276007915,11811.93104522137,22.5450369931542,8.0270956271868,14.15281462270815,3.652306351178885,3445,94,1136,1735,274.3267865334727,158.10437519642375,0.0035170039430155,False
0.25,0.9036622336501244,2.800000000000001,7275.0,78.50388,0.3,68900.0,0.33,276.0,2700.0,43.02893690796989,5.345892190021342,14433.908913057625,26.15982286436085,10.27429350635679,16.86911404360904,4.928401316335448,4072,104,1342,2053,289.64808209272223,167.22522373281143,0.0039047267129626,True
0.27,0.6143763041353396,2.800000000000001,7277.0,78.50388,0.2,68900.0,0.33,276.0,2700.0,23.10084622945625,3.077390262176187,8308.953707875704,15.551952642248745,4.291682436083569,7.548893587207504,1.2142921739073822,4753,106,1578,2380,193.34880763002263,111.48464732884275,0.0022670215091399,False
0.29,0.6099299515782496,2.800000000000001,7279.0,78.50388,0.05,68900.0,0.33,276.0,2700.0,22.32005553409235,3.185327850291124,8600.385195786033,15.40532080532311,4.222859144213494,6.914734728769242,1.0375312939223704,192688,410,24142,127507,216.158175629656,122.79375698883324,0.0021601102961381,False
0.3,0.9205314593500769,2.800000000000001,7280.0,78.50388,0.3,68900.0,0.33,276.0,2700.0,42.59906076456836,6.333310446920634,17099.93820668571,26.843303377764432,10.721344301927624,15.755757386803923,4.388033855006991,4028,104,1330,2027,251.94105244289543,145.41799448921395,0.0033960709145368,False
0.31,0.9260088007465408,2.800000000000001,7281.0,78.50388,0.3,68900.0,0.33,276.0,2700.0,42.672677552802654,6.551870896189021,17690.051419710355,27.066763724222493,10.86898587887349,15.60591382858016,4.317114982684469,3986,104,1318,2003,247.4908078559893,142.86509976812064,0.0033222649296971,False
0.32,0.8217961993976994,2.800000000000001,7282.0,78.50388,0.3,68900.0,0.33,276.0,2700.0,34.936744324463426,5.521249953198933,14907.37487363712,22.94447959994604,8.265455384491567,11.992264724517389,2.7442054312926336,3545,94,1176,1775,216.11886654268383,124.49373312281904,0.0027700098520656,False
0.33,0.9545911140135688,2.800000000000001,7283.0,78.50388,0.3,68900.0,0.33,276.0,2700.0,44.13577493309062,7.207136587165253,19459.268785346183,28.245076287387032,11.659407143451608,15.89069864570359,4.452270556286354,4120,106,1356,2080,239.208202498082,138.062659445769,0.0032741120021852,False
0.34,0.8357738454709562,2.800000000000001,7284.0,78.50388,0.3,68900.0,0.33,276.0,2700.0,35.292355227992545,5.917382283654256,15976.932165866492,23.48153652197569,8.589912875928219,11.810818706016851,2.6725305922739624,3498,94,1162,1749,207.2951642106349,119.60934956361524,0.0026853179028962,False
0.3500000000000001,0.8416445111488629,2.800000000000001,7285.0,78.50388,0.3,68900.0,0.33,276.0,2700.0,35.395500573052125,6.104415410269014,16481.921607726337,23.708566785337776,8.728431112079074,11.686933787714349,2.62401570181006,3510,94,1162,1761,205.20487238115052,118.39350827712887,0.002641858563807,False
0.36,0.8258684661337521,2.800000000000001,7286.0,78.50388,0.3,68900.0,0.33,276.0,2700.0,34.023748225062995,6.0265585826140855,16271.70817305803,23.100439612233203,8.359208839489188,10.923308612829793,2.332650256875102,3548,92,1172,1784,197.9245946489295,113.69793683073658,0.0025293506246787,False
0.37,0.8971589974327598,2.800000000000001,7287.0,78.50388,0.3,68900.0,0.33,276.0,2700.0,38.66466235087709,7.046875139790735,19026.562877434983,25.898245106851057,10.105021125871366,12.76641724402603,3.05814598608063,3714,98,1232,1860,204.54270305038872,117.71721005449184,0.0027383595853353,False
0.38,0.8836174736904466,2.800000000000001,7288.0,78.50388,0.3,68900.0,0.33,276.0,2700.0,37.40429631811115,6.991892652382601,18878.110161433025,25.356979353291194,9.757989407092085,12.047316964819956,2.7660967547094835,3590,96,1192,1796,198.8385225778028,114.32772651745194,0.0026195195024677,False
0.39,0.8534167945762245,2.800000000000001,7289.0,78.50388,0.2,68900.0,0.33,276.0,2700.0,35.01798086113708,6.704268844842799,18101.52588107556,24.16643429744037,9.010226736029033,10.851546563696708,2.305957891186233,9461,134,2346,5338,196.7720067415676,113.50287531208608,0.0024904287709787,False
0.4,0.715075391277685,2.800000000000001,7290.0,78.50388,0.08,68900.0,0.33,276.0,2700.0,25.79645184871137,5.025249083189116,13568.172524610613,19.00586100082884,6.029513951997983,6.790590847882534,1.0042648688088676,75791,278,10986,49068,198.6163790449778,114.41430306739396,0.0021590351352678,False
0.4100000000000001,1.011119228644925,2.800000000000001,7291.0,78.50388,0.3,68900.0,0.33,276.0,2700.0,45.75214807730808,9.234842550996126,24934.074887689538,30.63591952944565,13.323244670281698,15.116228547862429,4.088402119285572,4444,110,1474,2223,207.55164612845505,119.63511403796358,0.002920347006869,False
0.42,0.7763756131909909,2.800000000000001,7292.0,78.50388,0.2,68900.0,0.33,276.0,2700.0,29.09886859163013,5.955592859896218,16080.100721719788,21.23320731859969,7.262363419175622,7.86566127303044,1.3067705592794043,8058,122,2032,4514,174.25324318418936,100.38435816238868,0.0021061601158632,False
0.43,0.9627695412411512,2.800000000000001,7293.0,78.50388,0.3,68900.0,0.33,276.0,2700.0,41.52586435450151,8.761541764811852,23656.162764992,28.58601188360009,11.891800457194671,12.939852470901418,3.130258692382821,4057,104,1354,2020,192.59637147524663,110.6573126104744,0.0026326419001486,False
0.44,0.9768745529791676,2.800000000000001,7294.0,78.50388,0.3,68900.0,0.33,276.0,2700.0,42.245209114182906,9.115537052717976,24611.95004233854,29.177959808492083,12.299175329255355,13.067249305690822,3.18363827653738,4091,104,1354,2046,190.78371031605104,109.83246988218974,0.0026273456778559,False
0.45,1.1172437537051945,2.800000000000001,7295.0,78.50388,0.3,68900.0,0.33,276.0,2700.0,52.67483699838503,11.660986570931051,31484.66374151384,35.34134480204857,16.82164433164659,17.333492196336465,5.160657760715537,4769,116,1572,2397,209.3446247149836,120.6070012991923,0.003062773120642,False
0.46,1.1251726019034536,2.800000000000001,7296.0,78.50388,0.3,68900.0,0.33,276.0,2700.0,52.96663965118791,11.978467078086672,32341.86111083401,35.70426367591354,17.103298210061773,17.262375975274374,5.124831131975101,4720,116,1562,2365,205.8972475417704,118.09455391518054,0.0030364822847972,False
0.4700000000000001,1.0779652387221883,2.800000000000001,7297.0,78.50388,0.3,68900.0,0.33,276.0,2700.0,48.90747821213324,11.275810997135324,30444.68969226537,33.566791432448895,15.468466619045463,15.34068677968434,4.192655621910141,4666,112,1502,2371,197.60986404845067,113.6011429271287,0.0028220556200812,False
0.4800000000000001,1.0884441099054143,2.800000000000001,7298.0,78.50388,0.2,68900.0,0.33,276.0,2700.0,49.392852608191504,11.622661282802063,31381.185463565576,34.036421133228345,15.822666887152147,15.35643147496316,4.200005604350082,13434,166,3312,7594,202.2887650332491,116.6602646547214,0.0028387021672766,False
0.49,1.0437963930057954,2.800000000000001,7299.0,78.50388,0.3,68900.0,0.33,276.0,2700.0,45.65150393446228,10.938214974541768,29533.18043126277,32.05462313271916,14.347446174654191,13.596880801743126,3.4092312001124263,4285,106,1378,2178,197.63829265810688,113.92320584889774,0.0026153657958419,False
0.5,0.93600053995818,2.800000000000001,7300.0,78.50388,0.3,68900.0,0.33,276.0,2700.0,37.53568611191744,9.122122140180212,24629.72977848657,27.476341284366928,11.141474030183945,10.059344827550508,2.0193518900037333,3863,96,1170,2020,180.3572024144392,103.70956404339591,0.0022612765109546,False
0.06,0.636349464769617,2.800000000000001,7306.0,81.52326,0.1,68900.0,0.33,276.0,2700.0,30.597828768684,0.9174824737184056,2477.202679039696,16.283878675911883,4.641427134225002,14.313950092772114,3.723944660506597,25435,250,8352,12901,965.4418520940784,551.0734925724374,0.0095849340047508,True
0.0699999999999999,0.690907163225112,2.800000000000001,7307.0,81.52326,0.2,68900.0,0.33,276.0,2700.0,33.92189294443352,1.1865478755350571,3203.6792639446544,18.153664707439347,5.580503572208679,15.768228236994176,4.393955696673622,7024,134,2302,3565,802.069087136219,458.01620037560167,0.0092485848191168,True
0.08,0.4661501874557058,2.800000000000001,7308.0,81.52326,0.1,68900.0,0.33,276.0,2700.0,19.59886961867745,0.7828824544546725,2113.782627027616,10.931564459178604,2.3357287486947613,8.667305159498849,1.552846294240089,16576,196,5452,8392,479.5744063302065,275.5696336501514,0.0049997284236489,True
0.09,0.7476735801977343,2.800000000000001,7309.0,81.52326,0.1,68900.0,0.33,276.0,2700.0,37.18434737475826,1.671768817834482,4513.775808153102,20.178560132755265,6.668111983146049,17.005787242002995,4.996343165311567,30430,280,10012,15406,732.7057449527316,420.37493976524,0.0081200021388331,True
0.0999999999999999,0.7054953242834796,2.800000000000001,7310.0,81.52326,0.3,68900.0,0.33,276.0,2700.0,33.925872434259794,1.6941992266105792,4574.337911848564,18.6663018782276,5.849064871367329,15.259570556032196,4.154865644756749,3382,92,1108,1714,577.5449210131641,333.4304823895623,0.0068469962425169,True
0.12,0.7789064135668073,2.800000000000001,7312.0,81.52326,0.3,68900.0,0.33,276.0,2700.0,38.375067234434496,2.298884919329136,6206.989282188668,21.32719408041385,7.3162193251539716,17.047873154020643,5.017334405824835,3869,100,1272,1955,525.9919222553466,303.5017264695308,0.0065760011060199,True
0.13,0.7099487424101723,2.800000000000001,7313.0,81.52326,0.3,68900.0,0.33,276.0,2700.0,33.25343452127014,2.156871857842602,5823.554016175026,18.8238634267126,5.932544377252103,14.429571094557538,3.775672519409501,3384,92,1108,1716,451.8736856003881,260.794729216212,0.0054107950394534,True
0.14,0.8107367817619812,2.800000000000001,7314.0,81.52326,0.3,68900.0,0.33,276.0,2700.0,39.97670303971528,2.792622192619096,7540.079920071559,22.52302804988805,8.0140361395717,17.453674989827228,5.221413946952605,3930,102,1294,1983,471.6491643759196,272.2017568435972,0.0060074187046554,True
0.15,0.6226594310083189,2.800000000000001,7315.0,81.52326,0.2,68900.0,0.33,276.0,2700.0,26.949312033993763,2.0141298190789576,5438.150511513186,15.826438638579535,4.421636843848892,11.122873395414226,2.407507024769935,5492,116,1812,2768,343.3396158205335,198.08677854920816,0.0040001068265161,True
0.16,0.840274177655107,2.800000000000001,7316.0,81.52326,0.3,68900.0,0.33,276.0,2700.0,41.43888067552609,3.3065318117026905,8927.635891597265,23.655495780161875,8.695978836801508,17.783384895364218,5.389447025098818,4133,104,1360,2087,428.4818492683816,247.0885688377925,0.0055658582086018,True
0.17,0.7990825603073096,2.800000000000001,7317.0,81.52326,0.3,68900.0,0.33,276.0,2700.0,38.12271131257178,3.2301406984305188,8721.3798857624,22.082236196746877,7.754119640974413,16.040475115824908,4.523978942543895,3842,100,1266,1937,387.9759922030252,223.7431611038037,0.0049211045329011,True
0.18,0.7666663052621985,2.800000000000001,7318.0,81.52326,0.3,68900.0,0.33,276.0,2700.0,35.5203574224706,3.1846176557851944,8598.467670620024,20.874124531995854,7.0579488106828325,14.64623289047475,3.873331154897638,3739,98,1226,1894,355.9033096420684,205.4748837033357,0.0044194970974409,True
0.19,0.8198793632783703,2.800000000000001,7319.0,81.52326,0.3,68900.0,0.33,276.0,2700.0,38.938311806049576,3.6847741655674,9948.89024703198,22.87121271336933,8.221544812313182,16.067099092680245,4.536770646745782,4031,102,1326,2036,356.1718270221361,205.4734093274514,0.0045933673350403,True
0.2,0.8874707631422765,2.800000000000001,7320.0,81.52326,0.3,68900.0,0.33,276.0,2700.0,43.54421515397582,4.337666354578428,11711.699157361754,25.510529354521807,9.85599290463775,18.033685799454013,5.518326550059323,4186,106,1376,2116,368.79263307338863,212.49859025355372,0.0048674991776873,True
0.21,0.8984747286353704,2.800000000000001,7321.0,81.52326,0.3,68900.0,0.33,276.0,2700.0,44.01978929579829,4.6026816830154695,12427.240544141769,25.951081605973503,10.139131009596124,18.068707689824784,5.536449326580654,4185,106,1376,2115,352.4159352984332,202.8977829417332,0.0047286494399746,True
0.22,0.8302756972001502,2.800000000000001,7322.0,81.52326,0.3,68900.0,0.33,276.0,2700.0,38.686402725640704,4.233203180770192,11429.64858807952,23.26969773564893,8.461390615135546,15.416704989991777,4.228187434365354,3892,100,1284,1960,312.55951845830145,180.2510296370129,0.0040770863952998,True
0.23,0.600152858928389,2.800000000000001,7323.0,81.52326,0.2,68900.0,0.33,276.0,2700.0,23.31846642024607,2.6561411331174805,7171.581059417197,15.084639323914177,4.073809519113496,8.233827096331897,1.4176683859960155,4737,106,1566,2382,225.1746790477006,129.92942034379914,0.0026226158200368,False
0.24,0.7048317758348359,2.800000000000001,7324.0,81.52326,0.1,68900.0,0.33,276.0,2700.0,29.53581382681524,3.5153447413223424,9491.430801570325,18.64286825874661,5.8366866509969215,10.89294556806863,2.321341909674579,32922,246,8144,18610,255.68458601608373,147.5010583859923,0.0030839510523539,False
0.25,0.9447531027675392,2.800000000000001,7325.0,81.52326,0.3,68900.0,0.33,276.0,2700.0,46.12547892557466,5.732959942221938,15478.991843999233,27.83718464571212,11.383540180824706,18.28829427986254,5.650580238602768,4314,108,1416,2184,313.2441891555163,180.6524299457762,0.0043114272274054,True
0.26,0.6839918661304619,2.800000000000001,7326.0,81.52326,0.3,68900.0,0.33,276.0,2700.0,27.63082513086816,3.5551961786931976,9599.029682471632,17.912525465102764,5.455800054764841,9.718299665765397,1.900603876071643,2832,82,928,1434,229.62392765810588,132.44200045417796,0.0027523328113767,False
0.27,0.93751765536751,2.800000000000001,7327.0,81.52326,0.3,68900.0,0.33,276.0,2700.0,44.88165482010763,6.017799421914129,16248.058439168148,27.53874971228467,11.183206144018987,17.342905107822958,5.1654067221048585,4081,106,1346,2056,290.303854832748,167.55113760916623,0.0039781343849802,True
0.28,0.588536954926281,2.800000000000001,7328.0,81.52326,0.05,68900.0,0.33,276.0,2700.0,21.331090831185232,2.940376555078198,7939.016698711135,14.706768906762148,3.900785732663589,6.624321924423084,0.9604091775853902,177075,396,22790,116718,225.35222839498948,128.23343484183903,0.0022175805083404,False
0.29,0.9672040684366932,2.800000000000001,7329.0,81.52326,0.3,68900.0,0.33,276.0,2700.0,46.44857872615666,6.683963713140456,18046.70202547923,28.77157770072998,12.018977169993931,17.67700102542668,5.335013456853476,4570,112,1512,2296,281.029054430022,162.21984402663247,0.0038814950567309,True
0.3,0.888305469074939,2.800000000000001,7330.0,81.52326,0.3,68900.0,0.33,276.0,2700.0,40.243113817617136,5.979918404877953,16145.779693170472,25.543840783125187,9.877300596240838,14.699273034491949,3.897382191362885,3914,102,1290,1973,254.45854067632905,146.863741860614,0.0033642886265037,False
0.31,0.9515659385089096,2.800000000000001,7331.0,81.52326,0.3,68900.0,0.33,276.0,2700.0,44.57881291895301,6.847321877942325,18487.76907044428,28.119391151436563,11.574150998321354,16.45942176751645,4.726829120379029,4135,106,1362,2086,260.11520598689145,150.01208460194658,0.003579903864204,False
0.32,0.6892828025401729,2.800000000000001,7332.0,81.52326,0.1,68900.0,0.33,276.0,2700.0,26.307350266001897,4.140546903845079,11179.476640381714,18.09691458470588,5.551061573280942,8.210435681296016,1.4105146694358623,37431,226,7148,22901,202.43021555240628,116.8406949052264,0.0023744047010353,False
0.33,0.6871438657351081,2.800000000000001,7333.0,81.52326,0.08,68900.0,0.33,276.0,2700.0,25.908353420320488,4.199612037558175,11338.952501407071,18.02228792125493,5.512433247971364,7.886065499065559,1.3128212104131889,65822,280,10944,41432,201.7466038742868,114.63722050902516,0.0023095810272567,False
0.34,0.8407671069322984,2.800000000000001,7334.0,81.52326,0.3,68900.0,0.33,276.0,2700.0,35.63577565112389,5.975763755586601,16134.562140083824,23.67458077273456,8.707644026762974,11.961194878389332,2.731880271176373,3502,94,1162,1753,218.90754432167256,126.30906346131071,0.0028094058862795,False
0.3500000000000001,1.0308926139490198,2.800000000000001,7335.0,81.52326,0.3,68900.0,0.33,276.0,2700.0,49.29603286047093,8.537008560567314,23049.923113531742,31.49118955829508,13.937460111147448,17.804843302175854,5.400451550580135,4683,114,1546,2358,253.1564115587687,146.08119352682124,0.0035650276139459,False
0.36,1.0497395853879845,2.800000000000001,7336.0,81.52326,0.3,68900.0,0.33,276.0,2700.0,50.42840208300685,8.979396277043985,24244.36994801876,32.31553562478916,14.53872785357703,18.11286645821768,5.559331576533044,4646,114,1538,2333,250.08327809682416,144.02533238764698,0.0035620823315833,False
0.37,0.7756108919679027,2.800000000000001,7337.0,81.52326,0.3,68900.0,0.33,276.0,2700.0,30.40814067000341,5.519418628829111,14902.4302978386,21.20483940633872,7.246136782613767,9.203301263664688,1.726718153784656,3182,88,1058,1589,187.8298523237833,108.04405961576067,0.0023694557617426,False
0.38,0.8521756525874739,2.800000000000001,7338.0,81.52326,0.1,68900.0,0.33,276.0,2700.0,35.22661580653061,6.578133355182298,17760.960058992205,24.1179974583282,8.980262822204994,11.108618348202413,2.402129467022696,53927,268,9486,33532,209.06031943432964,120.64012313101038,0.0026466811456769,False
0.39,0.8092836618057807,2.800000000000001,7339.0,81.52326,0.2,68900.0,0.33,276.0,2700.0,32.05345731431648,6.126186753212791,16540.704233674536,22.46788113595115,7.981347552005408,9.585576178365333,1.8551607987926169,8756,130,2214,4905,201.86102854983676,116.38271787227782,0.0024313074727289,False
0.4,0.894633967017045,2.800000000000001,7340.0,81.52326,0.2,68900.0,0.33,276.0,2700.0,37.573546203827085,7.380667954212257,19927.80347637309,25.79696802227761,10.039755166840148,11.776578181549477,2.659087212627892,10570,142,2626,5961,209.2122849891913,120.77489055786734,0.002685221710584,False
0.4100000000000001,0.8402922112818614,2.800000000000001,7341.0,81.52326,0.3,68900.0,0.33,276.0,2700.0,33.552970798755844,6.73401120889291,18181.830264010856,23.6561938896063,8.696405437477807,9.896776909149544,1.9623942285848972,3430,92,1132,1722,182.056484775093,104.95913249782602,0.0024090722494035,False
0.42,0.75582892923803,2.800000000000001,7342.0,81.52326,0.2,68900.0,0.33,276.0,2700.0,27.801580005910797,5.683162256895156,15344.538093616922,20.476120182651435,6.833887401172166,7.325459823259358,1.1507251442770103,7432,116,1846,4187,178.93703109641464,103.30115435483368,0.0021205806329901,False
0.43,0.8785074701533593,2.800000000000001,7343.0,81.52326,0.2,68900.0,0.33,276.0,2700.0,35.57231949363412,7.481529619725357,20200.129973258467,25.15392603513665,9.62893423395556,10.418393458497471,2.1474046142302026,9627,136,2404,5413,194.82064149893685,112.454792783797,0.0024770990227234,False
0.44,0.7967591758959316,2.800000000000001,7344.0,81.52326,0.08,68900.0,0.33,276.0,2700.0,29.870614638672357,6.393126268105656,17261.44092388527,21.99476807475669,7.702915754929766,7.875846563915665,1.3097894868241091,94191,300,12500,61785,195.39966198159092,111.5897238783962,0.0021843100869567,False
0.45,0.9594184179779796,2.800000000000001,7345.0,81.52326,0.3,68900.0,0.33,276.0,2700.0,40.66932930635073,8.959747340223334,24191.317818603,28.44610970854369,11.796239701305744,12.22321959780704,2.83649236108241,3974,102,1316,1986,188.7745742539739,108.12288878611868,0.0026115322034393,False
0.46,1.159129019571263,2.800000000000001,7346.0,81.52326,0.3,68900.0,0.33,276.0,2700.0,55.71831623549792,12.611352692477972,34050.65226969052,37.2763880754774,18.34229695437492,18.44192816002052,5.730944261896948,5335,122,1742,2692,229.8543542487102,132.51101047931914,0.0032818265245492,False
0.4700000000000001,0.78359268893777,2.800000000000001,7347.0,81.52326,0.08,68900.0,0.33,276.0,2700.0,28.254446416275943,6.422348525109082,17340.341017794522,21.501654091656484,7.416572997784685,6.75279232461946,0.9942244726756037,95031,290,11922,62848,188.94841496823943,106.56158435518353,0.0020425417636277,False
0.49,1.1637998298213332,2.800000000000001,7349.0,81.52326,0.3,68900.0,0.33,276.0,2700.0,55.05422191668332,13.241880880185953,35753.078376502075,37.49490587821991,18.516918004059807,17.559316038463407,5.275037123873855,5667,122,1738,2944,220.2623711185024,126.79552445944076,0.0031390159634364,False
0.5,1.1029970944083731,2.800000000000001,7350.0,81.52326,0.3,68900.0,0.33,276.0,2700.0,49.8708977978805,12.205925061670982,32955.99766651165,34.69321742461953,16.322771114289324,15.17768037326097,4.116846052618342,5175,114,1554,2716,210.98952896111484,121.67419022133504,0.002877946758422,False
0.05,0.3797138142625548,2.800000000000001,7355.0,84.54263999999999,0.1,68900.0,0.33,276.0,2700.0,15.658859672024716,0.3912096924128178,1056.266169514608,8.492126070117738,1.4976246010994676,7.1667336019069765,1.10641490868665,13032,170,4270,6621,660.6667058728731,378.5424139441389,0.0062741342253186,True
0.0699999999999999,0.5060217875660347,2.800000000000001,7357.0,84.54263999999999,0.2,68900.0,0.33,276.0,2700.0,22.18007206838157,0.7755841448732343,2094.0771911577326,12.120120598793871,2.795149778335966,10.059951469587691,2.019565633462731,4542,104,1484,2310,616.2424213830865,355.7855169173243,0.0064886378614041,True
0.08,0.4914639782393877,2.800000000000001,7358.0,84.54263999999999,0.2,68900.0,0.33,276.0,2700.0,21.04789903256292,0.8408436310100927,2270.2778037272506,11.681527364252704,2.621906313681523,9.366371668310212,1.7810626826714304,4526,102,1476,2306,520.0766602630544,300.266307769181,0.0055312518362596,True
0.09,0.4777863105484448,2.800000000000001,7359.0,84.54263999999999,0.2,68900.0,0.33,276.0,2700.0,19.986305418281507,0.8978569297930221,2424.2137104411595,11.27430384361094,2.4649205574019994,8.712001574670566,1.567063627608977,4452,102,1454,2265,462.049490872385,266.76200632691337,0.0047954735222257,True
0.0999999999999999,0.4549045701394912,2.800000000000001,7360.0,84.54263999999999,0.2,68900.0,0.33,276.0,2700.0,18.430193743758785,0.9194152920855476,2482.4212886309783,10.6035609040666,2.21464383792371,7.826632839692184,1.2952285458381625,3954,96,1300,1998,396.513219941219,228.92480311221485,0.0041022041335971,True
0.11,0.6796671881501383,2.800000000000001,7361.0,84.54263999999999,0.2,68900.0,0.33,276.0,2700.0,31.862489087243503,1.7496492599171076,4724.05300177619,17.76233301458908,5.378659086708247,14.100156072654425,3.629009826791139,6792,130,2220,3456,534.1840453643459,306.71621271489806,0.0061843588553408,True
0.12,0.5534143744713957,2.800000000000001,7362.0,84.54263999999999,0.1,68900.0,0.33,276.0,2700.0,23.570436480969352,1.4106070741212282,3808.639100127316,13.58484471961802,3.4040392387560603,9.985591761351332,1.993432164634832,19201,214,6324,9709,385.0218783362981,222.2426651619527,0.004397693598942,True
0.13,0.4948121133921368,2.800000000000001,7363.0,84.54263999999999,0.08,68900.0,0.33,276.0,2700.0,19.87246883336976,1.287109088129078,3475.194537948511,11.781927323077015,2.6611856437951675,8.090541510292741,1.3740765556660894,25495,242,8326,12910,326.9000312754427,188.67631881145348,0.0035740984977788,True
0.14,0.5072047449385406,2.800000000000001,7364.0,84.54263999999999,0.1,68900.0,0.33,276.0,2700.0,20.31063858177796,1.4159976805634902,3823.193737521424,12.155994371391753,2.809508579458761,8.15464421038621,1.3935108988952714,16584,196,5478,8361,310.4960137296107,179.07045352220942,0.0034424679042185,True
0.15,0.8450605825221089,2.800000000000001,7365.0,84.54263999999999,0.3,68900.0,0.33,276.0,2700.0,42.14014553898265,3.153442331953119,8514.294296273421,23.84107168532136,8.809647507982026,18.29907385366129,5.656205176028907,4144,104,1364,2092,475.9420367141869,274.4968302069818,0.0061777187346645,True
0.16,0.4855552894766524,2.800000000000001,7366.0,84.54263999999999,0.08,68900.0,0.33,276.0,2700.0,18.56436209243744,1.4765703250555926,3986.7398776501,11.50503184657532,2.553405664801721,7.059330245862119,1.0768353397461283,32220,234,7926,18263,272.21208004691744,157.01427774648627,0.0029243603222049,False
0.17,0.5721516538318313,2.800000000000001,7367.0,84.54263999999999,0.08,68900.0,0.33,276.0,2700.0,23.286843152855493,1.96909190485466,5316.548143107582,14.179513478202786,3.664139728916826,9.107329674652709,1.6950478240621658,39675,264,9770,22472,295.74057270810545,170.50196340799758,0.0033582710562546,True
0.18,0.841809301981536,2.800000000000001,7368.0,84.54263999999999,0.3,68900.0,0.33,276.0,2700.0,40.86207359280967,3.665372111115708,9896.504700012412,23.714952071418164,8.732338592650047,17.1471215213915,5.0669664815343385,4034,102,1318,2051,400.35722416544775,231.1328504578153,0.0051887568280334,True
0.19,0.6770518267929093,2.800000000000001,7369.0,84.54263999999999,0.3,68900.0,0.33,276.0,2700.0,29.221382986809505,2.761665927739586,7456.498004896882,17.671731789840972,5.332322682266135,11.549651196968531,2.570656754526549,3032,86,992,1538,315.9549487046459,182.32969934820693,0.0037210803288876,True
0.2,0.8871440175418837,2.800000000000001,7370.0,84.54263999999999,0.3,68900.0,0.33,276.0,2700.0,43.51978757985037,4.335223597165888,11705.103712347898,25.49749436619685,9.847659581043072,18.02229321365352,5.512435983877183,4176,106,1372,2112,382.2267587519857,220.23467738538065,0.0050455643949917,True
0.21,0.5303223950310724,2.800000000000001,7371.0,84.54263999999999,0.2,68900.0,0.33,276.0,2700.0,19.788904509333197,2.058438780436723,5557.784707179152,12.864108092752335,3.0986856909265703,6.9247964165808575,1.0402469104898473,4240,100,1398,2137,226.7322532737278,130.8684141588556,0.002546683406526,False
0.22,0.7312908201931779,2.800000000000001,7372.0,84.54263999999999,0.3,68900.0,0.33,276.0,2700.0,31.86603964401346,3.482963241791197,9404.000752836231,19.585862451904305,6.3423956963397465,12.280177192109154,2.859432454548549,3186,88,1044,1614,293.07613788904604,168.9220580927856,0.0035879326397492,True
0.23,0.9146038741167152,2.800000000000001,7373.0,84.54263999999999,0.3,68900.0,0.33,276.0,2700.0,44.53614182106038,5.096173804211128,13759.669271370049,26.602323863612465,10.56294298272216,17.933817957447918,5.466769178511033,4310,108,1420,2174,339.7130796103831,196.1279593328504,0.0046226957411864,True
0.24,0.866924988392879,2.800000000000001,7374.0,84.54263999999999,0.3,68900.0,0.33,276.0,2700.0,40.66457228668219,4.850795756505884,13097.148542565888,24.69610910061804,9.340243926940428,15.968463186064149,4.489448170434543,4056,104,1338,2043,315.044520090864,181.7253924846528,0.0041334742725999,True
0.25,0.8750987290483463,2.800000000000001,7375.0,84.54263999999999,0.3,68900.0,0.33,276.0,2700.0,40.92644041969573,5.083080128987063,13724.316348265069,25.018839724006043,9.543421332412509,15.907600695689688,4.460341203425444,4050,104,1334,2043,302.6211112092188,174.59716918802098,0.0040313363045758,True
0.26,0.6449128390468353,2.800000000000001,7376.0,84.54263999999999,0.1,68900.0,0.33,276.0,2700.0,25.205958093347167,3.2399634638154677,8747.901352301762,16.572410746571098,4.782106170862846,8.63354734677607,1.542142707047379,29296,224,7002,16773,232.301532495555,133.94516312437767,0.0026932627697938,False
0.27,0.7320378275063204,2.800000000000001,7377.0,84.54263999999999,0.3,68900.0,0.33,276.0,2700.0,30.423990671363807,4.066014761833708,10978.239856951011,19.612741006829577,6.357036517191032,10.81124966453423,2.291021755357324,3182,86,1042,1613,248.74851198125663,142.58124253756785,0.0063030146158561,False
0.28,0.6278747750964749,2.800000000000001,7378.0,84.54263999999999,0.1,68900.0,0.33,276.0,2700.0,23.64102460248127,3.2637672830596443,8812.171664261039,16.000149208087677,4.504629850131714,7.640875394393593,1.2408625670720697,28902,212,6422,16967,217.22685305160803,125.12452289567688,0.0024627823355134,False
0.29,0.8619478511168346,2.800000000000001,7379.0,84.54263999999999,0.3,68900.0,0.33,276.0,2700.0,38.6734130374107,5.556564688272282,15002.72465833516,24.500415151828,9.21781525781038,14.1729978855827,3.6612505695380992,3707,98,1224,1865,263.4971380951793,151.6663818777697,0.0034495325360732,False
0.3,0.7347296225646976,2.800000000000001,7380.0,84.54263999999999,0.1,68900.0,0.33,276.0,2700.0,29.73279196015053,4.403370126257967,11889.09934089651,19.7097125529934,6.409960469429535,10.023079407157134,2.0065903431715686,40872,244,8110,24777,266.349518050831,148.69224896948214,0.0027882508526664,False
0.31,0.9017772816728492,2.800000000000001,7381.0,84.54263999999999,0.3,68900.0,0.33,276.0,2700.0,40.895732703071545,6.276444444480695,16946.400000097874,26.08389560209597,10.225055070171834,14.81183710097557,3.9486106256911393,3943,102,1298,1990,260.381009042001,150.19380133605185,0.0034561659342623,False
0.32,1.00243532678548,2.800000000000001,7382.0,84.54263999999999,0.3,68900.0,0.33,276.0,2700.0,48.121828957842375,7.630863494539559,20603.33143525681,30.263414947742483,13.058824119852735,17.858414010099892,5.427960625313178,4538,112,1502,2279,274.8956876439917,158.4548345934675,0.0038660452424287,False
0.33,0.6866954520822943,2.800000000000001,7383.0,84.54263999999999,0.08,68900.0,0.33,276.0,2700.0,25.880811682838928,4.195067650873653,11326.682657358862,18.00665752490465,5.5043553126429705,7.874154157934278,1.309287661769318,65023,278,10880,40875,204.37908098621844,117.9351157293924,0.0023934753638824,False
0.34,0.967160490158676,2.800000000000001,7384.0,84.54263999999999,0.3,68900.0,0.33,276.0,2700.0,44.74606942655065,7.524513697409153,20316.186983004714,28.769751733368576,12.017723393968325,15.976317693182072,4.49320969655917,4427,110,1464,2225,253.59476919837977,146.18818765880735,0.0034881501117002,False
0.3500000000000001,0.8621766062553733,2.800000000000001,7385.0,84.54263999999999,0.3,68900.0,0.33,276.0,2700.0,36.81654891727385,6.353098870507818,17153.36695037111,24.50939582825783,9.223420880835564,12.30715308901602,2.8703220103277456,3513,96,1166,1758,226.36096207913727,130.57936079427665,0.0029350218342339,False
0.36,0.8764819087224596,2.800000000000001,7386.0,84.54263999999999,0.1,68900.0,0.33,276.0,2700.0,37.51216751156327,6.654474054184132,17967.079946297155,25.07361907543312,9.578064762289024,12.438548436130148,2.923590708104892,56100,280,10162,34709,233.0254689884777,132.74718758811878,0.0029673836719692,False
0.37,0.9489620095615424,2.800000000000001,7387.0,84.54263999999999,0.3,68900.0,0.33,276.0,2700.0,42.40923298160251,7.739620706474946,20896.975907482352,28.011391486473432,11.501070750424956,14.397841495129075,3.7614500439500103,4042,104,1340,2026,231.6779223696992,133.580731703264,0.0031611058568066,False
0.38,0.8868681647201486,2.800000000000001,7388.0,84.54263999999999,0.2,68900.0,0.33,276.0,2700.0,37.63227558050971,7.035208712238328,18995.063523043485,25.48649175201864,9.84062754287003,12.145783828491073,2.8054188306317016,9603,138,2460,5359,223.89468049980584,129.25981629449012,0.0028674086512003,False
0.39,0.7803513925452313,2.800000000000001,7389.0,84.54263999999999,0.2,68900.0,0.33,276.0,2700.0,30.16313986867508,5.757574851312782,15545.45209854451,21.380928702015893,7.347075488649326,8.782211166659188,1.5895006373365437,8320,126,2110,4655,203.43409024329068,117.43096710009932,0.002414165422483,False
0.4,0.7263603234080551,2.800000000000001,7390.0,84.54263999999999,0.2,68900.0,0.33,276.0,2700.0,26.48889496874649,5.16373770719613,13942.091809429552,19.40880681664964,6.2462644016398885,7.080088152096849,1.0825266944437582,7057,114,1778,3952,187.0814721704028,107.99246649740768,0.0021857074611645,False
0.4100000000000001,0.726792259233376,2.800000000000001,7391.0,84.54263999999999,0.1,68900.0,0.33,276.0,2700.0,26.258721329675154,5.238690067731367,14144.463182874691,19.42429334558312,6.25465110505528,6.834427984092038,1.0159610373239127,41627,222,7046,26068,184.77395269865963,106.67857478058724,0.0021565213213212,False
0.42,0.7445002457367692,2.800000000000001,7392.0,84.54263999999999,0.08,68900.0,0.33,276.0,2700.0,27.09537852309533,5.534859945503913,14944.121852860566,20.063228058354827,6.604261723454959,7.032150464740507,1.069401777951046,82180,284,11418,53535,194.43743932506928,111.32391347480213,0.0021763947531372,False
0.43,1.1072873777171053,2.800000000000001,7393.0,84.54263999999999,0.3,68900.0,0.33,276.0,2700.0,52.56774442825903,11.13554598066971,30065.97414780821,34.887859738702,16.47203221587525,17.679884689557035,5.336486235205539,4914,118,1634,2457,231.5953270789481,133.44453687902083,0.0033941645506308,False
0.44,0.921457589907856,2.800000000000001,7394.0,84.54263999999999,0.3,68900.0,0.33,276.0,2700.0,38.26418072183312,8.239710806401023,22247.21917728276,26.881033969955592,10.746222175521009,11.383146751877522,2.506511369119986,3713,98,1234,1856,199.6652452493112,114.80898221342407,0.0026301602271781,False
0.45,0.975626726173829,2.800000000000001,7395.0,84.54263999999999,0.3,68900.0,0.33,276.0,2700.0,41.844579033363,9.224178528801094,24905.282027762954,29.12539039556918,12.262799091711836,12.719188637793817,3.038620562910744,3912,102,1300,1950,199.93739851885107,115.05473470369164,0.0027647068135699,False
0.46,1.0670317221747696,2.800000000000001,7396.0,84.54263999999999,0.3,68900.0,0.33,276.0,2700.0,48.38973839121894,10.925779788293816,29499.6054283933,33.07972791837192,15.104128945369997,15.31001047284702,4.17834915707618,4690,112,1520,2372,211.0455264160624,121.61848038699527,0.0030520708283014,False
0.4700000000000001,0.9492855047480128,2.800000000000001,7397.0,84.54263999999999,0.3,68900.0,0.33,276.0,2700.0,39.343509124601184,9.028278261565523,24376.351306226912,28.024799391675,11.510134469362672,11.318709732926187,2.481856207797149,3838,98,1234,1951,330.0485652186659,189.2495856472457,0.002591736690967,True
0.4800000000000001,1.0217056912883205,2.800000000000001,7398.0,84.54263999999999,0.2,68900.0,0.33,276.0,2700.0,44.31032354623687,10.402854307932984,28087.706631419056,31.092599945022894,13.649985518092784,13.217723601213972,3.2471312101598,12573,158,3126,7092,209.54997261932508,120.9356095835228,0.0028218081837791,False
0.49,0.934263328730341,2.800000000000001,7399.0,84.54263999999999,0.3,68900.0,0.33,276.0,2700.0,37.701062057212255,8.99035671461555,24273.963129461983,27.40494998479037,11.093803843468766,10.29611207242188,2.103447128853217,3808,96,1168,1980,193.1439366031145,110.86167954006628,0.0024710716425698,False
0.5,1.0927048133452757,2.800000000000001,7400.0,84.54263999999999,0.3,68900.0,0.33,276.0,2700.0,49.07012256581572,12.005731253654776,32415.47438486789,34.22816149943412,15.968094296178636,14.841961066381591,3.96236304252386,4981,112,1488,2621,211.8988533320621,122.06886487125573,0.0029510087292116,False
0.06,0.6392637254225833,2.800000000000001,7406.0,87.56201999999999,0.2,68900.0,0.33,276.0,2700.0,30.78940506422432,0.9232297625848596,2492.7203589791206,16.38186412444828,4.689025326859545,14.407540939776036,3.765795564274685,6818,130,2236,3458,963.427977558991,551.1603024629826,0.0103661958325596,True
0.0699999999999999,0.3714787392727562,2.800000000000001,7407.0,87.56201999999999,0.05,68900.0,0.33,276.0,2700.0,14.7155511626521,0.5143259131727025,1388.6799655662967,8.269509899338413,1.428609106183824,6.446041263313687,0.9142831930111216,47802,326,15808,24084,472.8120236848466,272.05427734176607,0.0046461911790936,True
0.08,0.4043602566420744,2.800000000000001,7408.0,87.56201999999999,0.08,68900.0,0.33,276.0,2700.0,16.19711567606349,0.6468122967501145,1746.3932012253092,9.168569474204444,1.7152299026083488,7.028546201859045,1.0684176058582344,20918,216,6872,10604,436.0757428624413,250.84937237504283,0.0045360687557781,True
0.09,0.5841009002907029,2.800000000000001,7409.0,87.56201999999999,0.2,68900.0,0.33,276.0,2700.0,26.32393366498129,1.18305020089451,3194.2355424151765,14.56335693523816,3.8358639767816736,11.76057672974313,2.6528137758871635,5688,116,1860,2892,569.7001711880271,327.4769562062726,0.0063611409044964,True
0.0999999999999999,0.4303822416435177,2.800000000000001,7410.0,87.56201999999999,0.2,68900.0,0.33,276.0,2700.0,17.083372337765258,0.852074221785871,2300.600398821852,9.899334534249087,1.9632853541196893,7.184037803516169,1.1112111323338183,3560,92,1168,1802,396.5702429821723,228.9509873919701,0.0039820188620229,True
0.11,0.7324653816738879,2.800000000000001,7411.0,87.56201999999999,0.3,68900.0,0.33,276.0,2700.0,35.4481199341854,1.946858956498916,5256.519182547073,19.62813142149472,6.365425316300196,15.819988512690678,4.4185663598012805,3717,96,1208,1899,590.1241745759745,338.14443709526665,0.0070682904446754,True
0.12,0.4754492797632654,2.800000000000001,7412.0,87.56201999999999,0.2,68900.0,0.33,276.0,2700.0,19.046272292952203,1.1391572228401985,3075.724501668536,11.205194032599127,2.43865294484922,7.8410782603530755,1.299495722009021,3885,96,1276,1965,360.2906904821119,208.01226760382477,0.0037933217871935,True
0.13,0.824295405647868,2.800000000000001,7413.0,87.56201999999999,0.3,68900.0,0.33,276.0,2700.0,41.31239781841703,2.6807044721571494,7237.902074824303,23.040145006624865,8.322917882412003,18.272252811792168,5.642213410254854,4190,104,1378,2117,552.4050313998995,318.7958549222322,0.0070727235424927,True
0.14,0.7939567783262974,2.800000000000001,7414.0,87.56201999999999,0.3,68900.0,0.33,276.0,2700.0,38.768583031712566,2.7080537920589123,7311.745238559063,21.889447121995083,7.641425292017791,16.879135909717483,4.933371499958879,3831,100,1258,1938,499.8603816066852,288.460551337201,0.0062753968321097,True
0.15,0.6994208304658693,2.800000000000001,7415.0,87.56201999999999,0.3,68900.0,0.33,276.0,2700.0,31.91143200469181,2.3862888168813083,6442.979805579533,18.452190453097625,5.736327314724006,13.459241551594186,3.350038497842698,3126,88,1022,1587,421.6240118374391,243.33352235709916,0.0049868432907631,True
0.16,0.5961965968152068,2.800000000000001,7416.0,87.56201999999999,0.3,68900.0,0.33,276.0,2700.0,25.02050248053116,1.9930615561030909,5381.2662014783455,14.955559588345936,4.014386198391159,10.064942892185224,2.021324642288068,2659,80,868,1351,343.90375012257533,198.5470221511568,0.0038438997544656,True
0.17,0.7055723742635939,2.800000000000001,7417.0,87.56201999999999,0.3,68900.0,0.33,276.0,2700.0,31.695814686447942,2.683854485209959,7246.40711006689,18.66902366249764,5.850503214411803,13.026791023950306,3.166648729201844,3141,88,1032,1587,375.0689548765196,216.30679552472705,0.0044922324783017,True
0.18,0.5636233442188935,2.800000000000001,7418.0,87.56201999999999,0.2,68900.0,0.33,276.0,2700.0,22.506162528134286,2.013340115294927,5436.018311296302,13.907754726988424,3.544372568313757,8.598407801145862,1.5310324530188302,4745,108,1558,2402,288.6316085023475,166.115110639919,0.0032333516338035,True
0.19,0.8109698561155041,2.800000000000001,7419.0,87.56201999999999,0.3,68900.0,0.33,276.0,2700.0,38.302187888636624,3.6243423934131695,9785.724462215558,22.53187832255289,8.01928671113308,15.770309566083736,4.394944317719912,3706,98,1216,1876,383.38154781714536,221.33536135776183,0.0048611906656002,True
0.2,0.5305937965566236,2.800000000000001,7420.0,87.56201999999999,0.08,68900.0,0.33,276.0,2700.0,20.062017988380507,1.989446638018906,5371.505922651046,12.872501126555438,3.1021781683870198,7.189516861825069,1.1127315303681131,34957,242,8492,19899,252.8114959903188,145.7313448628398,0.0027750200767619,False
0.21,0.5294082928858701,2.800000000000001,7421.0,87.56201999999999,0.08,68900.0,0.33,276.0,2700.0,19.737219437968115,2.0530118479433903,5543.1319894471535,12.835853298339238,3.08693949760668,6.901366139628877,1.0339276496632896,35642,242,8474,20467,243.60216872870103,140.51161198209917,0.0026601572364819,False
0.22,0.7731737369122507,2.800000000000001,7422.0,87.56201999999999,0.3,68900.0,0.33,276.0,2700.0,34.69179430287143,3.793796254265575,10243.249886517053,21.11452935719177,7.194567381165276,13.577264945679657,3.4007711268997003,3526,94,1162,1777,315.9531292706299,182.34776301971704,0.0039887881119585,True
0.23,0.6933766824466281,2.800000000000001,7423.0,87.56201999999999,0.1,68900.0,0.33,276.0,2700.0,29.090442803398904,3.319918417180055,8963.779726386148,18.240069092266683,5.625441053246752,10.85037371113222,2.3055226360666974,32101,242,7906,18180,279.834305839217,161.5072517582399,0.0033675510967772,True
0.24,0.6099844814505306,2.800000000000001,7424.0,87.56201999999999,0.1,68900.0,0.33,276.0,2700.0,23.636414875284636,2.8074168671386737,7580.025541274419,15.407116082260728,4.223699243337229,8.229298793023904,1.4162823761985557,26436,214,6512,14974,244.85486780378665,141.33398910379643,0.0027938744301225,False
0.25,0.9485473470267988,2.800000000000001,7425.0,87.56201999999999,0.3,68900.0,0.33,276.0,2700.0,46.41568732341668,5.769235991952192,15576.937178270917,27.99420881452395,11.489459038483965,18.42147850889273,5.720223046531773,4339,108,1424,2197,338.1115824440039,195.16046560106005,0.0046562829857698,True
0.26,0.9185838830347584,2.800000000000001,7426.0,87.56201999999999,0.3,68900.0,0.33,276.0,2700.0,43.8008884417653,5.6573044091093845,15274.72190459534,26.764029379724256,10.669142131596857,17.036859062041046,5.011837722487471,4213,106,1380,2137,321.2577505272856,185.4782117603708,0.0042997703989216,True
0.27,0.7470581924156323,2.800000000000001,7427.0,87.56201999999999,0.3,68900.0,0.33,276.0,2700.0,31.408932101176237,4.198981854858383,11337.251008117631,20.156174619233383,6.655701232153797,11.252757481942847,2.456719377295414,3119,86,1026,1574,260.543510408085,150.23832625317357,0.0031831854217602,False
0.28,0.6569634355566731,2.800000000000001,7428.0,87.56201999999999,0.08,68900.0,0.33,276.0,2700.0,25.39914837325248,3.509904610967613,9476.742449612557,16.981561982118354,4.984275199103946,8.417586391134126,1.4743705881363325,57810,276,10634,35675,274.48042817126304,153.87385720842346,0.0027044007669732,False
0.29,0.8989252115827551,2.800000000000001,7429.0,87.56201999999999,0.3,68900.0,0.33,276.0,2700.0,41.341437191207774,5.943428190572857,16047.256114546712,25.96918188135363,10.150825606067023,15.372255309854143,4.207397415494168,3998,102,1312,2024,282.3936503407309,163.00871781413505,0.0037822606580257,True
0.3,0.750745343532724,2.800000000000001,7430.0,87.56201999999999,0.2,68900.0,0.33,276.0,2700.0,30.77349468222497,4.559475534569128,12310.583943336644,20.29044175963273,6.730267520549746,10.48305292259224,2.1707919859806184,6459,126,2136,3247,234.2093059864584,134.8639331961284,0.0029327637645039,False
0.31,0.93759056670645,2.800000000000001,7431.0,87.56201999999999,0.3,68900.0,0.33,276.0,2700.0,43.53241576636036,6.685130319290462,18049.851862084248,27.541750467661853,11.185214140526972,15.990665298698506,4.500083821236512,4142,106,1360,2096,276.01461463884766,159.06281433226204,0.0037713614903081,True
0.32,0.9658390754944314,2.800000000000001,7432.0,87.56201999999999,0.3,68900.0,0.33,276.0,2700.0,45.31813555410208,7.182272549941071,19392.13588484089,28.714405987690128,11.979743194314189,16.60372956641195,4.797470644373116,4440,110,1466,2235,277.3565736777881,159.80654222417027,0.0038035827545564,True
0.33,0.660566290554269,2.800000000000001,7433.0,87.56201999999999,0.1,68900.0,0.33,276.0,2700.0,24.29340204787939,3.933145061105397,10619.491664984573,17.104597627315755,5.04567884640403,7.188804420563635,1.1125337852986328,34917,216,6630,21384,206.8465919274027,119.38385437489345,0.0023762331655156,False
0.34,0.742517934644194,2.800000000000001,7434.0,87.56201999999999,0.2,68900.0,0.33,276.0,2700.0,29.108788492290437,4.8661759385849095,13138.675034179256,19.99131111939888,6.564561461109421,9.117477372891557,1.6983855225245117,6530,122,1990,3409,226.4404827596177,130.5664382703227,0.0026363293807018,False
0.3500000000000001,0.7454522563647246,2.800000000000001,7435.0,87.56201999999999,0.1,68900.0,0.33,276.0,2700.0,29.020121229549687,4.988724025156079,13469.554867921412,20.097801480239628,6.623378585123016,8.92231974931006,1.634654559966937,42286,238,7792,26074,215.57920524886487,124.4125362902659,0.0025973395364064,False
0.36,0.9707339563349182,2.800000000000001,7436.0,87.56201999999999,0.3,68900.0,0.33,276.0,2700.0,44.35144003164351,7.885543107798573,21290.966391056147,28.91964155359898,12.120798846216449,15.431798478044534,4.235255738417876,4310,108,1428,2162,251.7996301962676,145.2582615149895,0.0034583430978205,False
0.37,0.8334825683464673,2.800000000000001,7437.0,87.56201999999999,0.2,68900.0,0.33,276.0,2700.0,34.24663314032309,6.229539735838253,16819.757286763284,23.39316330687406,8.536211437404305,10.85346983344903,2.306671701566051,8849,134,2342,4878,229.0229514295568,132.20242187808785,0.0028175852031479,False
0.38,0.7156943259987063,2.800000000000001,7438.0,87.56201999999999,0.2,68900.0,0.33,276.0,2700.0,26.34983395219046,4.8915448028575526,13207.170967715392,19.027878057053535,6.041284152338052,7.32195589513692,1.149739349480499,6821,114,1774,3780,245.1981715808256,136.6672988697254,0.0022944318249336,False
0.39,1.0488991996869648,2.800000000000001,7439.0,87.56201999999999,0.3,68900.0,0.33,276.0,2700.0,49.32621468513429,9.494374440522323,25634.81098941027,32.278587906409925,14.511585865927316,17.047626778724364,5.017211425404993,4515,112,1496,2265,250.8120537134065,144.53994807465935,0.0035626567874695,False
0.4,0.7066533835438045,2.800000000000001,7440.0,87.56201999999999,0.05,68900.0,0.33,276.0,2700.0,25.28384902093422,4.922728517633674,13291.36699761092,18.707225958739883,5.870705248115884,6.5766230621943365,0.9479767304822097,275453,434,26816,188345,266.2163190402497,151.8661398058324,0.0022119807347868,False
0.4100000000000001,1.1006061800981208,2.800000000000001,7441.0,87.56201999999999,0.3,68900.0,0.33,276.0,2700.0,52.72809103405478,10.6649108571292,28795.25931424884,34.58494674863411,16.23995206585974,18.143144285420668,5.575041208730539,4924,118,1634,2467,292.1762630672964,168.6077081886568,0.0036346555602697,True
0.42,0.8861986319322386,2.800000000000001,7442.0,87.56201999999999,0.3,68900.0,0.33,276.0,2700.0,36.39277917233356,7.487314081843937,20215.74802097863,25.4597948462573,9.823572438848728,10.932984326076262,2.336258357004789,3561,94,1174,1792,203.12439315223023,116.48406689606826,0.0027023725665595,False
0.43,0.9183330438292951,2.800000000000001,7443.0,87.56201999999999,0.3,68900.0,0.33,276.0,2700.0,38.34172165227678,8.076951083833134,21807.76792634946,26.75382616951665,10.66242994344876,11.587895482760135,2.585478859615625,3715,98,1234,1858,212.92133923051907,122.6951481298739,0.002765031602106,False
0.44,1.0480888592958233,2.800000000000001,7444.0,87.56201999999999,0.3,68900.0,0.33,276.0,2700.0,47.587728665411,10.29089135398816,27785.40665576803,32.24297794524276,14.485443651587127,15.344750720168244,4.194552297598968,4397,110,1462,2198,225.5672823991711,129.6628828678868,0.003209418459127,False
0.45,0.949678155097472,2.800000000000001,7445.0,87.56201999999999,0.3,68900.0,0.33,276.0,2700.0,39.96942387629609,8.80226861846104,23766.125269844808,28.041077104559385,11.521141612235368,11.928346771736706,2.718872993774328,3680,98,1222,1841,201.2482161526067,116.04624654234811,0.0027745477808046,False
0.46,0.9555680920598846,2.800000000000001,7446.0,87.56201999999999,0.3,68900.0,0.33,276.0,2700.0,40.09035105314274,9.016920700536287,24345.68589144797,28.2857153377529,11.687021812677864,11.80463571538984,2.6701011121415767,3801,100,1260,1901,197.76822959320717,113.99124112450971,0.0027558882954664,False
0.4700000000000001,1.0196834902119527,2.800000000000001,7447.0,87.56201999999999,0.1,68900.0,0.33,276.0,2700.0,44.4726385931033,10.233623686663504,27630.78395399146,31.005148298572788,13.587198468743033,13.46749029453051,3.3535747820795265,79813,308,12006,51368,239.2271591301665,135.23262328853085,0.0029786472633534,False
0.4800000000000001,0.8628601671841698,2.800000000000001,7448.0,87.56201999999999,0.2,68900.0,0.33,276.0,2700.0,33.113869951542185,7.7157054452062575,20832.40470205689,24.53623951903961,9.240183720192324,8.577630432502573,1.524478274986068,8938,130,2232,5020,191.8501735355001,110.7284215699488,0.0023886200357283,False
0.49,0.8939924852791438,2.800000000000001,7449.0,87.56201999999999,0.1,68900.0,0.33,276.0,2700.0,34.9296276531514,8.31135528562063,22440.6592711757,25.77126419431725,10.023215127781604,9.158363458834144,1.7118598421609723,64388,266,9494,41553,215.5406963765544,121.80058961698798,0.0024631815847554,False
0.5,0.8798191785866103,2.800000000000001,7450.0,87.56201999999999,0.2,68900.0,0.33,276.0,2700.0,33.7009714354276,8.163443471057747,22041.297371855915,25.20598604181481,9.661962989913285,8.494985393612783,1.4985195188555362,8971,128,2204,5071,191.74847213296087,110.53278242764222,0.0023604269360271,False
0.06,0.4548251155545838,2.800000000000001,7456.0,90.5814,0.1,68900.0,0.33,276.0,2700.0,19.50631316890403,0.5847370057248938,1578.7899154572133,10.601254741155747,2.2138014280122325,8.905058427748282,1.6290644222873385,16381,194,5372,8317,859.505390488547,493.52538085108046,0.0450620705508701,True
0.0699999999999999,0.5808390009016837,2.800000000000001,7457.0,90.5814,0.1,68900.0,0.33,276.0,2700.0,26.72464443793588,0.9346441778076358,2523.5392800806167,14.458219441748684,3.788531318344707,12.266424996187194,2.853887140537071,22739,234,7464,11537,809.8390634428011,463.66230188605545,0.0082335613451018,True
0.08,0.4397591734915725,2.800000000000001,7458.0,90.5814,0.08,68900.0,0.33,276.0,2700.0,18.1224717415787,0.7238265393707846,1954.3316563011183,10.166834379640358,2.0573631765028035,7.955637361938342,1.333536637132019,23625,232,7772,11961,496.63090584286726,285.77579193855865,0.0051803524420165,True
0.09,0.5901908283818857,2.800000000000001,7459.0,90.5814,0.1,68900.0,0.33,276.0,2700.0,26.704170877630094,1.2001608754637112,3240.43436375202,14.760363087969342,3.925153176898332,11.943807789660756,2.724992301434621,22356,232,7352,11322,607.1139291062592,348.15169999065773,0.006661632155743,True
0.0999999999999999,0.6867972311864998,2.800000000000001,7460.0,90.5814,0.3,68900.0,0.33,276.0,2700.0,32.66067172183402,1.6309391909893078,4403.535815671131,18.010204805250886,5.506188194632854,14.650466916583134,3.875249003643546,3335,92,1094,1688,623.3124482662139,359.4354957407875,0.007350154293037,True
0.11,0.5893383277034344,2.800000000000001,7461.0,90.5814,0.2,68900.0,0.33,276.0,2700.0,26.053004376726744,1.430127600838686,3861.344522264452,14.73272900620064,3.912581737685985,11.320275370526105,2.482454136847299,5680,116,1852,2896,488.3418795605278,281.4894568228545,0.0055278225975259,True
0.12,0.5751356405184376,2.800000000000001,7462.0,90.5814,0.08,68900.0,0.33,276.0,2700.0,24.885299962978667,1.4894988830417848,4021.646984212819,14.275031358145904,3.7065936647514177,10.610268604832765,2.217094781709633,31809,276,10526,16012,433.0538332587532,249.3367539160189,0.0049431928504421,True
0.13,0.5778831548157022,2.800000000000001,7463.0,90.5814,0.3,68900.0,0.33,276.0,2700.0,24.763555013601465,1.6050296898441463,4333.580162579195,14.36317760739329,3.745935565602986,10.400377406208175,2.14090587575884,2813,80,920,1427,430.5861235745626,247.82344501169996,0.0046248955368137,True
0.14,0.4518868265590792,2.800000000000001,7464.0,90.5814,0.05,68900.0,0.33,276.0,2700.0,17.22545570165145,1.200034878954635,3240.0941731775138,10.516082566372528,2.1827770612299457,6.70937313527892,0.9827421822753112,84684,356,18556,49986,307.1633224102448,176.90881263770115,0.003243788718793,True
0.15,0.7316069859532394,2.800000000000001,7465.0,90.5814,0.3,68900.0,0.33,276.0,2700.0,34.08018596203274,2.5489453636818813,6882.15248194108,19.597236905543944,6.348589873468512,14.4829490564888,3.799644509786631,3574,94,1164,1822,451.7009330809993,260.6116554772541,0.0054706073515571,True
0.16,0.5915535626548002,2.800000000000001,7466.0,90.5814,0.2,68900.0,0.33,276.0,2700.0,24.737203031469296,1.9703976001781387,5320.073520480974,14.804574489729438,3.945297748454988,9.932628541739858,1.974900148276849,5185,112,1706,2620,343.0224935279156,197.9853724495636,0.003937453402662,True
0.17,0.8693260931479605,2.800000000000001,7467.0,90.5814,0.3,68900.0,0.33,276.0,2700.0,43.23959827767358,3.665076090464188,9895.705444253306,24.790739744677165,9.3996554519855,18.44885853299641,5.734579361521311,4227,106,1382,2148,471.01664907414033,271.5512955031479,0.006122967370684,True
0.18,0.5381621001602682,2.800000000000001,7468.0,90.5814,0.1,68900.0,0.33,276.0,2700.0,21.0204268116641,1.8796239008126128,5074.984532194056,13.107294891507538,3.20048875236581,7.913131920156564,1.3208648515531969,19872,200,5650,10705,291.5328838333422,168.30601789988708,0.0031774031390357,True
0.19,0.8001663506384873,2.800000000000001,7469.0,90.5814,0.3,68900.0,0.33,276.0,2700.0,37.53618816864104,3.55157242001358,9589.245534036669,22.123083900340976,7.778074287562113,15.413104268300064,4.226501867548533,3795,98,1248,1917,391.3861910901112,225.9552253133751,0.0049389154434268,True
0.2,0.5747047998285506,2.800000000000001,7470.0,90.5814,0.1,68900.0,0.33,276.0,2700.0,22.61774216388916,2.2450190555697707,6061.551450038381,14.261226257367014,3.7004463744599847,8.356515906522144,1.455427318890214,25285,210,6274,14272,279.1106228557245,161.10566738625647,0.0031409618384393,True
0.21,0.8074097177167253,2.800000000000001,7471.0,90.5814,0.3,68900.0,0.33,276.0,2700.0,37.39193989060757,3.906757495470537,10548.24523777045,22.396842001165304,7.939310574422822,14.99509788944227,4.032553078952285,3758,98,1224,1916,360.4121017228549,208.077438608951,0.0045564497729964,True
0.22,0.8890437696408546,2.800000000000001,7472.0,90.5814,0.3,68900.0,0.33,276.0,2700.0,42.96870557206063,4.704256493876395,12701.492533466266,25.57331946214681,9.896170509566511,17.39538610991382,5.191914015690118,4175,106,1376,2105,369.9976949622698,213.5831577336755,0.0049611976986895,True
0.23,0.5772826342644927,2.800000000000001,7473.0,90.5814,0.2,68900.0,0.33,276.0,2700.0,21.96918059674954,2.5009732634153634,6752.627811221481,14.343895396759049,3.7373159724045273,7.625285199990492,1.236342708989164,4639,104,1534,2332,240.70405336336543,138.92703780590762,0.0027857404520463,False
0.24,0.9333675261310692,2.800000000000001,7474.0,90.5814,0.3,68900.0,0.33,276.0,2700.0,45.60791475010069,5.443996852116602,14698.791500714826,27.368166305234087,11.069270895002903,18.239748444866603,5.625274042886303,4277,108,1404,2165,357.0153478512378,205.90723526396917,0.0048940297872369,True
0.25,0.7029872568426334,2.800000000000001,7475.0,90.5814,0.2,68900.0,0.33,276.0,2700.0,29.125741397376007,3.6079927511971057,9741.580428232186,18.577786076166188,5.802359562228855,10.54795532120982,2.194366811031749,6270,124,2078,3147,269.0427444706201,155.1789870882264,0.0032717963296866,False
0.26,0.8071124745961931,2.800000000000001,7476.0,90.5814,0.3,68900.0,0.33,276.0,2700.0,35.77240492911669,4.6136015524655045,12456.724191656862,22.38558195525093,7.932654940756924,13.386822973865756,3.31905338829142,3454,94,1136,1744,294.49560389019274,170.0271023174307,0.0037521081894675,True
0.27,0.6712072800059543,2.800000000000001,7477.0,90.5814,0.2,68900.0,0.33,276.0,2700.0,26.55106825126357,3.543170235120172,9566.559634824464,17.469886611547178,5.229629683937829,9.081181639716393,1.686459448817657,5628,118,1868,2820,238.6534379347408,137.75816742445284,0.0029038990352717,False
0.28,0.8396579004690379,2.800000000000001,7478.0,90.5814,0.3,68900.0,0.33,276.0,2700.0,37.41366015847488,5.19193626089875,14018.227904426623,23.63164365420818,8.681407844677786,13.782016504266704,3.489471583779036,3603,96,1192,1809,285.4977280549243,164.80524846499785,0.0036971139672625,True
0.29,0.7793986645625728,2.800000000000001,7479.0,90.5814,0.3,68900.0,0.33,276.0,2700.0,32.9652292415207,4.728878037868236,12767.970702244236,21.345493588958128,7.326722161402773,11.619735652562577,2.597844123534537,3417,92,1124,1725,258.67976780609246,149.27812526368368,0.003256872205969,False
0.3,0.6644027536041643,2.800000000000001,7480.0,90.5814,0.1,68900.0,0.33,276.0,2700.0,25.315557993817134,3.740785031307952,10100.119584531469,17.23596951997505,5.111551886626848,8.079588473842083,1.3707668553188963,34398,220,6834,20833,229.4504893603297,132.33341399673938,0.0026618354011895,False
0.31,0.7303636459546248,2.800000000000001,7481.0,90.5814,0.3,68900.0,0.33,276.0,2700.0,29.168492209571184,4.458722167988138,12038.549853567973,19.55252070016091,6.324251647710471,9.615971509410276,1.8655294797223332,2968,84,980,1492,229.01537425025512,132.16272157232464,0.0028542308371262,False
0.32,0.712130345648627,2.800000000000001,7482.0,90.5814,0.2,68900.0,0.33,276.0,2700.0,27.73223076978614,4.368527784450525,11795.025018016418,18.901230258783045,5.973694948783432,8.831000511003094,1.605167164332907,6031,120,1918,3084,215.95085093856423,124.4537202449967,0.0027094703628025,False
0.33,0.805932466806574,2.800000000000001,7483.0,90.5814,0.3,68900.0,0.33,276.0,2700.0,33.56037467877963,5.462195545203931,14747.927972050617,22.34090327380685,7.906266143711867,11.219471404972785,2.444070598507936,3292,90,1090,1651,237.92218110649156,137.32822314323897,0.0030449135006615,False
0.34,0.8897852095625295,2.800000000000001,7484.0,90.5814,0.3,68900.0,0.33,276.0,2700.0,39.07362249867024,6.56019771966948,17712.533843107598,25.60293727562556,9.915142568606482,13.470685223044685,3.354944848937002,3672,98,1216,1842,255.87456902620775,147.5889437656179,0.003351722162755,False
0.3500000000000001,0.7108158443609944,2.800000000000001,7485.0,90.5814,0.08,68900.0,0.33,276.0,2700.0,26.83839484789604,4.606921908366697,12438.689152590085,18.854599392916136,5.948879910194115,7.983795454979905,1.3419580018274182,70958,284,11198,45183,225.62114195192345,127.22143714532136,0.0025455841211611,False
0.36,0.8979287133297156,2.800000000000001,7486.0,90.5814,0.3,68900.0,0.33,276.0,2700.0,39.02918265474703,6.927536779957211,18704.34930588447,25.929149705292872,10.12496730975862,13.10003294945416,3.197430529801408,3728,98,1230,1877,240.62831680736429,138.73493925093095,0.0032354926768659,False
0.37,0.8715587321584148,2.800000000000001,7487.0,90.5814,0.3,68900.0,0.33,276.0,2700.0,36.86395381079408,6.713744059875311,18127.10896166334,24.87886094094214,9.45510257273958,11.98509286985194,2.7413585128642675,3597,96,1190,1806,233.14158258889935,134.2540119224938,0.0030398382092974,False
0.38,0.8218455319564597,2.800000000000001,7488.0,90.5814,0.3,68900.0,0.33,276.0,2700.0,33.17301983464689,6.187950120524394,16707.465325415862,22.946366448467867,8.266587340920935,10.22665338617902,2.078637220396541,3400,92,1128,1702,213.7859486126116,123.0800216345374,0.0027754150972092,False
0.39,0.8908643753233647,2.800000000000001,7489.0,90.5814,0.3,68900.0,0.33,276.0,2700.0,37.610201109062295,7.209751793188285,19466.32984160837,25.646070690931943,9.9427956533114,11.964130418130347,2.7330438601231144,3573,96,1184,1791,225.4340128295476,129.50043849287425,0.0029882877229652,False
0.4,0.7895825974781757,2.800000000000001,7490.0,90.5814,0.1,68900.0,0.33,276.0,2700.0,30.4866000930468,5.963278732056199,16100.852576551735,21.72544918961889,7.546035745234895,8.761150903427907,1.5827570131786963,48289,246,8280,30177,389.72861215621566,224.4365898791889,0.0025816609626516,True
0.4100000000000001,1.0948834570911228,2.800000000000001,7491.0,90.5814,0.3,68900.0,0.33,276.0,2700.0,52.2699293337356,10.57098770856376,28541.66681312216,34.32638121660053,16.042772237389546,17.943548117135073,5.4717845288257845,4728,116,1568,2370,255.49324841822363,147.22955135604934,0.0037331371905797,False
0.42,0.8680499780102389,2.800000000000001,7492.0,90.5814,0.2,68900.0,0.33,276.0,2700.0,35.145618869435445,7.225410418235341,19508.60812923542,24.7404283560473,9.36805171963671,10.405190513388144,2.14264130140137,9525,136,2388,5347,219.79745216558857,126.76495899760876,0.0027638707803084,False
0.43,0.9844436467110518,2.800000000000001,7493.0,90.5814,0.3,68900.0,0.33,276.0,2700.0,43.11495697294209,9.103196677776484,24578.631029996508,29.49767507491029,12.521235111142651,13.617281898031798,3.418038433366167,4018,104,1340,2002,223.9702975660478,128.894505547968,0.0031234027937476,False
0.44,0.7433144435617658,2.800000000000001,7494.0,90.5814,0.08,68900.0,0.33,276.0,2700.0,26.512484182605355,5.654337567770918,15266.71143298148,20.020196068608797,6.580496221191436,6.492288113996562,0.9261586534205176,83684,278,11168,54856,199.20621415796748,113.30727243656244,0.0022499755003452,False
0.45,0.8248408926943394,2.800000000000001,7495.0,90.5814,0.2,68900.0,0.33,276.0,2700.0,31.42123824827862,6.878926852157111,18573.1025008242,23.061046202922757,8.335491683387907,8.360192045355866,1.4565648312307964,8243,124,2070,4622,201.52171630339677,116.11819355204156,0.002568532101293,False
0.46,0.832626467538992,2.800000000000001,7496.0,90.5814,0.2,68900.0,0.33,276.0,2700.0,31.660611714855715,7.078080652730258,19110.8177623717,23.360177860485347,8.516198652155651,8.300433854370368,1.4381179994253932,8557,126,2150,4798,342.34835614743827,189.7149258012363,0.0024313689743699,True
0.4700000000000001,0.9569822025697948,2.800000000000001,7497.0,90.5814,0.3,68900.0,0.33,276.0,2700.0,39.89215423887323,9.157209863419435,24724.46663123248,28.344580140758573,11.727062554763055,11.54757409811466,2.569852691343621,4121,102,1324,2093,213.7623811278583,123.0847855188366,0.0028110146841487,False
0.4800000000000001,0.8539328000289079,2.800000000000001,7498.0,90.5814,0.2,68900.0,0.33,276.0,2700.0,32.52225480033368,7.573717808916211,20449.03808407377,24.18658333337929,9.022701946116095,8.335671466954391,1.4489841371998864,8609,126,2128,4859,194.85453802127748,112.33885050399454,0.0024386431601878,False
0.49,1.1146427760970887,2.800000000000001,7499.0,90.5814,0.3,68900.0,0.33,276.0,2700.0,51.11505568204607,12.27678515269983,33147.31991228954,35.222637140750955,16.729876700013218,15.892418541295116,4.453091547313388,5113,116,1588,2645,220.69057451913736,127.13839382162516,0.0032844714390393,False
0.5,0.9881263760871212,2.800000000000001,7500.0,90.5814,0.2,68900.0,0.33,276.0,2700.0,41.23547636595009,10.047069703688395,27127.088199958667,29.65375269907313,12.630154356883471,11.581723666876956,2.583084653195078,11480,148,2812,6510,211.4347506835324,121.9485521726948,0.0028055289128747,False
0.01,0.3825124656688601,3.200000000000001,7501.0,3.01938,0.05,68900.0,0.33,276.0,2700.0,18.763114542400118,0.0938134783168975,253.29639145562348,9.52952785166629,1.70536330467613,9.233586690733825,1.6115498263592325,61347,370,20302,30888,122.87328072064284,69.93257354889826,0.0011611251256184,False
0.02,0.5179255617696084,3.200000000000001,7502.0,3.01938,0.1,68900.0,0.33,276.0,2700.0,26.911367107513303,0.2690969159143101,726.5616729686374,13.784401100660464,3.278668509213766,13.12696600685284,3.009571593299456,22419,228,7426,11274,76.46830891193817,43.60864838465975,0.0008528697177185,False
0.03,0.5995261862153949,3.200000000000001,7503.0,3.01938,0.1,68900.0,0.33,276.0,2700.0,32.097972843450606,0.4814130439840008,1299.815218756802,16.570940497163345,4.516037932427476,15.52703234628726,4.034624888443475,26310,250,8658,13317,65.13030225321661,37.10896748916488,0.0006916094221329,False
0.04,0.5274818572897034,3.200000000000001,7504.0,3.01938,0.1,68900.0,0.33,276.0,2700.0,26.88974118821988,0.5376607824778437,1451.684112690178,14.102082657720068,3.411912421325134,12.787658530499812,2.8742516388472903,22403,228,7358,11360,56.721746578219886,30.42443731678966,0.0004654441916852,False
0.05,0.5257505424673501,3.200000000000001,7505.0,3.01938,0.1,68900.0,0.33,276.0,2700.0,26.45414470404108,0.6610918182132276,1784.9479091757146,14.044358021694215,3.3875472572216845,12.409786682346866,2.7264554390084568,22106,226,7248,11228,34.44366186963764,19.705123967177908,0.0003639781157638,False
0.06,0.496818908200875,3.200000000000001,7506.0,3.01938,0.1,68900.0,0.33,276.0,2700.0,24.271445860595083,0.7276909864757344,1964.7656634844827,13.090881884401345,2.995064558671302,11.18056397619374,2.2673735721955675,20214,214,6636,10254,26.63367334783088,15.238728739718605,0.0002872212125726,False
0.0699999999999999,0.4362204825280515,3.200000000000001,7507.0,3.01938,0.05,68900.0,0.33,276.0,2700.0,20.210635799872318,0.7066538754754094,1907.9654637836047,11.161966624046638,2.26068840069089,9.048669175825676,1.5540345252154806,66221,384,21866,33416,19.63336767816981,11.27299578314121,0.0002136090293823,False
0.08,0.6882484974937564,3.200000000000001,7508.0,3.01938,0.1,68900.0,0.33,276.0,2700.0,36.66926536238311,1.4656982842029005,3957.385367347831,19.790570870087183,6.127613891089832,16.878694492295924,4.661915606886931,30684,272,10062,15585,28.291433082719568,16.223999925334844,0.000328271202167,False
0.09,0.5200017231887871,3.200000000000001,7509.0,3.01938,0.2,68900.0,0.33,276.0,2700.0,24.822462311185888,1.1154839899737197,3011.8067729290437,13.853224132471263,3.307358576084017,10.969238178714624,2.191874586110297,5310,112,1742,2691,17.640015218996613,10.18054032258406,0.0002085698355453,False
0.0999999999999999,0.7281359039955717,3.200000000000001,7510.0,3.01938,0.3,68900.0,0.33,276.0,2700.0,38.89004565286675,1.9424078875409547,5244.501296360578,21.30250318523331,6.947029053160301,17.587542467633444,5.004621165619346,3874,98,1266,1969,22.03063723288194,12.69503155608115,0.0002875840498288,False
0.11,0.5022259746083415,3.200000000000001,7511.0,3.01938,0.1,68900.0,0.33,276.0,2700.0,23.086876571777815,1.2669905715664924,3420.874543229529,13.267479707935118,3.066324933343974,9.8193968638427,1.7993343617774815,19066,208,6286,9631,13.61162107207294,7.851710478333232,0.0001664081902937,False
0.12,0.6027344318655755,3.200000000000001,7512.0,3.01938,0.1,68900.0,0.33,276.0,2700.0,29.318241252332765,1.7554753604030324,4739.783473088188,16.683916447064444,4.569382738335796,12.63432480526832,2.813907377932764,24110,238,7958,12167,14.910073129897052,8.587812667559419,0.0001913401669027,False
0.13,0.7967861152183002,3.200000000000001,7513.0,3.01938,0.3,68900.0,0.33,276.0,2700.0,42.99190887933361,2.78987269111672,7532.656266015145,23.99832340301594,8.501307093155724,18.993585476317666,5.711434402039004,3981,102,1310,2010,18.57410032006728,10.669524605515331,0.0002529534552311,False
0.14,0.444985778774056,3.200000000000001,7514.0,3.01938,0.08,68900.0,0.33,276.0,2700.0,18.7362469764029,1.3057902681872366,3525.633724105539,11.435266434976125,2.359722711289737,7.3009805414267746,1.0539324431025008,25556,228,7852,13316,10.33447467131542,5.941291900664465,0.0001170510525092,False
0.15,0.7681134743869811,3.200000000000001,7515.0,3.01938,0.3,68900.0,0.33,276.0,2700.0,40.087045150083945,2.9994598027857173,8098.541467521437,22.857975168308013,7.829609553182854,17.229069981775933,4.830149750397137,3934,100,1284,2002,15.64084004396105,9.022158135910733,0.0002113084601724,False
0.16,0.7290729033089394,3.200000000000001,7516.0,3.01938,0.3,68900.0,0.33,276.0,2700.0,36.84993379709522,2.9394160614282026,7936.423365856147,21.33850084258049,6.967006347185021,15.511432954514728,4.027590285756818,3543,92,1156,1803,14.024633121443818,8.091164194272782,0.0001861067912579,False
0.17,0.6034203861040929,3.200000000000001,7517.0,3.01938,0.3,68900.0,0.33,276.0,2700.0,27.78317262459337,2.3512799099523773,6348.455756871419,16.708105375839477,4.58083543711084,11.075067248753893,2.229555527158463,2858,82,932,1454,11.30323192352582,6.507116780513975,0.0001396954841946,False
0.18,0.5364031354777206,3.200000000000001,7518.0,3.01938,0.1,68900.0,0.33,276.0,2700.0,23.16285647745301,2.0724425707336134,5595.594940980756,14.40072571108273,3.539051675525125,8.762130766370282,1.4666091047915115,22230,208,6306,11981,9.700512848921,5.588313754929489,0.0001162463323107,False
0.19,0.7216659409406547,3.200000000000001,7519.0,3.01938,0.2,68900.0,0.33,276.0,2700.0,35.29643955146752,3.3387963013820974,9014.750013731664,21.054542237515065,6.810005360896291,14.241897313952457,3.4712090595141936,7289,134,2400,3683,11.627683320074905,6.704680450691905,0.0001569227505878,False
0.2,0.5035851373896486,3.200000000000001,7520.0,3.01938,0.05,68900.0,0.33,276.0,2700.0,20.5740938243456,2.040654221615412,5509.766398361612,13.311986292647342,3.084387838552843,7.262107531698257,1.0437336169374314,130240,386,22036,81678,8.760843215415969,4.898312973210543,9.987247081631476e-05,False
0.21,0.6609041860122618,3.200000000000001,7521.0,3.01938,0.3,68900.0,0.33,276.0,2700.0,30.398079711472462,3.172402176661345,8565.485876985633,18.77718670472436,5.600352324230314,11.6208930067481,2.427950147568968,2966,84,962,1517,10.12203484721298,5.843915452891057,0.0001287912039363,False
0.22,0.6229108629492777,3.200000000000001,7522.0,3.01938,0.08,68900.0,0.33,276.0,2700.0,27.54133582687378,3.007245821905822,8119.563719145719,17.4003433006734,4.913214894751768,10.140992526200382,1.905969072845946,50533,284,11490,29470,9.191188141432583,5.303364122916623,0.0001164583002729,False
0.23,0.5937440782820589,3.200000000000001,7523.0,3.01938,0.08,68900.0,0.33,276.0,2700.0,25.34414321418043,2.8890939644199296,7800.55370393381,16.36798116907039,4.420810137158036,8.97616204511004,1.5317161727381068,50940,272,10664,30472,8.592799757661211,4.959600094384633,0.0001064180366023,False
0.24,0.6457878330647888,3.200000000000001,7524.0,3.01938,0.1,68900.0,0.33,276.0,2700.0,28.453112578450085,3.385420591518528,9140.635597100025,18.225038193137117,5.320690212884192,10.228074385312972,1.935269621365664,31818,234,7820,18032,8.854522587984716,5.111334213100589,0.0001128011403384,False
0.25,0.8321813142070342,3.200000000000001,7525.0,3.01938,0.3,68900.0,0.33,276.0,2700.0,41.39916692235555,5.142170941819545,13883.861542912771,25.434533205518395,9.376057117802594,15.964633716837152,4.233886175983049,4153,102,1368,2095,10.376210366220905,5.989129440558287,0.0001464356807992,False
0.26,0.92574266373771,3.200000000000001,7526.0,3.01938,0.3,68900.0,0.33,276.0,2700.0,48.33766671669685,6.24708558485093,16867.13107909751,29.382533724943357,11.938721166033364,18.955132991753494,5.691635581182434,4484,108,1476,2264,11.031156222618463,6.349948650211162,0.0001622939412097,False
0.27,0.7834517580335661,3.200000000000001,7527.0,3.01938,0.3,68900.0,0.33,276.0,2700.0,37.10189496277613,4.967531841174372,13412.335971170804,23.465428515674937,8.184862748085841,13.636466447101192,3.217330906911469,3564,94,1174,1797,9.252225081497532,5.329117715461286,0.000126812142894,False
0.28,0.8925056031977792,3.200000000000001,7528.0,3.01938,0.3,68900.0,0.33,276.0,2700.0,44.984431226293495,6.251844210393316,16879.979368061955,27.95483663452943,10.985935241131669,17.029594591764067,4.734091030738353,4257,104,1398,2154,10.034908518797502,5.770789946113485,0.0001447248513971,False
0.29,0.8651145610741564,3.200000000000001,7529.0,3.01938,0.2,68900.0,0.33,276.0,2700.0,42.51890003348291,6.114160302702709,16508.232817297314,26.799123672456616,10.23609426572136,15.719776361026293,4.12193396301865,8576,150,2846,4301,9.338167612405089,5.385449137159048,0.0001348066977641,False
0.3,0.6478710242939587,3.200000000000001,7530.0,3.01938,0.08,68900.0,0.33,276.0,2700.0,26.81586069458833,3.9658304364236336,10707.742178343811,18.300788837568923,5.358735335204303,8.515071857019407,1.3929048987806691,63779,278,11202,39698,7.611189421831519,4.338131717716831,9.472430965937996e-05,False
0.31,0.793413926099265,3.200000000000001,7531.0,3.01938,0.3,68900.0,0.33,276.0,2700.0,36.51937148963853,5.598108456398583,15114.892832276171,23.863134917407105,8.420608228985655,12.656236572231428,2.822499772587072,3455,94,1140,1739,8.349754889680726,4.814121491250215,0.0001720960823321,False
0.32,0.6871484482623558,3.200000000000001,7532.0,3.01938,0.1,68900.0,0.33,276.0,2700.0,28.82531906188929,4.543421911187068,12267.239160205085,19.74944009450831,6.105865914542258,9.07587896738098,1.5624440033551892,41765,234,7970,25566,7.482902494860864,4.319043988088565,9.590833039223677e-05,False
0.33,0.6517480505175473,3.200000000000001,7533.0,3.01938,0.08,68900.0,0.33,276.0,2700.0,26.21208051096513,4.249727007514542,11474.262920289264,18.44205870921809,5.429961704883616,7.770021801747038,1.180234697369074,66079,276,11056,41515,7.068653806443812,4.079268933492181,8.860027195361144e-05,False
0.34,0.9440164190192034,3.200000000000001,7534.0,3.01938,0.2,68900.0,0.33,276.0,2700.0,46.90844408808264,7.892117389869585,21308.71695264788,30.179311093365115,12.482917673866575,16.729132994717524,4.59080028399699,9856,156,3110,5067,9.14944690965769,5.28118407009235,0.0001310017081555,False
0.3500000000000001,0.6565359938306955,3.200000000000001,7535.0,3.01938,0.05,68900.0,0.33,276.0,2700.0,25.96110390079942,4.453395992624792,12024.169180086938,18.61704163934088,5.518679910853862,7.344062261458539,1.0652839182290703,253499,434,27798,170884,8.176814594980248,4.642632973651673,8.551472050771783e-05,False
0.36,0.6990805562458057,3.200000000000001,7536.0,3.01938,0.08,68900.0,0.33,276.0,2700.0,28.459650498243025,5.025020991786263,13567.556677822911,20.197205099514026,6.344186198523798,8.262445398729,1.3191652067375346,76224,286,11788,48784,7.290266679472843,4.129650955597769,8.930444012305604e-05,False
0.37,0.8101019598987793,3.200000000000001,7537.0,3.01938,0.2,68900.0,0.33,276.0,2700.0,35.81768981650795,6.520185220932478,17604.50009651769,24.534937883049,8.824432832734454,11.282751933458954,2.3042476118019755,8716,134,2382,4749,7.7588853294145235,4.479384922624728,0.0001023568824149,False
0.38,0.9397058858908776,3.200000000000001,7538.0,3.01938,0.3,68900.0,0.33,276.0,2700.0,45.180835677264575,8.469435130621756,22867.47485267874,29.990605670668547,12.353235631842358,15.190230006596028,3.883800501220602,4114,102,1366,2059,8.026728759680083,4.631976993452508,0.0001183569362767,False
0.39,1.0819061313775755,3.200000000000001,7539.0,3.01938,0.2,68900.0,0.33,276.0,2700.0,56.38976088311048,10.871765949127685,29353.768062644744,36.46221262058018,17.07201690690326,19.92754826253029,6.200250957775578,14351,174,3632,8051,9.113521088191778,5.249864385261415,0.0001392808282756,False
0.4,1.0209758850902306,3.200000000000001,7540.0,3.01938,0.3,68900.0,0.33,276.0,2700.0,50.95821168113769,10.057601049674377,27155.522834120813,33.627019332161936,14.937213583353282,17.331192348975755,4.879612533678907,4831,112,1610,2410,8.257039767786365,4.759444895752635,0.0001255764778982,False
0.4100000000000001,0.961964712353066,3.200000000000001,7541.0,3.01938,0.1,68900.0,0.33,276.0,2700.0,45.89651015635115,9.264436777199954,25013.97929843988,30.97006727782776,13.031669054408972,14.926442878523392,3.7672322772090174,72960,306,12162,45891,8.152062929027657,4.601912645180577,0.0001156761206512,False
0.42,0.9529787762221772,3.200000000000001,7542.0,3.01938,0.2,68900.0,0.33,276.0,2700.0,44.85901522622532,9.265223653161202,25016.103863535245,30.57315773699392,12.755158829440491,14.2858574892314,3.4899351762792907,11960,152,2978,6733,7.830578087820752,4.520952185618884,0.0001117599412103,False
0.43,0.7586132105576368,3.200000000000001,7543.0,3.01938,0.2,68900.0,0.33,276.0,2700.0,30.448855336788966,6.379984826003655,17225.95903020987,22.484694541867487,7.614227686527723,7.964160794921479,1.234242860524068,8064,120,2010,4539,6.595048176153442,3.807615189812692,8.48924392923809e-05,False
0.44,1.0849042299781615,3.200000000000001,7544.0,3.01938,0.2,68900.0,0.33,276.0,2700.0,54.79706888501169,11.8769462023003,32067.75474621081,36.604128022686574,17.18154689727831,18.19294086232512,5.304600694978008,14816,174,3674,8361,8.258228270197124,4.7676047072146455,0.0001260481584101,False
0.45,0.895576265708714,3.200000000000001,7545.0,3.01938,0.1,68900.0,0.33,276.0,2700.0,39.53931992818889,8.705495230136918,23504.83712136968,28.08557283130365,11.071975772714332,11.453747096885234,2.3664805425774134,68951,278,10682,44098,7.506727955734109,4.2170811309966645,9.873905391205684e-05,False
0.46,1.0475554838258716,3.200000000000001,7546.0,3.01938,0.2,68900.0,0.33,276.0,2700.0,51.004026738481926,11.5270661081643,31123.07849204361,34.85234215080164,15.847251230116017,16.151684587680286,4.320185121951717,13685,164,3368,7745,7.830183330534079,4.51867906489205,0.0001163132914299,False
0.4700000000000001,0.8606344377021407,3.200000000000001,7547.0,3.01938,0.2,68900.0,0.33,276.0,2700.0,36.38362772374409,8.332706132364097,22498.30655738306,26.611887693108613,10.116450493883807,9.771740030635478,1.7837443615197124,9968,136,2456,5632,6.608897850175187,3.811352443584701,9.085535288877148e-05,False
0.4800000000000001,0.853389117603019,3.200000000000001,7548.0,3.01938,0.2,68900.0,0.33,276.0,2700.0,35.56958446314726,8.305076927991465,22423.707705576955,26.3101545391424,9.924732722331433,9.25942992400486,1.619655794339968,9185,130,2260,5193,6.548343899052668,3.780675558409533,8.86229696263542e-05,False
0.49,1.1319029291745972,3.200000000000001,7549.0,3.01938,0.3,68900.0,0.33,276.0,2700.0,56.94240966552075,13.704486878651116,37002.11457235801,38.85834605800384,18.95464852891826,18.08406360751691,5.250161650267144,5459,118,1746,2782,7.532715721267097,4.341898432180269,0.0001205694854841,False
0.5,1.0064051866556645,3.200000000000001,7550.0,3.01938,0.2,68900.0,0.33,276.0,2700.0,46.36732153479971,11.330030995900806,30591.083688932176,32.962842968212875,14.45208966104122,13.404478566586832,3.122058665140413,12401,152,3016,7041,7.166677030173293,4.133068534529885,0.0001036732163952,False
0.01,0.6490238934121919,3.200000000000001,7551.0,6.03876,0.05,68900.0,0.33,276.0,2700.0,36.32259172524315,0.1816108642311137,490.349333424007,18.34275725682765,5.379857938332481,17.9798344684155,5.198247074101368,117934,538,39104,59272,426.1170628892022,242.52102428093383,0.0044435517298966,True
0.03,0.6507919860053066,3.200000000000001,7553.0,6.03876,0.1,68900.0,0.33,276.0,2700.0,35.73181201808268,0.5359206316034782,1446.9857053293913,18.407186835679425,5.412346578729751,17.324625182403253,4.876425947126273,29598,266,9720,15012,199.7033874296408,114.80824253110532,0.0026815773466674,False
0.04,0.5789509493840279,3.200000000000001,7554.0,6.03876,0.1,68900.0,0.33,276.0,2700.0,30.33893033745736,0.6066445654625982,1637.940326749015,15.85254841979648,4.182495693613765,14.486381917660877,3.5758511281511667,25090,244,8226,12745,360.6692080924153,198.8198755297638,0.0010082413068607,True
0.05,0.6909717112799147,3.200000000000001,7555.0,6.03876,0.1,68900.0,0.33,276.0,2700.0,37.94285063207706,0.9483094664138776,2560.4355593174696,19.892522507743852,6.181646622276317,18.050328124333205,5.23333715586244,31746,278,10406,16131,98.17697843993427,56.04483800865591,0.0010200903268417,False
0.06,0.5387402296554988,3.200000000000001,7556.0,6.03876,0.1,68900.0,0.33,276.0,2700.0,26.98504910648785,0.8090990838521109,2184.5675264006995,14.479291439069778,3.572799308757576,12.505757667418068,2.7637002249054645,22372,228,7332,11368,60.87104287074033,34.82251640443884,0.0006331002761573,False
0.0699999999999999,0.6710408652820086,3.200000000000001,7557.0,6.03876,0.2,68900.0,0.33,276.0,2700.0,35.774908126806054,1.2514034069180855,3378.789198678832,19.15066158453793,5.792581359527903,16.62424654226812,4.541177952609817,7471,136,2456,3781,57.5532936034882,32.94823328998439,0.0007200975216035,False
0.08,0.418871562859437,3.200000000000001,7558.0,6.03876,0.08,68900.0,0.33,276.0,2700.0,18.88318759373581,0.7542551734570082,2036.4889683339225,10.626724754117546,2.0716942089275605,8.256462839618262,1.3174390354705523,24194,232,7972,12230,30.824694128878622,17.789089420964324,0.0003605192137046,False
0.09,0.4650329870443056,3.200000000000001,7559.0,6.03876,0.08,68900.0,0.33,276.0,2700.0,21.37553438061105,0.9603722330978542,2593.0050293642066,12.067591991230344,2.595289186109494,9.307942389380706,1.63491695301164,27699,250,9128,14001,33.29895620503291,19.20602279862626,0.0003653802265025,False
0.0999999999999999,0.7398202690186417,3.200000000000001,7560.0,6.03876,0.2,68900.0,0.33,276.0,2700.0,39.76161602634739,1.9859864062149732,5362.163296780428,21.752971378100945,7.198563652699392,18.008644648246445,5.212577246484419,8395,146,2754,4258,46.44320382431272,26.632699737825764,0.0005860302008107,False
0.11,0.6660961994780967,3.200000000000001,7561.0,6.03876,0.2,68900.0,0.33,276.0,2700.0,34.03519759734034,1.8691482279724307,5046.700215525563,18.96815815833727,5.698339200497215,15.067039439003072,3.829190972524784,7038,132,2312,3564,36.28696238922031,20.840558336718026,0.0004701401970022,False
0.12,0.4947764496752047,3.200000000000001,7562.0,6.03876,0.1,68900.0,0.33,276.0,2700.0,22.324732450430236,1.3358648322888815,3606.83504717998,13.024365244315268,2.968394921942358,9.300367206114965,1.6325300896534765,18415,204,6070,9304,29.787707535141745,17.08570775732006,0.0002988785423738,False
0.13,0.7094735332762396,3.200000000000001,7563.0,6.03876,0.1,68900.0,0.33,276.0,2700.0,36.46079123028933,2.3653500439288533,6386.445118607904,20.59012828417634,6.55613475687824,15.870662946112985,4.190784712949387,30391,272,10044,15319,33.62964667534436,19.36570858459492,0.0004354804488867,False
0.14,0.6370314055449001,3.200000000000001,7564.0,6.03876,0.3,68900.0,0.33,276.0,2700.0,31.00563111090422,2.164647157602327,5844.547325526283,17.90782281514849,5.1624942298069225,13.09780829575573,2.997847072204596,3000,86,986,1515,28.537391009137743,16.412910002902425,0.0003557123279543,False
0.15,0.5847032269115584,3.200000000000001,7565.0,6.03876,0.2,68900.0,0.33,276.0,2700.0,27.167174869546216,2.0304695317453887,5482.267735712549,16.05231985640203,4.274258123378304,11.114855013144188,2.243788591632915,5649,116,1854,2862,23.929235140580445,13.812527213347275,0.0003010471882643,False
0.16,0.4875710367674811,3.200000000000001,7566.0,6.03876,0.05,68900.0,0.33,276.0,2700.0,20.72515732957293,1.6494339440264345,4453.471648871373,12.790544295376248,2.875392164231057,7.934613034196682,1.2259582202046224,119558,390,22486,73515,19.480882876298708,11.238070937916362,0.0002319771692316,False
0.17,0.5051497045270821,3.200000000000001,7567.0,6.03876,0.08,68900.0,0.33,276.0,2700.0,21.51338274082498,1.8183477698319963,4909.53897854639,13.363276447067376,3.1052554502641336,8.150106293757604,1.286907680432137,36967,248,9118,20926,19.049631618432787,10.996467293725765,0.0002287943735081,False
0.18,0.8443577273394733,3.200000000000001,7568.0,6.03876,0.3,68900.0,0.33,276.0,2700.0,44.84002594904729,4.0233878231771,10863.147122578172,25.935887322951004,9.68880706828589,18.904138626096284,5.665419245108789,4244,104,1394,2147,28.56129920768988,16.465990168522428,0.0004035277283265,False
0.19,0.7205759969278778,3.200000000000001,7569.0,6.03876,0.2,68900.0,0.33,276.0,2700.0,35.218307287077174,3.3313737362650198,8994.709087915553,21.012873743641336,6.787079799517346,14.205433543435838,3.4557060632523267,7272,134,2390,3681,23.21208403305692,13.376276777245517,0.0003132412642706,False
0.2,0.5161050596879423,3.200000000000001,7570.0,6.03876,0.08,68900.0,0.33,276.0,2700.0,21.3354734626987,2.1167921854507243,5715.338900716955,13.724142108556563,3.2536288417624317,7.611331354142136,1.136836656311707,37375,248,9110,21254,17.122958057044368,9.883167200534244,0.0002046472681752,False
0.21,0.5921622038365947,3.200000000000001,7571.0,6.03876,0.08,68900.0,0.33,276.0,2700.0,25.831721441212817,2.692934558284084,7270.923307367026,16.312601752389664,4.394961855955254,9.519119688823151,1.70202729767117,46046,276,10888,26500,19.604709321295736,10.989428335471638,0.0002286553945345,False
0.22,0.7560269967688853,3.200000000000001,7572.0,6.03876,0.2,68900.0,0.33,276.0,2700.0,36.77156478990812,4.02257100783961,10860.941721166946,22.383470850102707,7.556208388750004,14.388093939805412,3.5336373809103936,7447,136,2456,3757,21.286907756343005,12.277825439199008,0.000291368156528,False
0.23,0.6930886484909087,3.200000000000001,7573.0,6.03876,0.3,68900.0,0.33,276.0,2700.0,31.9777268209596,3.65195607919953,9860.281413838731,19.97190513064676,6.223841847537388,12.00582169031284,2.571885768337858,3126,86,1018,1593,19.15340815782574,11.057866344624674,0.0002518537540996,False
0.01,0.3705337045033511,3.200000000000001,7601.0,9.05814,0.05,68900.0,0.33,276.0,2700.0,18.05771916032359,0.0902865014065157,243.77355379759248,9.175324865104848,1.5933364229416838,8.882394295218742,1.503049921535168,58612,362,19416,29482,328.6046767594717,187.12184057431853,0.0033545111448351,True
0.02,0.4627343469936181,3.200000000000001,7602.0,9.05814,0.1,68900.0,0.33,276.0,2700.0,23.359459054963075,0.2335778353888126,630.660155549794,11.994576009194718,2.5676340800107496,11.364883045768355,2.334056244621937,19185,210,6352,9651,198.5554288111627,114.01952465608662,0.0022309782807485,False
0.03,0.6485508925734258,3.200000000000001,7603.0,9.05814,0.1,68900.0,0.33,276.0,2700.0,35.57019679321885,0.5334964032305172,1440.4402887223964,18.32553435092812,5.371185872210826,17.24466244229073,4.837689468980309,29386,266,9668,14878,215.8915712072234,122.90291561510652,0.0022912037606414,False
0.04,0.4243248522866392,3.200000000000001,7604.0,9.05814,0.1,68900.0,0.33,276.0,2700.0,20.377585115080823,0.4074176610150634,1100.027684740671,10.7941522548971,2.130100990332825,9.583432860183722,1.722683329317762,17138,196,5624,8696,100.44829754016972,57.43814563975869,0.0010424630746261,False
0.05,0.3990162299350778,3.200000000000001,7605.0,9.05814,0.05,68900.0,0.33,276.0,2700.0,18.571565388938332,0.4640273353356593,1252.87380540628,10.023438847101012,1.866702666501641,8.548126541837323,1.4026753311659816,60753,366,19988,30765,78.28085887121512,44.874205441041966,0.0007886930196491,False
0.06,0.6182742853737009,3.200000000000001,7606.0,9.05814,0.1,68900.0,0.33,276.0,2700.0,32.376135265520624,0.9708316686235016,2621.2455052834543,17.23480178382374,4.832920835000832,15.141333481696885,3.86208916637733,26760,252,8782,13581,105.307779108334,60.238081823797245,0.00112367035781,False
0.0699999999999999,0.4023468351249809,3.200000000000001,7607.0,9.05814,0.08,68900.0,0.33,276.0,2700.0,18.19418534951364,0.6360781097128549,1717.4108962247085,10.1239445823544,1.9002540790283131,8.07024076715924,1.2641759693154584,23515,228,7728,11917,52.30629061269957,30.04416615692392,0.000583666126578,False
0.08,0.5134946448729123,3.200000000000001,7608.0,9.05814,0.2,68900.0,0.33,276.0,2700.0,24.71525147546768,0.9875377287262824,2666.351867560963,13.63788219236382,3.2179157622154904,11.077369283103858,2.230378033489208,5357,112,1752,2723,58.22626346957249,33.56280476146287,0.0006874677655964,False
0.09,0.465012643542859,3.200000000000001,7609.0,9.05814,0.08,68900.0,0.33,276.0,2700.0,21.374286814664277,0.960316092630249,2592.853450101672,12.066945200298866,2.595043695613377,9.307341614365408,1.634727602983128,27654,250,9112,13980,46.120676241579545,26.550016441044665,0.0005480523114517,False
0.0999999999999999,0.6252018196476206,3.200000000000001,7610.0,9.05814,0.2,68900.0,0.33,276.0,2700.0,31.508416148614565,1.573326412328338,4247.981313286513,17.482337647830597,4.9531722253562265,14.026078500783967,3.379845813027888,6518,126,2136,3308,56.012559070544846,32.269779463361544,0.0007111283940137,False
0.11,0.7775676447543953,3.200000000000001,7611.0,9.05814,0.3,68900.0,0.33,276.0,2700.0,42.25410031737962,2.321187877574591,6267.207269451395,23.23169658272553,8.047477587819957,19.02240373465409,5.726289710245366,4024,102,1316,2044,64.04567386659457,36.973268810388895,0.0008583451351021,False
0.12,0.7775063612071587,3.200000000000001,7612.0,9.05814,0.3,68900.0,0.33,276.0,2700.0,41.88184228351625,2.509291422274045,6775.086840139922,23.22926682310734,8.046053941497666,18.652575460408908,5.536762519223621,4032,102,1318,2049,58.67112079751358,33.871071871702355,0.0007917393961957,False
0.13,0.5926242747846551,3.200000000000001,7613.0,9.05814,0.1,68900.0,0.33,276.0,2700.0,28.3198546801494,1.8361891681697584,4957.710754058347,16.328771767638003,4.402503170952824,11.991082912511398,2.566314002783065,23803,236,7870,11992,47.04131302035931,27.05771962290215,0.0005322121098431,False
0.14,0.4688688867139657,3.200000000000001,7614.0,9.05814,0.05,68900.0,0.33,276.0,2700.0,20.161148424214637,1.4055333695340566,3794.9400977419527,12.18973451689338,2.641813403267504,7.971413907321255,1.2362800337334476,99321,382,21694,58704,32.603580429879166,18.22849194549664,0.0003733933612081,False
0.15,0.6054188477853126,3.200000000000001,7615.0,9.05814,0.1,68900.0,0.33,276.0,2700.0,28.54172892102223,2.1335610856060923,5760.614931136449,16.77864490755096,4.614296414029279,11.763084013471271,2.4807353284231866,23951,236,7930,12042,36.595707939448126,21.10056598545656,0.0004705980650247,False
0.16,0.7400318490593831,3.200000000000001,7616.0,9.05814,0.3,68900.0,0.33,276.0,2700.0,37.65118371228394,3.003516054643307,8109.493347536929,21.7611600679897,7.20316701353165,15.89002364429424,4.199650958888343,3799,96,1242,1930,42.64382289801206,24.616314126096697,0.0005691793951824,False
0.17,0.6574019032274854,3.200000000000001,7617.0,9.05814,0.2,68900.0,0.33,276.0,2700.0,31.433820645087195,2.661584991694355,7186.279477574759,18.648749183671036,5.534814308720285,12.785071461416162,2.8732293170259298,6577,126,2166,3322,35.48695023784521,20.484484234551797,0.0004642940312927,False
0.18,0.8632459475324936,3.200000000000001,7618.0,9.05814,0.3,68900.0,0.33,276.0,2700.0,46.32473929165135,4.157012024011453,11223.932464830925,26.720968141787427,10.186090095228492,19.60377114986392,6.029078071217039,4533,108,1484,2301,43.4735275772523,25.0986808094758,0.0006228419488065,False
0.19,0.5996018687311331,3.200000000000001,7619.0,9.05814,0.2,68900.0,0.33,276.0,2700.0,26.917443218294967,2.5427916497307064,6865.537454272907,16.573602620613066,4.517292163629642,10.3438405976819,1.9745005138989355,5536,114,1818,2803,29.722573563452517,17.139690317801367,0.0003771164976296,False
0.2,0.713772988412154,3.200000000000001,7620.0,9.05814,0.3,68900.0,0.33,276.0,2700.0,34.400541665205814,3.4232990057010912,9242.907315392946,20.753469899994258,6.645012063198893,13.647071765211557,3.221713057497801,3164,88,1042,1595,33.6435068990227,19.36641181953387,0.0004431951560521,False
0.21,0.5935884802097542,3.200000000000001,7621.0,9.05814,0.2,68900.0,0.33,276.0,2700.0,25.92405240555765,2.7026293095401703,7297.09913575846,16.362531089237947,4.418263734860477,9.561521316319698,1.7156344253203066,5450,114,1796,2750,27.51933862057804,15.874682098148384,0.0003416011166657,False
0.22,0.7141994827791479,3.200000000000001,7622.0,9.05814,0.3,68900.0,0.33,276.0,2700.0,33.775292462296406,3.692981051802326,9971.04883986628,20.76969827690894,6.653866761698624,13.005594185387466,2.960885709896298,3120,88,1026,1575,30.889161426530308,17.829754393413815,0.0004067522499205,False
0.23,0.6120496934417996,3.200000000000001,7623.0,9.05814,0.08,68900.0,0.33,276.0,2700.0,26.529189398735525,3.0253742756437694,8168.510544238177,17.013412344564802,4.726330761444204,9.515777054170725,1.7009564858004342,53617,280,11210,32066,26.319830794785283,15.195081206466275,0.0003300792243525,False
0.24,0.9324436145609928,3.200000000000001,7624.0,9.05814,0.2,68900.0,0.33,276.0,2700.0,49.621441138614834,5.925620018738301,15999.174050593412,29.673735942586703,12.136587115272912,19.94770519602813,6.210967096534611,10043,164,3318,5060,35.46705150661316,20.469487230069166,0.0005279381862163,False
0.25,0.7880459112373877,3.200000000000001,7625.0,9.05814,0.2,68900.0,0.33,276.0,2700.0,38.10446119824335,4.730332726305521,12771.898361024909,23.64852488572963,8.293086904984039,14.45593631251372,3.5627541786785173,7725,140,2552,3891,29.39624681205704,16.965962456055344,0.0004109155234662,False
0.26,0.7638710734492176,3.200000000000001,7626.0,9.05814,0.1,68900.0,0.33,276.0,2700.0,36.01235946399984,4.644795642000118,12540.94823340032,22.69100411576444,7.732991196885211,13.321355348235407,3.088195554885093,40024,264,9550,22947,28.378843684959097,16.377041459899846,0.000384404408056,False
0.27,0.949847906328918,3.200000000000001,7627.0,9.05814,0.3,68900.0,0.33,276.0,2700.0,49.91258762043491,6.6969753499583184,18081.83344488746,30.435343674940277,12.65965405356546,19.47724394549464,5.962678703607143,4610,110,1512,2336,32.482002565811946,18.741011990545434,0.0004858820049614,False
0.28,0.8531402679933936,3.200000000000001,7628.0,9.05814,0.3,68900.0,0.33,276.0,2700.0,41.95140755783713,5.827220896809463,15733.49642138555,26.299814570670968,9.918186737226016,15.65159298716616,4.090965840416553,3854,98,1278,1931,28.773344379139942,16.611659385371702,0.0004107661594566,False
0.29,0.738295439643982,3.200000000000001,7629.0,9.05814,0.2,68900.0,0.33,276.0,2700.0,33.232952906005124,4.767697969218485,12872.78451688991,21.693989845262784,7.165439058768326,11.53896306074234,2.397741089549841,6929,130,2290,3486,24.532955791432936,14.15929938988698,0.0003340394880476,False
0.3,0.8289143461938379,3.200000000000001,7630.0,9.05814,0.3,68900.0,0.33,276.0,2700.0,39.45055335093466,5.861034334875583,15824.792704164072,25.300652409816664,9.293182076556802,14.149900941117998,3.432147741681219,3913,98,1290,1972,26.45611056771066,15.268920821960334,0.0003731162807804,False
0.31,0.6970610325556884,3.200000000000001,7631.0,9.05814,0.1,68900.0,0.33,276.0,2700.0,29.786139018506976,4.554457423373188,12297.035043107608,20.121168769130637,6.303474260186989,9.664970249376342,1.7490168368138006,42168,238,8098,25777,23.23879981745638,13.413925577814576,0.0002997411245563,False
0.32,0.9520692360646996,3.200000000000001,7632.0,9.05814,0.3,68900.0,0.33,276.0,2700.0,48.26201222829436,7.653292817811872,20663.890608092053,30.53309637466197,12.727369535022577,17.728915853632394,5.074076717210705,4475,108,1468,2267,28.51975948663397,16.465597056765272,0.0004189277082052,False
0.33,0.7969537028138012,3.200000000000001,7633.0,9.05814,0.1,68900.0,0.33,276.0,2700.0,36.13375441746791,5.886803202087497,15894.368645636245,24.005049316347463,8.505329478050855,12.128705101120447,2.618526275963358,52441,268,9874,32206,155.59327534699273,81.36344611814374,0.0003287910608565,False
0.34,0.8012653096970881,3.200000000000001,7634.0,9.05814,0.1,68900.0,0.33,276.0,2700.0,36.12631461687852,6.059155379764888,16359.719525365195,24.178332820343176,8.609203211219999,11.94798179653534,2.550047831455111,52534,266,9784,32332,24.13865551285738,13.841242090607585,0.0003257362513314,False
0.3500000000000001,0.7076112762112257,3.200000000000001,7635.0,9.05814,0.05,68900.0,0.33,276.0,2700.0,29.316785035367523,5.040640191174213,13609.728516170377,20.519523031294312,6.517856401103246,8.797262004073211,1.477216209929033,285477,466,31254,192462,27.737190701610004,15.726091444564254,0.0002774031612843,False
0.36,0.9311071514074044,3.200000000000001,7636.0,9.05814,0.3,68900.0,0.33,276.0,2700.0,45.197047863196886,8.037752517478186,21701.9317971911,29.615567369379058,12.096968135633263,15.581480493817828,4.059215618155077,4161,102,1380,2085,24.96470772941355,14.392684370845908,0.000366903449549,False
0.37,0.785363713975173,3.200000000000001,7637.0,9.05814,0.1,68900.0,0.33,276.0,2700.0,34.060984977031566,6.19519482562932,16727.026029199165,23.541563575659403,8.229800382360537,10.519421401372163,2.0346055567312167,52328,258,9286,32505,22.238270818425107,12.838621206738448,0.000297761183379,False
0.38,0.7690120069882348,3.200000000000001,7638.0,9.05814,0.1,68900.0,0.33,276.0,2700.0,32.61662101612234,6.0822343450047605,16422.032731512852,22.893397373418065,7.850164101553922,9.723223642704273,1.7679297565491616,51031,252,8964,31747,21.59754197411667,12.465634640661312,0.0002849269481176,False
0.39,0.8195555306280218,3.200000000000001,7639.0,9.05814,0.08,68900.0,0.33,276.0,2700.0,35.8740591303839,6.871204107346003,18552.251089834208,24.91861174104861,9.058187377843556,10.955447389335289,2.186983270497553,103981,330,15216,67253,102.27105256884133,53.50194194989409,0.0002988349148471,False
0.4,0.7392113041929529,3.200000000000001,7640.0,9.05814,0.08,68900.0,0.33,276.0,2700.0,29.995597851813525,5.865078283809542,15835.711366285765,21.72940915767793,7.185324033030612,8.26618869413559,1.32024574922107,87741,296,12734,56810,21.142740338423494,11.982814127020042,0.0002628160100191,False
0.4100000000000001,1.0322280381599214,3.200000000000001,7641.0,9.05814,0.3,68900.0,0.33,276.0,2700.0,51.5195079298338,10.417151320763889,28126.3085660625,34.1435777115705,15.318493165362357,17.3759302182633,4.901341844598466,5004,114,1660,2508,24.553461573444885,14.169880140354122,0.0003737954492402,False
0.42,0.7355680749973149,3.200000000000001,7642.0,9.05814,0.08,68900.0,0.33,276.0,2700.0,29.18491122909321,5.973661813763472,16128.886897161374,21.588639090637752,7.106415345271146,7.596272138455458,1.1327535315076744,88313,290,12304,57513,19.667556232737716,11.331272468286455,0.0002520891965165,False
0.43,0.7835102249021009,3.200000000000001,7643.0,9.05814,0.2,68900.0,0.33,276.0,2700.0,32.145912927712224,6.744852208051586,18211.10096173928,23.46775533438958,8.186234766231506,8.678157593322645,1.44138255817992,8622,126,2152,4848,20.12165519100657,11.607901669889998,0.0002635794119727,False
0.44,0.8948948981910361,3.200000000000001,7644.0,9.05814,0.2,68900.0,0.33,276.0,2700.0,39.803098287573306,8.578272670863932,23161.33621133261,28.05654254326102,11.052849066482054,11.746555744312284,2.474576395618122,11113,144,2774,6246,21.6160527418556,12.480022721839475,0.0003002663237398,False
0.45,0.9324119389897252,3.200000000000001,7645.0,9.05814,0.3,68900.0,0.33,276.0,2700.0,42.29628615020911,9.325812630091477,25179.694101246987,29.672356767339156,12.135647204578436,12.623929382869951,2.80983457448696,3985,100,1318,1998,71.43721112591253,40.50083806805356,0.0003011859208948,False
0.46,0.7941711016045444,3.200000000000001,7646.0,9.05814,0.1,68900.0,0.33,276.0,2700.0,32.015663973878176,7.159742672305438,19331.30521522468,23.8934646232533,8.438688291770292,8.122199350624875,1.2789456194648547,56118,244,8576,36006,19.57461928681498,11.290241189883712,0.0002556646229256,False
0.4700000000000001,1.032363602744515,3.200000000000001,7647.0,9.05814,0.3,68900.0,0.33,276.0,2700.0,49.43096183289309,11.398829648014113,30776.840049638104,34.14982054429506,15.323122248439663,15.281141288598027,3.9242926004255514,4638,108,1538,2317,21.64251301974196,12.467571971866851,0.0003328659209702,False
0.4800000000000001,1.1384295351541047,3.200000000000001,7648.0,9.05814,0.2,68900.0,0.33,276.0,2700.0,57.862177351399566,13.655299221172037,36869.3078971645,39.17577427623752,19.209296924842647,18.686403075162048,5.5539977036706105,15430,176,3758,8771,24.144233816653298,13.933997413859856,0.0003739937001185,False
0.49,1.0855782306501625,3.200000000000001,7649.0,9.05814,0.2,68900.0,0.33,276.0,2700.0,53.06833428765634,12.755338411073712,34439.413709899025,36.63606303724583,17.206228865634664,16.43227125041051,4.450890454560952,14334,168,3508,8126,22.985445116869336,13.267310625482246,0.0003467298694504,False
0.5,0.8977305673334461,3.200000000000001,7650.0,9.05814,0.2,68900.0,0.33,276.0,2700.0,38.16215233013256,9.278738694733992,25052.594475781774,28.17743559449056,11.132579497006269,9.984716735642,1.853840802272277,10935,140,2650,6212,19.760311308884575,11.382020367759466,0.0002728240650197,False
0.01,0.663197906777827,3.200000000000001,7651.0,12.07752,0.08,68900.0,0.33,276.0,2700.0,37.35645545041013,0.1867801828569464,504.30649371375546,18.86147027846159,5.6435185835111055,18.49498517194853,5.456738400654159,47284,344,15746,23659,791.0911029943651,455.8025580211354,0.0091555939041445,True
0.02,0.3406544424322236,3.200000000000001,7652.0,12.07752,0.08,68900.0,0.33,276.0,2700.0,16.046739253912264,0.1604506373783046,433.2167209214226,8.307534082163633,1.3322048294790376,7.739205171748631,1.171754192100733,20511,214,6764,10359,208.23141672945584,118.77852351802083,0.0020737572814097,False
0.03,0.3730026355911486,3.200000000000001,7653.0,12.07752,0.08,68900.0,0.33,276.0,2700.0,17.6229551005822,0.2642877778409691,713.5770001706167,9.248034259028392,1.61607939346483,8.374920841553807,1.351791615623861,22805,224,7486,11570,157.7121269389669,90.12303860131182,0.0015664026605774,False
0.04,0.6975713215065186,3.200000000000001,7654.0,12.07752,0.1,68900.0,0.33,276.0,2700.0,38.79532687205931,0.7757724961546341,2094.585739617512,20.140371789437637,6.313746769553913,18.65495508262168,5.537974273399279,32278,280,10578,16405,239.49404453923583,136.78358580658323,0.0025472638314665,False
0.05,0.5391090606423244,3.200000000000001,7655.0,12.07752,0.1,68900.0,0.33,276.0,2700.0,27.33204767970871,0.6830393926049175,1844.2063600332772,14.491702914040296,3.578142008870773,12.840344765668416,2.895102616265856,22280,228,7304,11318,148.04355298825658,84.58838412081832,0.0015005726042618,False
0.06,0.5431545145806456,3.200000000000001,7656.0,12.07752,0.1,68900.0,0.33,276.0,2700.0,27.27593018677149,0.8178255162610245,2208.1288939047663,14.6280602716341,3.637043200539068,12.647869915137386,2.819217684278044,22702,230,7454,11515,149.32777565922805,85.78359318987357,0.0014183344155892,False
0.0699999999999999,0.6606886756218475,3.200000000000001,7657.0,12.07752,0.2,68900.0,0.33,276.0,2700.0,35.03034647165426,1.2253437489877792,3308.428122267004,18.769274495326265,5.59630649799533,16.261071976327997,4.370962749007551,7313,134,2398,3710,112.17851218921776,64.14834831651822,0.0014129927224474,False
0.08,0.6711029641953425,3.200000000000001,7658.0,12.07752,0.2,68900.0,0.33,276.0,2700.0,35.4285117821266,1.4160681409924714,3823.3839806796727,19.15295750989408,5.7937706660887685,16.27555427223252,4.377702525096297,7514,136,2470,3803,101.60886057989168,58.2130330067082,0.0012736082153121,False
0.09,0.6168743575011857,3.200000000000001,7659.0,12.07752,0.2,68900.0,0.33,276.0,2700.0,31.266744936749447,1.4054767081240829,3794.787111935023,17.184925813517346,4.808828272733015,14.0818191232321,3.4033515646089323,6494,126,2132,3290,81.69432964104644,47.1296483170111,0.0010278510395314,False
0.0999999999999999,0.658557378407823,3.200000000000001,7660.0,12.07752,0.3,68900.0,0.33,276.0,2700.0,33.84208776951803,1.6900099933734347,4563.026982108274,18.691089289625243,5.556386933786227,15.150998479892788,3.866376940412792,3184,88,1046,1609,81.74632123972309,46.985039248919605,0.0010120129578677,False
0.11,0.7777382965105356,3.200000000000001,7661.0,12.07752,0.3,68900.0,0.33,276.0,2700.0,42.26716147141643,2.321906241046619,6269.146850825871,23.23846305179744,8.051442694984425,19.028698419618987,5.729536453937806,4024,102,1316,2044,85.41287524555466,49.308437530722806,0.0011447801811152,False
0.12,0.4620861817334705,3.200000000000001,7662.0,12.07752,0.08,68900.0,0.33,276.0,2700.0,20.322615750556132,1.2157378302964326,3282.492141800368,11.974011131685591,2.559866277821297,8.348604618870542,1.3441284475248645,26077,242,8642,13106,46.84534654339267,27.046163295934363,0.0005587523147104,False
0.13,0.8294483273445596,3.200000000000001,7663.0,12.07752,0.3,68900.0,0.33,276.0,2700.0,45.53357963591768,2.955081290294693,7978.719483795671,25.322516691454226,9.306697985282856,20.211062944463453,6.351616694988163,4398,106,1436,2238,76.75694497748746,44.288304111184885,0.0010659056519174,False
0.14,0.6748232281437114,3.200000000000001,7664.0,12.07752,0.2,68900.0,0.33,276.0,2700.0,33.63837217570594,2.348939032138446,6342.135386773804,19.29068019440497,5.865280797946392,14.347691981300969,3.516341765807946,6988,132,2298,3535,58.10128232462619,33.52398800735963,0.000763824697241,False
0.15,0.5127591729745206,3.200000000000001,7665.0,12.07752,0.1,68900.0,0.33,276.0,2700.0,22.56097744357854,1.685004724797814,4549.512756954097,13.61360979662735,3.207894409775129,8.947367646951191,1.522889684977315,18837,206,6242,9468,50.4304055378774,27.939236457309494,0.001119623106599,False
0.16,0.5225391308626777,3.200000000000001,7666.0,12.07752,0.05,68900.0,0.33,276.0,2700.0,22.878422097123444,1.8216951254302232,4918.576838661603,13.937484203963676,3.342616720165918,8.940937893159768,1.5209215947356949,131639,410,24644,81037,45.03964587438827,25.225591689229923,0.0005009248233961,False
0.17,0.7703840500888075,3.200000000000001,7667.0,12.07752,0.1,68900.0,0.33,276.0,2700.0,39.54864977959609,3.35134546812762,9048.632763944574,22.9475255910706,7.881611957183016,16.60112418852549,4.530266489055396,34625,284,10834,17910,54.77102793049745,31.62042120175825,0.0007547614410046,False
0.18,0.702518589325132,3.200000000000001,7668.0,12.07752,0.2,68900.0,0.33,276.0,2700.0,34.26368641034021,3.0715172646934663,8293.096614672359,20.32688498193376,6.413847694516913,13.936801428406454,3.342330429823446,7297,134,2402,3688,47.88802954968367,27.63564719620052,0.000637372062132,False
0.19,0.559268234788181,3.200000000000001,7669.0,12.07752,0.08,68900.0,0.33,276.0,2700.0,24.313392991780365,2.295406878211824,6197.598571171925,15.175276502809076,3.8771557526922833,9.138116488971288,1.5817488744804593,41258,264,10066,23459,37.808966185785,21.821688312053645,0.0004663926117045,False
0.2,0.7486055612078811,3.200000000000001,7670.0,12.07752,0.2,68900.0,0.33,276.0,2700.0,36.90637672785367,3.673882511966224,9919.482782308804,22.09393123515884,7.391166158097504,14.812445492694833,3.7172836461312806,7652,138,2528,3854,45.81292502168587,26.444993854648267,0.0006275690790926,False
0.21,0.6079378053173584,3.200000000000001,7671.0,12.07752,0.1,68900.0,0.33,276.0,2700.0,26.858654937488648,2.8007625753930445,7562.05895356122,16.867699332050634,4.6566732366783095,9.990955605438014,1.855910661285265,29944,226,7392,16942,37.49034629727699,21.633657606017103,0.0004711758225223,False
0.22,0.6272537199249113,3.200000000000001,7672.0,12.07752,0.2,68900.0,0.33,276.0,2700.0,27.8284127692272,3.038824285564627,8204.825571024492,17.555888040911842,4.989119679765835,10.272524728315355,1.950295394201208,5627,116,1860,2831,35.765421035445605,20.640423246590323,0.00046637493128,False
0.23,0.8362190863353633,3.200000000000001,7673.0,12.07752,0.3,68900.0,0.33,276.0,2700.0,42.40729130622704,4.851355995005292,13098.66118651429,25.60037230275473,9.479090639444678,16.80691900347231,4.627734644439386,4199,102,1382,2120,44.85528209607744,25.882790793022945,0.0006362437419661,False
0.24,0.9091596521092572,3.200000000000001,7674.0,12.07752,0.3,68900.0,0.33,276.0,2700.0,47.74789555345605,5.700794548519245,15392.145281001962,28.666740373637868,11.457414823333009,19.081155179818182,5.756620274813764,4645,110,1526,2350,46.57568599963155,26.888875712743847,0.0006813408059758,False
0.25,0.5516592952200301,3.200000000000001,7675.0,12.07752,0.05,68900.0,0.33,276.0,2700.0,22.12480516024965,2.7328757215563098,7378.764448202036,14.9160664104457,3.7626750704538745,7.208738749803949,1.0297993488975647,167133,400,23874,108536,32.0681762208143,18.123558489211263,0.0003687150288829,False
0.26,0.8094935280622557,3.200000000000001,7676.0,12.07752,0.2,68900.0,0.33,276.0,2700.0,39.352873851339055,5.0790625123544135,13713.468783356917,24.51032156441532,8.809512484566735,14.842552286923738,3.7304499722123214,8101,144,2680,4075,38.85140653837669,22.4138876152608,0.0005468866886186,False
0.27,0.8142976935690733,3.200000000000001,7677.0,12.07752,0.3,68900.0,0.33,276.0,2700.0,39.37161198428536,5.273943639078116,14239.647825510912,24.70494482005872,8.927731394926415,14.666667164226638,3.653787755848299,3952,98,1308,1984,37.87039390471792,21.814449510390613,0.0005327645730969,False
0.28,0.8866169726978759,3.200000000000001,7678.0,12.07752,0.2,68900.0,0.33,276.0,2700.0,44.52576906051141,6.18763150718387,16706.60506939645,27.70478591192204,10.822056193324428,16.82098314858937,4.634424686140559,8808,152,2918,4425,40.81570351553179,23.4136098499326,0.0005748953608528,False
0.29,0.6337323272257284,3.200000000000001,7679.0,12.07752,0.08,68900.0,0.33,276.0,2700.0,26.184697527995198,3.745700939407036,10113.392536398997,17.78880829751859,5.1036113141245165,8.395889230476605,1.3579103747174806,60808,274,10924,37692,30.254869992520863,17.4605501285313,0.0003798002800223,False
0.3,0.9071115046578996,3.200000000000001,7680.0,12.07752,0.3,68900.0,0.33,276.0,2700.0,45.4172821234859,6.756043650758276,18241.317857047343,28.57881313836704,11.398791174064034,16.83846898511886,4.642747523305758,4249,104,1396,2149,38.21007020544635,22.05975346952228,0.000555596628955,False
0.31,0.915582925535718,3.200000000000001,7681.0,12.07752,0.3,68900.0,0.33,276.0,2700.0,45.72761692794128,7.025386499335489,18968.54354820582,28.943176123154668,11.642436391155696,16.78444080478661,4.617049891820206,4420,106,1458,2227,37.7600170427077,21.78721105229798,0.0005462072401333,False
0.32,0.7739690444599097,3.200000000000001,7682.0,12.07752,0.1,68900.0,0.33,276.0,2700.0,34.80654591774082,5.500418208123308,14851.129161932931,23.089179854843056,7.964132525627588,11.717366062897764,2.46371431750428,50062,262,9452,30722,32.566638727275915,18.801085433614777,0.0004382053254104,False
0.33,0.7900592050098665,3.200000000000001,7683.0,12.07752,0.1,68900.0,0.33,276.0,2700.0,35.63869799418285,5.805118892245466,15673.821009062758,23.728930295885576,8.340779255629071,11.909767698297273,2.535660363383605,51363,264,9632,31567,34.64201412392039,19.44725396190338,0.0004377338354906,False
0.34,0.7912793228418267,3.200000000000001,7684.0,12.07752,0.1,68900.0,0.33,276.0,2700.0,35.41039659005022,5.937449315204072,16031.113151050991,23.77770801892609,8.369761100097051,11.632688571124127,2.4323117848929794,51283,264,9504,31587,31.707032134183628,18.302326516342383,0.0004280911201672,False
0.3500000000000001,0.9519985902439628,3.200000000000001,7685.0,12.07752,0.3,68900.0,0.33,276.0,2700.0,47.18796707551478,8.168097048199975,22053.86203013993,30.52998559792204,12.72521260925198,16.657981477592738,4.557115561052004,4378,106,1446,2203,34.81524038046693,20.05554652744056,0.0005156189147119,False
0.36,0.6781186673806885,3.200000000000001,7686.0,12.07752,0.08,68900.0,0.33,276.0,2700.0,27.080832141796915,4.776833687626189,12897.45095659071,19.412966570159018,5.929053481072772,7.667865571637897,1.1522197934465828,74028,280,11452,47362,27.444361602154824,15.828668351989114,0.0003463030743731,False
0.37,1.0393483829278156,3.200000000000001,7687.0,12.07752,0.3,68900.0,0.33,276.0,2700.0,53.56022328167074,9.802553911987568,26466.895562366437,34.472098955735966,15.562776046469711,19.08812432593478,5.760222134482145,5125,116,1698,2572,36.19947130399404,20.89215720816706,0.0005490830711482,False
0.38,0.7828818101334812,3.200000000000001,7688.0,12.07752,0.1,68900.0,0.33,276.0,2700.0,33.58286487474526,6.265820678143079,16917.715830986315,23.44275067566461,8.171495139360148,10.14011419908065,1.9056744612170693,52072,256,9168,32370,29.070770059180266,16.770429287669046,0.0003876550882495,False
0.39,0.8650168888358003,3.200000000000001,7689.0,12.07752,0.1,68900.0,0.33,276.0,2700.0,39.18130654760351,7.516117353703824,20293.516855000325,26.795036317248133,10.23347693493827,12.38627023035538,2.7173595812344464,60574,278,10500,37770,30.5743654249136,17.646677224438953,0.000425116723066,False
0.4,0.9612354943565224,3.200000000000001,7690.0,12.07752,0.3,68900.0,0.33,276.0,2700.0,46.18031292380825,9.102021298208482,24575.457505162904,30.937781997254653,13.00909689631176,15.2425309265536,3.907075598103276,4473,106,1492,2229,31.161226084494093,17.981105910987623,0.0004653448761846,False
0.4100000000000001,0.8174307327944166,3.200000000000001,7691.0,12.07752,0.2,68900.0,0.33,276.0,2700.0,35.11007695527394,7.05321797097912,19043.688521643624,24.83218098035325,9.005332209637725,10.277895974920687,1.9521142386586048,9451,132,2338,5332,28.66931637416745,16.552090469130892,0.0003811967494842,False
0.42,0.9992118170203608,3.200000000000001,7692.0,12.07752,0.2,68900.0,0.33,276.0,2700.0,48.49850496300226,10.02951649788436,27079.694544287773,32.63691484600786,14.216148787640162,15.8615901169944,4.186632289755801,13043,160,3222,7366,32.25261522507678,18.613891507639813,0.0004739869853211,False
0.43,1.1095009791642012,3.200000000000001,7693.0,12.07752,0.3,68900.0,0.33,276.0,2700.0,57.2412901325569,12.14035830709375,32778.96742915313,37.77694780982434,18.09628206373157,19.46434232273256,5.955923756637821,5555,120,1846,2780,34.0226492594098,19.635298972967743,0.0005240674693076,False
0.44,0.85632464030608,3.200000000000001,7694.0,12.07752,0.2,68900.0,0.33,276.0,2700.0,36.98103103215072,7.957417874670892,21485.02826161141,26.43224612722918,10.002145926636103,10.548784904921536,2.0447280519652136,9773,136,2406,5528,27.52045702173969,15.886848711824284,0.0003803705736001,False
0.45,0.9808265608208514,3.200000000000001,7695.0,12.07752,0.2,68900.0,0.33,276.0,2700.0,46.02361074762975,10.16446066451111,27444.043794179997,31.80979730253726,13.623727146310909,14.213813445092494,3.459266481799798,12220,154,3030,6893,30.11857784650099,17.33621739904067,0.0004378015919394,False
0.46,1.0199064406215923,3.200000000000001,7696.0,12.07752,0.3,68900.0,0.33,276.0,2700.0,48.7751734813406,11.014429859021794,29738.960619358844,33.57808938517378,14.90127752002402,15.197084096166812,3.8868476610022262,4596,108,1532,2288,29.177225265237265,16.824190159354156,0.0004451411814876,False
0.4700000000000001,0.8187285709005541,3.200000000000001,7697.0,12.07752,0.2,68900.0,0.33,276.0,2700.0,33.424780458338496,7.637377024993778,20620.9179674832,24.8849598734278,9.037594605023378,8.539820584910697,1.400217580029599,8863,126,2178,5014,25.42759423940949,14.665991251968126,0.0003446135100367,False
0.4800000000000001,1.1358205233927725,3.200000000000001,7698.0,12.07752,0.1,68900.0,0.33,276.0,2700.0,57.63961088500171,13.60188326923588,36725.08482693688,39.04875385484804,19.10725260508065,18.59085703015367,5.505369335844765,103154,350,15068,66758,36.73646342156931,20.631301146051985,0.0004988545463521,False
0.49,0.8989502126586995,3.200000000000001,7699.0,12.07752,0.2,68900.0,0.33,276.0,2700.0,38.553530065467214,9.199211376638011,24837.87071692264,28.22949487401043,11.166977717735382,10.324035191456783,1.9677663410973685,10840,140,2654,6147,26.885781926540297,15.504900561003303,0.0003690670829511,False
0.5,1.151140894391331,3.200000000000001,7700.0,12.07752,0.3,68900.0,0.33,276.0,2700.0,58.21698773711528,14.292447546479677,38589.608375495125,39.7970773416396,19.711218766648912,18.41991039547568,5.418771220169235,6133,122,1884,3185,32.35988769109101,18.67618712850781,0.0004852324062842,False
0.01,0.4798389498496865,3.200000000000001,7701.0,15.0969,0.05,68900.0,0.33,276.0,2700.0,24.76176558298863,0.1238067335198404,334.27818050356933,12.541083778668632,2.777459957375878,12.220681804319998,2.653653223856037,80977,432,26822,40738,767.9687252754244,436.1578970822204,0.0076187638134556,True
0.02,0.6066134485693864,3.200000000000001,7702.0,15.0969,0.1,68900.0,0.33,276.0,2700.0,32.939702638531884,0.3293802712245023,889.3267323061564,16.82085856326037,4.634365407054155,16.118844075271515,4.304985135829653,27182,256,8996,13682,465.8952015985951,265.42483730376006,0.0051893425935883,True
0.03,0.5278412843249656,3.200000000000001,7703.0,15.0969,0.1,68900.0,0.33,276.0,2700.0,27.23829286790691,0.4085178443508356,1102.998179747256,14.114075938053212,3.4169832463431677,13.124216929853697,3.008465401992332,22778,230,7486,11543,287.5094897223113,164.3033828423706,0.0029556740748872,True
0.04,0.6815147902316455,3.200000000000001,7704.0,15.0969,0.1,68900.0,0.33,276.0,2700.0,37.609274408821136,0.7520514468898745,2030.538906602661,19.5392746649073,5.995196697313157,18.06999974391384,5.243145250423283,31240,276,10258,15847,297.5679704466696,169.5840634714089,0.0030914844246577,True
0.05,0.4696211276539043,3.200000000000001,7705.0,15.0969,0.1,68900.0,0.33,276.0,2700.0,22.863424377016457,0.571323810037611,1542.5742871015498,12.213730706736255,2.650992045184779,10.6496936702802,2.0796682351471683,18875,208,6196,9575,149.48026742397104,85.46977542674881,0.0015903102106517,False
0.06,0.6416354956238477,3.200000000000001,7706.0,15.0969,0.1,68900.0,0.33,276.0,2700.0,34.020049800743315,1.0201491046801747,2754.402582636472,18.07437298899528,5.245326660762916,15.945676811748031,4.225177556082741,28362,262,9320,14376,179.09547758983732,102.28300598723932,0.0019608402842187,False
0.0699999999999999,0.6233453933251026,3.200000000000001,7707.0,15.0969,0.2,68900.0,0.33,276.0,2700.0,32.38926560824277,1.132905918768397,3058.845980674672,17.415885196849718,4.920779249006893,14.973380411393055,3.787873330238496,6764,128,2220,3428,135.83245069593207,77.73806139816651,0.0016436088888979,False
0.08,0.73757291854474,3.200000000000001,7708.0,15.0969,0.2,68900.0,0.33,276.0,2700.0,40.32107618378914,1.611770717058214,4351.780936057178,21.666062597210555,7.149774783181729,18.655013586578583,5.538004066123515,8415,146,2766,4260,143.44276916714907,82.00431970072088,0.0017928679526911,False
0.09,0.669562563431034,3.200000000000001,7709.0,15.0969,0.2,68900.0,0.33,276.0,2700.0,34.96978403808192,1.5721134676840391,4244.706362746906,19.09603432122839,5.764311285618574,15.873749716853528,4.192197817934535,7393,136,2428,3745,111.58794470871082,63.978924939611616,0.0014234391759236,False
0.0999999999999999,0.4544770339605422,3.200000000000001,7710.0,15.0969,0.2,68900.0,0.33,276.0,2700.0,20.439576918922576,1.0198844508437377,2753.688017278092,11.733378939984515,2.469670683351463,8.70619797893806,1.449786232507725,4274,100,1402,2165,70.8251396110257,40.88526896439034,0.0008079933570217,False
0.11,0.6979345641043059,3.200000000000001,7711.0,15.0969,0.3,68900.0,0.33,276.0,2700.0,36.31895128642024,1.994754680871828,5385.837638353935,20.154045198738512,6.321065093805087,16.164906087681732,4.32631041293326,3591,94,1176,1821,97.44055763524725,56.15014905316257,0.0012449000045751,False
0.12,0.6113627072376255,3.200000000000001,7712.0,15.0969,0.3,68900.0,0.33,276.0,2700.0,29.90246217676393,1.7905286158689064,4834.427262846048,16.989038042010577,4.714651154961409,12.913424134753352,2.9241225390925027,2876,84,944,1454,80.4393720099564,46.4407211252858,0.0009735180078938,False
0.13,0.5851041080999726,3.200000000000001,7713.0,15.0969,0.1,68900.0,0.33,276.0,2700.0,27.81942765254373,1.8036614113753848,4869.885810713539,16.066273097621767,4.280695993100173,11.753154554921965,2.4770345817247885,22942,232,7578,11569,74.4005782121685,42.93028299904263,0.0009400876714019,False
0.14,0.5177777742944935,3.200000000000001,7714.0,15.0969,0.1,68900.0,0.33,276.0,2700.0,23.1686017691841,1.616055103681918,4363.348779941179,13.779506198452324,3.276631709088509,9.389095570731778,1.660576605406591,19205,208,6356,9665,56.56501620800015,32.614993601514875,0.0006934004641955,False
0.15,0.5433227794868729,3.200000000000001,7715.0,15.0969,0.2,68900.0,0.33,276.0,2700.0,24.48601731214266,1.8293827149401207,4939.333330338326,14.633740771921255,3.6395050676334098,9.852276540221403,1.810122352693289,5297,112,1738,2684,56.58792249406301,32.62980915086089,0.0006903747748362,False
0.16,0.6571217137175629,3.200000000000001,7716.0,15.0969,0.3,68900.0,0.33,276.0,2700.0,31.73923950733281,2.5305605182472206,6832.513399267496,18.63848724737142,5.529590562515366,13.100752259961396,2.999030044268145,3029,86,990,1538,64.15636257217538,36.920889660477,0.000817251081149,False
0.17,0.6424082614083002,3.200000000000001,7717.0,15.0969,0.3,68900.0,0.33,276.0,2700.0,30.405142677622813,2.574147364459886,6950.197884041691,18.102379537745847,5.259304738069052,12.302763139876966,2.6851573736091665,2995,84,976,1525,60.177137992309376,34.74328369134921,0.0007523550476964,False
0.18,0.52988262178192,3.200000000000001,7718.0,15.0969,0.2,68900.0,0.33,276.0,2700.0,22.755407986895683,2.0357722065834425,5496.584957775295,14.182252411298508,3.4458644060043784,8.573155575597175,1.410092199420936,4622,104,1522,2333,46.77870263888267,27.00712964099308,0.000571005242724,False
0.19,0.5857849641310828,3.200000000000001,7719.0,15.0969,0.08,68900.0,0.33,276.0,2700.0,26.016177782909068,2.457171433369045,6634.362870096421,16.089980517570098,4.291642882045045,9.92619726533897,1.8344714486760003,44402,276,10840,25240,49.14623111401863,28.359012886149277,0.0006145685285329,False
0.2,0.798576786045142,3.200000000000001,7720.0,15.0969,0.3,68900.0,0.33,276.0,2700.0,40.60778389372352,4.044023228553209,10918.862717093663,24.070226204365454,8.544344555865417,16.537557689358056,4.500321327312207,3924,100,1286,1989,62.02648499418633,35.7509504107778,0.0008512267324309,False
0.21,0.8850641610834128,3.200000000000001,7721.0,15.0969,0.3,68900.0,0.33,276.0,2700.0,46.93860503124606,4.909157335237564,13254.724805141424,27.638993602577568,10.77908696935701,19.29961142866849,5.869929634119446,4545,108,1484,2313,63.9397333552966,36.91171481531269,0.000929938890109,False
0.22,0.8572114642182282,3.200000000000001,7722.0,15.0969,0.3,68900.0,0.33,276.0,2700.0,44.38349901551627,4.859883772656414,13121.68618617232,26.46917269695152,10.025603046776151,17.91432631856475,5.165719274119737,4220,104,1384,2138,59.95836328482431,34.537740421950204,0.0008546084675447,False
0.23,0.8774072076118209,3.200000000000001,7723.0,15.0969,0.3,68900.0,0.33,276.0,2700.0,45.59936995107418,5.218445039162687,14089.801605739256,27.315456220458184,10.568696076894923,18.283913730616,5.350251037732238,4350,106,1430,2199,58.64835902378768,33.856038006809946,0.0008453708270797,False
0.24,0.6848776161355659,3.200000000000001,7724.0,15.0969,0.3,68900.0,0.33,276.0,2700.0,31.096512190978547,3.702628545021944,9997.097071559248,19.664630007713896,6.061114570749685,11.431882183264651,2.358486025727741,3085,86,1010,1564,46.37269113242469,26.743399519199656,0.0005983382899512,False
0.25,0.8862847468286497,3.200000000000001,7725.0,15.0969,0.2,68900.0,0.33,276.0,2700.0,45.57156756690484,5.663721022388218,15292.04676044819,27.690704474251117,10.812854285928848,17.880863092653726,5.14913326354063,8829,152,2924,4437,54.44806687473423,31.43297432798773,0.000793738743981,False
0.26,0.5842585023720183,3.200000000000001,7726.0,15.0969,0.05,68900.0,0.33,276.0,2700.0,23.87772248390514,3.067292834588007,8281.690653387619,16.036845310577217,4.267122703960965,7.840877173327922,1.199829869372958,187837,418,26054,122514,47.39549102564399,26.880902719868665,0.0004748098062758,False
0.27,0.6909042559856597,3.200000000000001,7727.0,15.0969,0.1,68900.0,0.33,276.0,2700.0,30.579040217368902,4.086946450544357,11034.755416469765,19.88999486622615,6.180304851568178,10.689045351142756,2.093358401023821,35827,242,8298,20752,184.39063051318632,96.75882310414772,0.0005524116798116,False
0.28,0.7534745536460943,3.200000000000001,7728.0,15.0969,0.3,68900.0,0.33,276.0,2700.0,34.62061025675231,4.800909274657588,12962.455041575487,22.28373375499932,7.499203173973571,12.336876501752986,2.698293899315983,3223,88,1054,1636,43.16608558870352,24.919068327059037,0.0005866370495104,False
0.29,0.7394526015562803,3.200000000000001,7729.0,15.0969,0.2,68900.0,0.33,276.0,2700.0,33.31402800908867,4.77945385916559,12904.525419747097,21.738744381185267,7.190568408420008,11.575283627903406,2.411114549254417,6934,130,2292,3488,40.96897657333811,23.649042408276323,0.0005577711449627,False
0.3,0.7913945870583157,3.200000000000001,7730.0,15.0969,0.1,68900.0,0.33,276.0,2700.0,36.696776794622,5.447967851428685,14709.51319885745,23.782317972062803,8.37250208465987,12.9144588225592,2.924534233231184,49539,268,9778,30078,44.50143106350065,25.11293540021356,0.0005928064642046,False
0.31,0.8106797890867297,3.200000000000001,7731.0,15.0969,0.1,68900.0,0.33,276.0,2700.0,37.7752300784714,5.792766537667673,15640.46965170272,24.558324674139488,8.838616592348812,13.216905404331914,3.0458500546811385,52799,272,10094,32330,43.23228502307512,24.91540419371421,0.0005933683463619,False
0.32,0.685456094838728,3.200000000000001,7732.0,15.0969,0.08,68900.0,0.33,276.0,2700.0,28.71249455784719,4.525369990540334,12218.4989744589,19.686222485581087,6.072496385403573,9.026272072266105,1.5471263948632394,71007,290,12124,44393,37.3377465332486,21.5455028220975,0.0004784209634994,False
0.33,0.721155599863699,3.200000000000001,7733.0,15.0969,0.1,68900.0,0.33,276.0,2700.0,30.822366863806707,5.0104242557334056,13528.145490480196,21.03502821184988,6.7992653428188055,9.78733865195683,1.7888410870854,44779,244,8456,27461,37.90039339991751,21.85725825379729,0.0004934659851239,False
0.34,1.0163193324236433,3.200000000000001,7734.0,15.0969,0.2,68900.0,0.33,276.0,2700.0,52.760342934488,8.886940193758505,23994.738523147964,33.414179486722766,14.781123358259295,19.346163447765235,5.89418316450079,10922,168,3448,5614,244.27749801492155,125.17309267365243,0.0007190071054186,False
0.3500000000000001,0.9033005176964036,3.200000000000001,7735.0,15.0969,0.1,68900.0,0.33,276.0,2700.0,43.38734163963283,7.502987596920627,20258.06651168569,28.4154875702379,11.290189021547365,14.97185406939493,3.787201424626738,63016,296,11586,38895,42.75850722136924,24.66389961939756,0.0006108805190786,False
0.36,0.8246475095487421,3.200000000000001,7736.0,15.0969,0.08,68900.0,0.33,276.0,2700.0,37.18153889800784,6.594960903744158,17806.394440109227,25.126200813360093,9.185600666637963,12.055338084647744,2.5906397628938054,101774,338,15686,65177,42.195794068850034,23.796346446594058,0.0005364463066269,False
0.37,1.005456623647855,3.200000000000001,7737.0,15.0969,0.3,68900.0,0.33,276.0,2700.0,50.770767904024375,9.286504667122989,25073.562601232068,32.91978959599546,14.420842748774875,17.850978308028914,5.134338081651887,5007,114,1656,2517,43.77484998097078,25.231937326029986,0.0006584226004573,False
0.38,0.9594060239255509,3.200000000000001,7738.0,15.0969,0.3,68900.0,0.33,276.0,2700.0,46.7251655981654,8.762857815592776,23659.71610210049,30.85684314068405,12.952571189395016,15.868322457481344,4.18971337380224,4712,110,1564,2360,41.36570008795184,23.834416953309567,0.0006048775089277,False
0.39,0.908064897472736,3.200000000000001,7739.0,15.0969,0.3,68900.0,0.33,276.0,2700.0,42.40874587199947,8.145468021961038,21992.763659294804,28.619729299435445,11.426057511938703,13.789016572564028,3.2805894899776664,3977,100,1322,1988,38.20847599567016,22.001054286764894,0.0005545042963366,False
0.4,0.7016640029449319,3.200000000000001,7740.0,15.0969,0.08,68900.0,0.33,276.0,2700.0,27.503492013584854,5.366657116163808,14489.974213642285,20.29462291734296,6.39649040212711,7.208869096241898,1.029833285963302,79637,280,11562,51552,32.78143469892681,18.908294861727725,0.0004265254356094,False
0.4100000000000001,0.8681948541778742,3.200000000000001,7741.0,15.0969,0.3,68900.0,0.33,276.0,2700.0,38.77891949360844,7.805330691337691,21074.392866611764,26.928149762439407,10.318842079430617,11.850769731169034,2.5135113880929243,3727,96,1234,1868,34.36684120305982,19.76325670251175,0.0005047566535243,False
0.42,0.7713150045496096,3.200000000000001,7742.0,15.0969,0.05,68900.0,0.33,276.0,2700.0,31.59885623875237,6.480590265791889,17497.5937176381,22.984279444800727,7.9029921648886,8.614576793951645,1.4224018990967109,362051,486,33466,248956,42.84320366031467,24.277470827568592,0.0004421412598335,False
0.43,1.0965524733300875,3.200000000000001,7743.0,15.0969,0.3,68900.0,0.33,276.0,2700.0,56.14261617429559,11.904143406067586,32141.18719638248,37.157643069711824,17.611141117064072,18.98497310458377,5.706997710996486,5106,116,1694,2555,41.145514793716,23.703035428101813,0.0006452588791597,False
0.44,0.9152226110763526,3.200000000000001,7744.0,15.0969,0.1,68900.0,0.33,276.0,2700.0,41.3205050307409,8.912102154360735,24062.675816773983,28.92764196734277,11.632010544987017,12.392863063398137,2.7199083906262818,70052,286,11002,44657,36.64294148593044,21.14766230606618,0.0005152367886615,False
0.45,0.8162086667603058,3.200000000000001,7745.0,15.0969,0.2,68900.0,0.33,276.0,2700.0,33.83084504492616,7.421088381402803,20036.938629787568,24.78252219125141,8.975015991690928,9.048322853674753,1.5539276102881248,9002,128,2248,5058,33.22088250593916,19.10405225317863,0.0004433944107608,False
0.46,0.8828836642846818,3.200000000000001,7746.0,15.0969,0.1,68900.0,0.33,276.0,2700.0,38.29654077575123,8.604344336736244,23231.729709187857,27.54670869695239,10.718920867470343,10.749832078798844,2.1145765307341016,66955,272,10174,43008,37.91139965422933,21.43953809251571,0.0004781421870824,False
0.4700000000000001,1.1695451151599383,3.200000000000001,7747.0,15.0969,0.3,68900.0,0.33,276.0,2700.0,60.91854162834692,14.098410899945767,38065.70942985357,40.703831093453736,20.451983956082056,20.214710534893182,6.353573056136289,5841,124,1910,2942,40.5452943981888,23.26516665454768,0.0006483405762772,False
0.4800000000000001,0.9856735577712706,3.200000000000001,7748.0,15.0969,0.2,68900.0,0.33,276.0,2700.0,45.40749315338859,10.666175013649402,28798.672536853388,32.027029829063366,13.77843536103289,13.380463324325229,3.112260347383488,12003,150,2948,6791,36.10048486544797,20.77601619952181,0.000522464001741,False
0.49,1.17999336983744,3.200000000000001,7749.0,15.0969,0.1,68900.0,0.33,276.0,2700.0,61.07826615166263,14.71777171775588,39737.98363794088,41.22239222825959,20.879974590242217,19.855873923403045,6.162202872486336,112227,362,16176,72789,50.20752394054003,28.46767633965807,0.0006433360675284,False
0.5,0.859275475148239,3.200000000000001,7750.0,15.0969,0.2,68900.0,0.33,276.0,2700.0,35.4009077566885,8.588427551372966,23188.75438870701,26.555192837564192,10.080324463369417,8.845714919124305,1.4918969119964505,9178,130,2242,5203,31.798339276602608,18.357396998049403,0.0004325928170058,False
0.01,0.4402749080394408,3.200000000000001,7751.0,18.11628,0.05,68900.0,0.33,276.0,2700.0,22.265826777879408,0.1113270394942941,300.5830066345941,11.288142611990123,2.306199408913401,10.977684165889285,2.1948723694191066,72480,406,24002,36471,846.0551626167883,481.6171948304793,0.0082372173873241,True
0.02,0.4276041457101099,3.200000000000001,7752.0,18.11628,0.08,68900.0,0.33,276.0,2700.0,21.178352095891828,0.2117667657980989,571.770267654867,10.895193347077385,2.16566378067047,10.283158748814444,1.953897014872371,27622,248,9096,13972,417.99342673239966,238.1116346966164,0.0040576036418773,True
0.03,0.4482767163361619,3.200000000000001,7753.0,18.11628,0.1,68900.0,0.33,276.0,2700.0,22.14688257714012,0.332146689989338,896.7960629712126,11.538375657196264,2.3975250474916003,10.608506919943856,2.0653783575022624,18665,206,6136,9455,270.7643853901868,154.4691820540883,0.0029130129345867,False
0.04,0.3653270478799077,3.200000000000001,7754.0,18.11628,0.05,68900.0,0.33,276.0,2700.0,16.893576373991586,0.3377374861932786,911.8912127218522,9.022492353328143,1.545961825787948,7.87108402066344,1.2082243395946692,55118,348,18120,27932,182.6438595501948,104.53206568545365,0.0017530400739084,False
0.05,0.6071544481486906,3.200000000000001,7755.0,18.11628,0.1,68900.0,0.33,276.0,2700.0,31.94310886852834,0.7983159223254099,2155.452990278606,16.83998768635025,4.64347065855256,15.103121182178093,3.84515473622715,26544,250,8710,13473,248.6595840796309,142.0449526548248,0.0026021621368549,False
0.06,0.5136129697584467,3.200000000000001,7756.0,18.11628,0.1,68900.0,0.33,276.0,2700.0,25.347934196420404,0.759985636550496,2051.961218686339,13.641788476413176,3.219529694166671,11.706145720007228,2.459544057616175,21551,222,7072,10937,165.02037385068763,94.39224612797082,0.0017927526600232,False
0.0699999999999999,0.565392912158128,3.200000000000001,7757.0,18.11628,0.1,68900.0,0.33,276.0,2700.0,28.42941045362197,0.9943109883566502,2684.639668562956,15.38497995459368,3.970741127083731,13.044430499028286,2.9764301387270806,23501,234,7718,11918,157.75987227641443,90.58030533587711,0.0017466607214842,False
0.08,0.5921862814187326,3.200000000000001,7758.0,18.11628,0.2,68900.0,0.33,276.0,2700.0,29.908156580971923,1.1952539329464502,3227.1856189554155,16.313444206642757,4.395354634105932,13.594712374329166,3.200100701159481,6408,124,2098,3255,130.98300873503456,75.56020027819028,0.0016355854961099,False
0.09,0.4661206965060196,3.200000000000001,7759.0,18.11628,0.2,68900.0,0.33,276.0,2700.0,21.44226849285597,0.9633752681488988,2601.113224002027,12.10218921777239,2.6084340332688534,9.34007927508358,1.6450587651199546,4356,100,1426,2211,96.73400261385444,55.84347967854036,0.0010989623602119,False
0.0999999999999999,0.4957213915865819,3.200000000000001,7760.0,18.11628,0.08,68900.0,0.33,276.0,2700.0,22.979412833655697,1.14687624658039,3096.5658657670533,13.055126085719074,2.9807167223677795,9.924286747936623,1.8338404757873892,29562,258,9756,14922,451.6515488844359,236.19471641153967,0.0010729202380162,True
0.11,0.6329341917163535,3.200000000000001,7761.0,18.11628,0.1,68900.0,0.33,276.0,2700.0,31.710674194328607,1.741299440806782,4701.508490178312,17.76005658804787,5.089424909497796,13.950617606280735,3.3481254686910136,25772,248,8500,13016,105.801427919303,60.88804363346063,0.0013215711803121,False
0.12,0.6204422442817873,3.200000000000001,7762.0,18.11628,0.2,68900.0,0.33,276.0,2700.0,30.52127886031854,1.8276576168821732,4934.675565581868,17.31213800308833,4.87036898658906,13.20914085723021,3.042711369706887,6317,122,2066,3212,93.40089658641618,53.83250392200539,0.0011904946357803,False
0.13,0.7988746370272445,3.200000000000001,7763.0,18.11628,0.3,68900.0,0.33,276.0,2700.0,43.1528262650083,2.800332321185592,7560.897267201099,24.082193963934664,8.551515678628943,19.07063230107364,5.751183357443352,3962,102,1306,1997,111.69650042395295,64.18186211659017,0.0015227826898948,False
0.14,0.752021831173296,3.200000000000001,7764.0,18.11628,0.3,68900.0,0.33,276.0,2700.0,39.23946508335139,2.7410155356731853,7400.7419463176,22.227041524148564,7.466872278629935,17.012423559202826,4.725856742956749,3723,96,1212,1899,98.20489712847154,56.655681791446426,0.0013162441993286,False
0.15,0.5423943179515409,3.200000000000001,7765.0,18.11628,0.2,68900.0,0.33,276.0,2700.0,24.42684690263559,1.824944934227092,4927.351322413148,14.6024054584046,3.625932750701604,9.824441444230988,1.8009878164745123,5287,112,1736,2677,67.74751921149007,39.06490608523941,0.0008263746857232,False
0.16,0.6964937117408669,3.200000000000001,7766.0,18.11628,0.2,68900.0,0.33,276.0,2700.0,34.503595269642084,2.751708979231959,7429.614243926289,20.099827227564237,6.292065156458525,14.40376804207785,3.5403561772265664,7008,132,2302,3549,79.03996686572832,45.61762021864008,0.0010537632744337,False
0.17,0.7626538705754724,3.200000000000001,7767.0,18.11628,0.3,68900.0,0.33,276.0,2700.0,38.97298899051639,3.3024143010558413,8916.518612850772,22.64318134541513,7.705400750250951,16.329807645101262,4.40298644919511,3740,96,1218,1907,84.04065233867698,48.5188435820737,0.0011175348317103,False
0.18,0.6234063557769942,3.200000000000001,7768.0,18.11628,0.3,68900.0,0.33,276.0,2700.0,28.80394381379024,2.580140431003969,6966.379163710716,17.418066027217566,4.921841030544215,11.385877786572674,2.341700599540246,2976,84,972,1512,66.56406681216089,38.42583458133582,0.0008275526545412,False
0.19,0.6579159267290426,3.200000000000001,7769.0,18.11628,0.2,68900.0,0.33,276.0,2700.0,30.82693630504389,2.914193492971852,7868.322431023998,18.66758041630504,5.544405043638957,12.159355888738856,2.6302115506671053,6376,124,2102,3217,64.06960858097864,36.97578484610612,0.0008410528472298,False
0.2,0.8645444553760508,3.200000000000001,7770.0,18.11628,0.3,68900.0,0.33,276.0,2700.0,45.68628074085906,4.551872913266748,12290.05686582022,26.77526946420876,10.220822732709028,18.911011276650303,5.66894981944228,4371,106,1438,2208,78.90618499869672,45.51749325088419,0.0011315659365308,False
0.21,0.8963707663904328,3.200000000000001,7771.0,18.11628,0.3,68900.0,0.33,276.0,2700.0,47.8398189624097,5.00378479800863,13510.218954623302,28.11943799662097,11.094303231374084,19.72038096578873,6.090518433365452,4523,108,1476,2303,77.63920505471309,44.82479760234767,0.0011341216276483,False
0.22,0.6582360721307658,3.200000000000001,7772.0,18.11628,0.3,68900.0,0.33,276.0,2700.0,29.903953545636032,3.2671337709696786,8821.261181618132,18.679312287587493,5.550383261554134,11.22464125804854,2.283249490584456,2966,84,966,1511,57.10501863540262,32.96522821675197,0.0007386975263641,False
0.23,0.5728562184707056,3.200000000000001,7773.0,18.11628,0.1,68900.0,0.33,276.0,2700.0,24.012506247921294,2.735955713300128,7387.080425910345,15.641791230762868,4.086521405039354,8.37071501715843,1.3505656917392264,26405,210,6506,14944,50.04342830461933,28.879976933814497,0.0006135590743367,False
0.24,0.5916404693161617,3.200000000000001,7774.0,18.11628,0.1,68900.0,0.33,276.0,2700.0,24.91834595750333,2.96124859700492,7995.371211913284,16.2943502809064,4.386455770011908,8.623995676596934,1.4252071730069882,28179,218,6958,15940,49.47624578274548,28.56235582870985,0.0006138145627194,False
0.25,0.6281746686212702,3.200000000000001,7775.0,18.11628,0.08,68900.0,0.33,276.0,2700.0,26.989779797567437,3.340997551221034,9020.693388296791,17.588933864068608,5.005302967088428,9.400845933498823,1.6643054158673944,59683,282,11384,36549,50.24678521339511,29.004706929788217,0.0006349199537993,False
0.26,0.8565994715906691,3.200000000000001,7776.0,18.11628,0.3,68900.0,0.33,276.0,2700.0,42.911791829803526,5.541721849554799,14962.648993797957,26.443687747222004,10.009411907007909,16.468104082581522,4.46769005745311,4158,102,1364,2106,62.24904202082077,35.91748591189853,0.0008795709515781,False
0.27,0.8757848760237441,3.200000000000001,7777.0,18.11628,0.3,68900.0,0.33,276.0,2700.0,44.03867074795842,5.903996572173983,15940.790744869755,27.24709529703995,10.524436810411364,16.79157545091847,4.62044023823738,4275,104,1404,2163,61.56597581020496,35.51375253677204,0.0008755371256803,False
0.28,0.7385325496353043,3.200000000000001,7778.0,18.11628,0.3,68900.0,0.33,276.0,2700.0,33.56460733031251,4.653068864956017,12563.285935381247,21.703157598945594,7.170584007367328,11.861449731366918,2.5175151424113107,3179,88,1046,1604,50.5791197910968,29.15838919114463,0.0006879586576274,False
0.29,0.6067261047558269,3.200000000000001,7779.0,18.11628,0.08,68900.0,0.33,276.0,2700.0,24.453598349390106,3.494691558509299,9435.667207975106,16.824841350085364,4.63626060517234,7.628756999304738,1.141569046663041,56417,264,10156,34953,44.05666672018904,25.428939643190297,0.0005442289672653,False
0.3,0.7364712588600224,3.200000000000001,7780.0,18.11628,0.08,68900.0,0.33,276.0,2700.0,32.79326488506258,4.862441064994769,13128.590875485876,21.62350594802893,7.125929599764022,11.169758937033643,2.2634885347692526,78274,314,13798,48675,52.028853149737486,29.50549533385653,0.0006548871936011,False
0.31,0.6151823626096847,3.200000000000001,7781.0,18.11628,0.05,68900.0,0.33,276.0,2700.0,24.431150378315404,3.724434184143234,10055.972297186732,17.124709958329348,4.779802418650713,7.306440419986057,1.0553682345074793,221281,422,26354,147560,51.38670775357962,29.23546673862906,0.0005254020765039,False
0.32,0.9346281214239848,3.200000000000001,7782.0,18.11628,0.3,68900.0,0.33,276.0,2700.0,46.87391254200267,7.431196868005204,20064.23154361405,29.768911648155232,12.20151352924784,17.10500089384744,4.770316661242637,4366,106,1446,2191,56.01441682939476,32.282203302263504,0.0008176427970542,False
0.33,0.6684180443967184,3.200000000000001,7783.0,18.11628,0.08,68900.0,0.33,276.0,2700.0,27.29726334247358,4.428782174713436,11957.711871726277,19.053778960976487,5.742479695030022,8.243484381497094,1.3136975203165866,68727,282,11528,43157,263.08387280475785,140.60970427009724,0.0005737338568029,False
0.34,0.6678946203020654,3.200000000000001,7784.0,18.11628,0.05,68900.0,0.33,276.0,2700.0,26.978249611493343,4.503984328849406,12160.757687893398,19.03446524356024,5.732511542960528,7.943784367933105,1.2285272141111214,256171,444,28650,172232,55.97322152441441,31.746236428242906,0.0005339570177203,False
0.3500000000000001,0.9263216840345092,3.200000000000001,7785.0,18.11628,0.2,68900.0,0.33,276.0,2700.0,45.1691649016005,7.814806667764981,21099.97800296545,29.407651579084558,11.9557415208986,15.761513322515947,4.140934853133618,10429,156,3084,5521,53.24106073921091,30.72305342176977,0.0007513440379565,False
0.36,0.7537773971799195,3.200000000000001,7786.0,18.11628,0.2,68900.0,0.33,276.0,2700.0,32.16147264150161,5.691348977573035,15366.642239447194,22.29555885000413,7.505953449169364,9.86591379149748,1.8146044715963288,7480,126,2150,4001,45.54668917589808,26.291532094349908,0.000578136723142,False
0.37,0.7148600540319716,3.200000000000001,7787.0,18.11628,0.05,68900.0,0.33,276.0,2700.0,29.223164313245405,5.300198002828867,14310.53460763794,20.79484244917576,6.66759493146517,8.428321864069648,1.3673969286363032,296310,464,30954,200907,51.531294543232654,29.06186926889614,0.0005381250445846,False
0.38,0.9552119014080588,3.200000000000001,7788.0,18.11628,0.3,68900.0,0.33,276.0,2700.0,46.39474616238756,8.700078122795125,23490.21093154684,30.67160556157158,12.823542417829453,15.72314060081598,4.123464295034328,4365,106,1440,2199,48.97177843186961,28.269247542382224,0.0007232561313391,False
0.39,0.8133520027115446,3.200000000000001,7789.0,18.11628,0.2,68900.0,0.33,276.0,2700.0,35.43081669243205,6.784771831945389,18318.88394625255,24.666587748015843,8.90438629321187,10.76422894441621,2.1196144612664805,9509,134,2372,5351,44.370926912393024,25.61755086443344,0.0005922803477528,False
0.4,0.9605722384202924,3.200000000000001,7790.0,18.11628,0.3,68900.0,0.33,276.0,2700.0,46.12827413769684,9.09161354098621,24547.356560662764,30.90842871623621,12.988586963728318,15.219845421460622,3.896973422742109,4477,106,1494,2230,47.30934481226624,27.300426859838936,0.0006974333109905,False
0.4100000000000001,0.802390457876142,3.200000000000001,7791.0,18.11628,0.2,68900.0,0.33,276.0,2700.0,34.04795516733858,6.8354830044523744,18455.80411202141,24.22362940219196,8.63643289806542,9.824325765146618,1.800949893613046,9253,132,2304,5207,42.26782060354052,24.399855135533333,0.0005611086872925,False
0.42,0.7706068123189322,3.200000000000001,7792.0,18.11628,0.2,68900.0,0.33,276.0,2700.0,31.55040926385434,6.470416401063305,17470.124282870926,22.956318206816213,7.886724778467722,8.594091057038128,1.416308377404417,8620,126,2160,4842,39.920846221334365,23.03188586393096,0.0005275902821583,False
0.43,0.9805229852484448,3.200000000000001,7793.0,18.11628,0.2,68900.0,0.33,276.0,2700.0,46.67369247259705,9.868324810202395,26644.476987546463,31.79621131260839,13.614072531132576,14.877481159988658,3.7457477209301793,12541,156,3104,7075,47.17686919575628,27.226820325454927,0.0006814172979306,False
0.44,1.1273328861819407,3.200000000000001,7794.0,18.11628,0.2,68900.0,0.33,276.0,2700.0,58.39304866319718,12.668061753501124,34203.766734453035,38.63671456793073,18.777570849431815,19.75633409526645,6.109509095930696,15557,178,3836,8799,51.5016745096322,29.72272198984362,0.0007945797913595,False
0.45,0.7980309539778973,3.200000000000001,7795.0,18.11628,0.2,68900.0,0.33,276.0,2700.0,32.56798627569552,7.136945158325846,19269.75192747978,24.04830026255079,8.531212238819137,8.519686013144728,1.3942670804932913,8722,126,2182,4899,38.96116486760013,22.486928938216558,0.0005190156996162,False
0.46,1.0912046618841262,3.200000000000001,7796.0,18.11628,0.2,68900.0,0.33,276.0,2700.0,54.60090365930167,12.354347799952835,33356.73905987266,36.90309601551792,17.413110003297973,17.697807643783747,5.058762203345136,14465,170,3586,8162,48.50720453008522,28.000069980436056,0.0007350610473103,False
0.4700000000000001,1.017958625396469,3.200000000000001,7797.0,18.11628,0.2,68900.0,0.33,276.0,2700.0,48.279568887983885,11.12825230596044,30046.281226093182,33.489045478338376,14.83596034230528,14.790523409645507,3.70770803634484,12900,158,3192,7280,44.62251722663098,25.753475335296542,0.0006626386453869,False
0.4800000000000001,1.028507712787294,3.200000000000001,7798.0,18.11628,0.2,68900.0,0.33,276.0,2700.0,48.78156382397814,11.475951974590824,30985.070331395225,33.972434700462536,15.191786408578366,14.809129123515604,3.715834433987542,13625,162,3338,7720,44.77352832249249,25.84101459105724,0.00065941813263,False
0.49,0.795309488815465,3.200000000000001,7799.0,18.11628,0.05,68900.0,0.33,276.0,2700.0,31.249063118753952,7.409616974693262,20005.96583167181,23.93909140484208,8.46591427370452,7.309971713911874,1.0562972990112582,402023,476,32942,279556,53.97760201406509,30.67621751048793,0.0004908810014151,False
0.5,1.0333098995991608,3.200000000000001,7800.0,18.11628,0.2,68900.0,0.33,276.0,2700.0,48.49036293028474,11.860791344772034,32024.13663088449,34.1934109630158,15.355458739170738,14.29695196726894,3.494667394398704,13382,160,3274,7585,43.339792321950384,25.011730836381616,0.0006421649920952,False
0.02,0.6062811554046457,3.200000000000001,7802.0,21.13566,0.1,68900.0,0.33,276.0,2700.0,32.9163779520671,0.3291470243598584,888.6969657716178,16.809112705646758,4.628777902339508,16.107265246420344,4.299630877979649,27208,256,8992,13714,633.7206555621548,360.8510843312095,0.0072612516934016,True
0.03,0.637576192555271,3.200000000000001,7803.0,21.13566,0.1,68900.0,0.33,276.0,2700.0,34.78240755176459,0.5216795646087106,1408.5348244435186,17.92750236576671,5.172255539303772,16.854905185997882,4.6505759746950615,29402,266,9668,14894,498.2433687761108,283.7456902801631,0.0052315707459204,True
0.04,0.5828710812754198,3.200000000000001,7804.0,21.13566,0.1,68900.0,0.33,276.0,2700.0,30.60709420690063,0.6120078428508494,1652.4211756972934,15.988600827725609,4.24490631975434,14.618493379175025,3.6328984769034895,25480,246,8374,12913,346.4034790192034,197.7085726333855,0.0035589311200129,True
0.05,0.3894563336872257,3.200000000000001,7805.0,21.13566,0.1,68900.0,0.33,276.0,2700.0,18.009709007920502,0.4499809258102137,1214.9484996875772,9.73650399662783,1.7722529946380816,8.273205011292672,1.3222720688278675,15175,184,4984,7693,176.40086935314093,101.01139027744055,0.0017898145676478,False
0.06,0.5238363833833098,3.200000000000001,7806.0,21.13566,0.1,68900.0,0.33,276.0,2700.0,26.010190242570086,0.7798533179349837,2105.603958424456,13.98062477176125,3.360725134213618,12.029565470808835,2.580871816278634,21670,224,7118,10987,207.99380957861104,119.01166015564542,0.0021420700621162,False
0.0699999999999999,0.5918304533025165,3.200000000000001,7807.0,21.13566,0.2,68900.0,0.33,276.0,2700.0,30.214930322709723,1.0568041837747235,2853.371296191754,16.300995564948252,4.389552066867605,13.91393475776147,3.332747883092881,6449,124,2110,3278,179.254263586715,102.6601660745756,0.0021564930989253,False
0.08,0.4773704660769616,3.200000000000001,7808.0,21.13566,0.1,68900.0,0.33,276.0,2700.0,22.43563795072541,0.8963531877365909,2420.153606888796,12.461759444481546,2.746600432494534,9.973878506243866,1.850247244757943,18655,204,6130,9454,126.76219379949131,72.78754805263112,0.0014698261826287,False
0.09,0.5324735526686257,3.200000000000001,7809.0,21.13566,0.1,68900.0,0.33,276.0,2700.0,25.625673422721224,1.1516284899928104,3109.396922980588,14.268934995072382,3.482721899684452,11.356738427648844,2.3310934096916416,21101,220,6942,10682,125.99411451026194,72.38399251257488,0.0015018717643573,False
0.0999999999999999,0.6188714965280393,3.200000000000001,7810.0,21.13566,0.1,68900.0,0.33,276.0,2700.0,31.071838549006287,1.5514975323479252,4189.043337339398,17.256093929383532,4.843220008376248,13.815744619622755,3.2917224760283226,25762,246,8482,13033,134.51483691870797,77.32919653977125,0.0016379000660239,False
0.11,0.7905069099511335,3.200000000000001,7811.0,21.13566,0.3,68900.0,0.33,276.0,2700.0,43.24858372797363,2.3758844651572653,6414.888055924616,23.746824244235903,8.351406820390114,19.501759483737725,5.975522355232849,4155,104,1356,2115,150.56389196010792,86.88343936567779,0.0020466057590292,False
0.12,0.76145353134636,3.200000000000001,7812.0,21.13566,0.3,68900.0,0.33,276.0,2700.0,40.66383802753147,2.4362111669149518,6577.770150670369,22.59605759798214,7.67824953727366,18.06778042954933,5.242038370358709,3829,98,1250,1948,134.22711598063026,77.48920230404538,0.0018003725911844,False
0.13,0.4493619417236569,3.200000000000001,7813.0,21.13566,0.2,68900.0,0.33,276.0,2700.0,19.27525954530152,1.24829048440457,3370.384307892339,11.572436815812123,2.410065265025715,7.702822729489396,1.161774780621145,4148,98,1364,2096,76.61462229038519,44.23224545199196,0.0008829652033011,False
0.14,0.6333591178546198,3.200000000000001,7814.0,21.13566,0.1,68900.0,0.33,276.0,2700.0,30.753630656153703,2.147007125769792,5796.919239578437,17.77536196183662,5.096974873425144,12.978268694317084,2.9499677476553527,24841,242,8210,12520,94.5982220291797,54.59715607323605,0.0012351608440015,False
0.15,0.8366110526576194,3.200000000000001,7815.0,21.13566,0.3,68900.0,0.33,276.0,2700.0,45.34585089803137,3.3938702338817723,9163.449631480786,25.61649293549196,9.48912828247101,19.72935796253941,6.095258048589237,4414,106,1444,2242,117.56011740672548,67.75807952262771,0.0016523322071255,False
0.16,0.4702415707184608,3.200000000000001,7816.0,21.13566,0.05,68900.0,0.33,276.0,2700.0,19.68082125389483,1.5658870579721826,4227.895056524893,12.23353329866984,2.6585761123843223,7.44728795522499,1.0926890544121397,112600,376,21138,69259,68.19512235908077,38.91296406112972,0.0007804043465531,False
0.17,0.7086434297868957,3.200000000000001,7817.0,21.13566,0.2,68900.0,0.33,276.0,2700.0,35.034679742758975,2.967658014996454,8012.676640490426,20.55864513481741,6.539055887877567,14.476034607941564,3.5713978728811133,7298,134,2396,3698,88.53985009332507,51.11133168436903,0.0011880337515768,False
0.18,0.6555307358488155,3.200000000000001,7818.0,21.13566,0.3,68900.0,0.33,276.0,2700.0,30.982994724480783,2.776255012966108,7495.888535008492,18.58025511839585,5.49998347324643,12.402739606084928,2.723728460280322,2987,84,968,1529,80.71804060770297,46.60113076422497,0.001025442686851,False
0.19,0.7661260447117,3.200000000000001,7819.0,21.13566,0.3,68900.0,0.33,276.0,2700.0,38.53444472771032,3.64640679312509,9845.298341437743,22.779698232529,7.784258736410525,15.75474649518132,4.137851943285435,3939,100,1292,1995,104.38639087207714,59.9431197407876,0.0038123173480004,False
0.2,0.8297972000202711,3.200000000000001,7820.0,21.13566,0.3,68900.0,0.33,276.0,2700.0,42.98401142846952,4.2816459820278086,11560.444151475083,25.336805430287495,9.315534811823094,17.647205998182024,5.033888829795285,4259,104,1396,2159,88.75257768388302,51.21787851947202,0.0012518684361104,False
0.21,0.7829661854710803,3.200000000000001,7821.0,21.13566,0.3,68900.0,0.33,276.0,2700.0,39.09169304274574,4.085231576444423,11030.125256399942,23.44610739821759,8.17347327097395,15.64558564452815,4.088241694529527,3671,96,1208,1853,80.76711477231986,46.63087638857017,0.0011112903166783,False
0.22,0.7700933040612602,3.200000000000001,7822.0,21.13566,0.3,68900.0,0.33,276.0,2700.0,37.798950565956126,4.135583443204888,11166.075296653196,22.936051472861223,7.874941723353992,14.862899093094905,3.739358280149104,3610,96,1188,1822,76.91476698239057,44.30680912399632,0.0010432996103547,False
0.23,0.6500775222321253,3.200000000000001,7823.0,21.13566,0.1,68900.0,0.33,276.0,2700.0,29.04482808811866,3.3146727249227297,8949.61635729137,18.381142201011333,5.399204615308117,10.663685887107327,2.084531890385387,32241,236,7968,18235,63.88939653706344,36.87341982248656,0.0008246637421695,False
0.24,0.6612702388974224,3.200000000000001,7824.0,21.13566,0.2,68900.0,0.33,276.0,2700.0,29.49090567861262,3.5099557635376386,9476.880561551625,18.79062857914473,5.607228227714693,10.70027709946789,2.097272464177055,6156,122,2028,3108,60.94498872479833,35.18365986485651,0.0008051274684324,False
0.25,0.8010162381000092,3.200000000000001,7825.0,21.13566,0.2,68900.0,0.33,276.0,2700.0,39.06253629175656,4.850092112994679,13095.248705085633,24.16830991607252,8.603182323492478,14.894226375684042,3.753090210497799,8085,144,2676,4065,69.57615725652249,40.16667738450846,0.0009779138193261,False
0.26,0.8896761549976264,3.200000000000001,7826.0,21.13566,0.3,68900.0,0.33,276.0,2700.0,45.47743659895977,5.875255669545113,15863.190307771803,27.8345801360204,10.90700865613924,17.64285646293937,5.031752986594127,4380,106,1438,2217,73.94350352664988,42.66173697063905,0.0010773316395735,False
0.27,0.730777163431557,3.200000000000001,7827.0,21.13566,0.3,68900.0,0.33,276.0,2700.0,33.336542722174215,4.459209288693109,12039.865079471394,21.404031706386885,7.003428533699151,11.93251101578733,2.544219245006042,3202,88,1054,1615,60.47216268020845,34.861807883776294,0.000817323870982,False
0.28,0.9616517500144208,3.200000000000001,7828.0,21.13566,0.3,68900.0,0.33,276.0,2700.0,50.50058412988509,7.024105616896187,18965.085165619705,30.95620959641205,13.021978758256097,19.54437453347304,5.997873141359908,4994,114,1644,2522,74.83329348307912,43.20260509655478,0.0011134827702872,False
0.29,0.7932770797519477,3.200000000000001,7829.0,21.13566,0.1,68900.0,0.33,276.0,2700.0,37.15954958134432,5.337054487142661,14410.047115285184,23.857654886241157,8.41734302110316,13.301894695103169,3.0802885339605,48078,270,9974,28829,62.697554490922045,36.18606822743559,0.000856397155571,False
0.3,0.9758207791600746,3.200000000000001,7830.0,21.13566,0.3,68900.0,0.33,276.0,2700.0,50.9137364280037,7.580511796435945,20467.381850377053,31.586068153037367,13.465054478686232,19.32766827496633,5.884542682250287,4963,114,1634,2506,71.80620494725213,41.443933381373256,0.0010661117711224,False
0.31,0.8045484785987015,3.200000000000001,7831.0,21.13566,0.3,68900.0,0.33,276.0,2700.0,37.32754416431172,5.723375220972919,15453.11309662688,24.310596737876907,8.688801809898537,13.016947426434813,2.9654265889256184,3461,94,1138,1748,58.2501621197744,33.630746624292215,0.0008128094560715,False
0.32,0.8366054569884234,3.200000000000001,7832.0,21.13566,0.3,68900.0,0.33,276.0,2700.0,39.35695983263228,6.228484434505931,16816.907973166013,25.61626277190093,9.488984941695891,13.740697060731344,3.2605005071899624,3760,96,1246,1885,59.581499564565874,34.37095968510178,0.0008302375526579,False
0.33,0.9400610266785112,3.200000000000001,7833.0,21.13566,0.3,68900.0,0.33,276.0,2700.0,46.9490221659774,7.671322380591563,20712.57042759722,30.00613528147552,12.363889276667146,16.942886884501878,4.692566896075584,4363,106,1448,2185,63.79155963320394,36.75678958335398,0.0009351145278953,False
0.34,0.8696779100018843,3.200000000000001,7834.0,21.13566,0.2,68900.0,0.33,276.0,2700.0,41.16576719334152,6.915862317763594,18672.828257961704,26.99035645921618,10.358824149935856,14.175410734125336,3.442961832172262,8687,146,2736,4467,60.902612941814446,35.1415712438159,0.0008305787576675,False
0.3500000000000001,0.8105238445690708,3.200000000000001,7835.0,21.13566,0.1,68900.0,0.33,276.0,2700.0,36.47649718270732,6.29358981695867,16992.69250578841,24.55201222116529,8.8347873484571,11.924484961542028,2.5411975314984296,53283,266,9790,32890,55.389487488206505,31.962881826536474,0.0007521541457673,False
0.36,0.867084499221116,3.200000000000001,7836.0,21.13566,0.3,68900.0,0.33,276.0,2700.0,40.3084007738969,7.157796041404187,19326.049311791307,26.881612169697704,10.28896811435606,13.426788604199196,3.131172072951874,3802,98,1262,1903,53.88024213252135,31.04727087646141,0.0007843577607089,False
0.37,0.9478464809071084,3.200000000000001,7837.0,21.13566,0.2,68900.0,0.33,276.0,2700.0,46.16166076156927,8.433819845768792,22771.31358357574,30.34737437498216,12.598828031800576,15.814286386587112,4.165008186031784,11682,156,3110,6433,60.150120753247016,34.72152444836807,0.0008623302670763,False
0.38,1.0180235024348538,3.200000000000001,7838.0,21.13566,0.3,68900.0,0.33,276.0,2700.0,51.43567607067219,9.657854805369205,26076.207974496847,33.492009781519805,14.838133108551286,17.943666289152382,5.180278303182083,4993,114,1650,2512,60.25733384069407,34.72059297857861,0.0009150059174421,False
0.39,1.0360367477097594,3.200000000000001,7839.0,21.13566,0.3,68900.0,0.33,276.0,2700.0,52.553230624485884,10.123642548695882,27333.83488147888,34.31914693800929,15.44887036623708,18.234083686476595,5.325227817541197,4976,114,1644,2502,59.91112378478886,34.581853585769615,0.0009150280213369,False
0.4,0.9274774999798872,3.200000000000001,7840.0,21.13566,0.2,68900.0,0.33,276.0,2700.0,43.55975326368775,8.577909366184386,23160.355288697843,29.4578159797807,11.989760340683048,14.101937283907052,3.4118509744986625,11916,152,2956,6718,55.79311950159384,32.18908431500292,0.0007875249363141,False
0.4100000000000001,0.7826915322887588,3.200000000000001,7841.0,21.13566,0.2,68900.0,0.33,276.0,2700.0,32.67404537701351,6.553831497435729,17695.345043076468,23.43518146717877,8.167035223427982,9.23886390983474,1.6132037259922534,8674,126,2164,4878,48.10238704178817,27.769759706954765,0.0006360121025715,False
0.42,0.9625575344984334,3.200000000000001,7842.0,21.13566,0.2,68900.0,0.33,276.0,2700.0,45.60423604009964,9.421720024074812,25438.644065001998,30.99632363907149,13.050036578374636,14.60791240102814,3.628316554299824,12634,156,3116,7144,55.19285367123114,31.85855957420064,0.0007922749689328,False
0.43,0.7870258942652097,3.200000000000001,7843.0,21.13566,0.2,68900.0,0.33,276.0,2700.0,32.388062337219914,6.796914331096311,18351.66869396004,23.607827096938664,8.268985766673971,8.78023524028125,1.4720714355776607,8630,126,2146,4861,46.52079635564289,26.82097081883754,0.000618145816608,False
0.44,1.0899969514568892,3.200000000000001,7844.0,21.13566,0.3,68900.0,0.33,276.0,2700.0,55.22391639715767,11.97085265497243,32321.30216842556,36.84571046999604,17.368576405692888,18.37820592716164,5.397723750720457,5119,116,1698,2560,56.51425100009466,32.579951409811315,0.0008788775560461,False
0.45,0.9070613299231656,3.200000000000001,7845.0,21.13566,0.1,68900.0,0.33,276.0,2700.0,40.391602156539314,8.89725873151576,24022.598575092557,28.576660453530696,11.39735729370126,11.814941703008618,2.5000985621854994,70087,282,10770,44920,50.08409821102621,28.901571851252328,0.0007015038092153,False
0.46,1.081930946579556,3.200000000000001,7846.0,21.13566,0.2,68900.0,0.33,276.0,2700.0,53.82869826494994,12.176740559251932,32877.199509980215,36.46338632433698,17.072921738636907,17.365311940612962,4.896181179384975,14112,168,3470,7985,56.278417971055134,32.47407904859472,0.0008480058320115,False
0.4700000000000001,0.9665417630158926,3.200000000000001,7847.0,21.13566,0.2,68900.0,0.33,276.0,2700.0,44.2548660482414,10.182447138620969,27492.607274276612,31.17301608467128,13.173884874032098,13.081849963570118,2.991437735411129,11844,150,2934,6681,50.4853981190198,29.141430566620656,0.0007273704577684,False
0.4800000000000001,0.8239663454496919,3.200000000000001,7848.0,21.13566,0.2,68900.0,0.33,276.0,2700.0,33.50101025936039,7.8086191190826275,21083.27162152309,25.098393456746308,9.168495072046822,8.402616802614084,1.3598759529641944,8753,126,2152,4949,44.33834114160725,25.58210059847544,0.0005972229540008,False
0.49,0.8502604947841708,3.200000000000001,7849.0,21.13566,0.1,68900.0,0.33,276.0,2700.0,35.054696539226235,8.341997162708967,22523.39233931421,26.180270121329176,9.842621416287958,8.874426417897059,1.5006242535789909,64121,258,9432,41407,47.050968026623,27.025814034712106,0.0006119433337527,False
0.5,1.124324270016105,3.200000000000001,7850.0,21.13566,0.2,68900.0,0.33,276.0,2700.0,55.942007654258255,13.723702525765422,37053.99681956664,38.4910934799485,18.66154692140494,17.45091417430975,4.93784439563952,15005,172,3670,8512,54.30124447816497,31.31966433063535,0.0008300227319665,False
0.02,0.6186569423839559,3.200000000000001,7852.0,24.15504,0.1,68900.0,0.33,276.0,2700.0,33.788818750046794,0.3378714323396479,912.2528673170492,17.248443479153135,4.839518462651591,16.54037527089366,4.501647030311943,27642,258,9144,13920,707.7131882493783,404.90260802126886,0.0085123427618557,True
0.03,0.4795104668683452,3.200000000000001,7853.0,24.15504,0.1,68900.0,0.33,276.0,2700.0,24.10761996291265,0.3615577507759239,976.2059270949944,12.530519196628443,2.7733421600039447,11.57710076628421,2.4117844092280207,20293,216,6666,10288,423.21820589711785,241.6938557013546,0.0042095538778002,True
0.04,0.5045688752034726,3.200000000000001,7854.0,24.15504,0.1,68900.0,0.33,276.0,2700.0,25.397067172661977,0.5078073021666869,1371.0797158500543,13.344228328950082,3.097499199707311,12.052838843711896,2.589691897540624,20975,220,6878,10652,333.85216120887804,190.7290073492152,0.0034122153042506,True
0.05,0.4082549507799348,3.200000000000001,7855.0,24.15504,0.08,68900.0,0.33,276.0,2700.0,19.11891050989201,0.4777109633595021,1289.8196010706558,10.30291626708481,1.9605957752891296,8.815994242807205,1.4828848119296274,25485,238,8364,12933,213.5018309364185,122.33567750059754,0.002159321222345,False
0.06,0.6326447022009086,3.200000000000001,7856.0,24.15504,0.1,68900.0,0.33,276.0,2700.0,33.38412580362809,1.0010713847667283,2702.8927388701663,17.749632091901493,5.08428506826383,15.634493711726597,4.083213683497101,27277,254,8940,13861,291.5518847218023,166.59553063640544,0.0030867378490937,True
0.0699999999999999,0.4858513970496,3.200000000000001,7857.0,24.15504,0.1,68900.0,0.33,276.0,2700.0,23.26925446396873,0.8137055287187188,2197.004927540541,12.73493358870127,2.853444862087905,10.53432087526746,2.0397393333691864,19329,210,6350,9798,171.4690255749615,98.27469397159456,0.0019404564058654,False
0.08,0.4672113448670975,3.200000000000001,7858.0,24.15504,0.1,68900.0,0.33,276.0,2700.0,21.8063647440616,0.8711822594698263,2352.192100568531,12.13690977857016,2.621652197348729,9.669454965491436,1.7504699378789033,18357,204,6020,9321,142.34297342451998,81.85518928157656,0.0016376765571691,False
0.09,0.7749532191495461,3.200000000000001,7859.0,24.15504,0.2,68900.0,0.33,276.0,2700.0,42.7955756750296,1.9242740913466885,5195.540046636059,23.128124163216658,7.9868754740499615,19.66745151181294,6.0626013827032725,8878,152,2912,4504,216.78196055042253,124.289899142817,0.0027403222416042,False
0.0999999999999999,0.7413149102295289,3.200000000000001,7860.0,24.15504,0.3,68900.0,0.33,276.0,2700.0,39.87360067244304,1.9915856385197568,5377.2812240033445,21.810841922687924,7.231119781037673,18.062758749755115,5.2395341425179165,3820,98,1248,1942,177.37226060659123,102.36744813784088,0.0023543343883572,False
0.11,0.6990252284048563,3.200000000000001,7861.0,24.15504,0.3,68900.0,0.33,276.0,2700.0,36.3980868488263,1.9991071368041389,5397.589269371175,20.195120606041343,6.343068788437985,16.20296624278496,4.343961651633846,3579,94,1170,1818,156.42541841056,89.70109814540703,0.0019967584441422,False
0.12,0.4301132763893384,3.200000000000001,7862.0,24.15504,0.05,68900.0,0.33,276.0,2700.0,18.416395126590498,1.1013645928584952,2973.684400717937,10.972686814322111,2.193098432087005,7.443708312268384,1.0917338392285096,80925,364,19788,45985,88.83693285005066,51.26582163694588,0.0010340315570132,False
0.13,0.7086716424830828,3.200000000000001,7863.0,24.15504,0.2,68900.0,0.33,276.0,2700.0,36.40258437900973,2.3615665985956715,6376.229816208313,20.55971486713965,6.539635917776748,15.84286951187007,4.178069319181076,7602,138,2500,3846,130.52038723495232,75.07575699578643,0.0017397684980637,False
0.14,0.6025970506725734,3.200000000000001,7864.0,24.15504,0.1,68900.0,0.33,276.0,2700.0,28.66929238390284,2.0011034467122317,5402.979306123025,16.679073370520914,4.567091014669595,11.990219013381928,2.565987567957364,23637,236,7822,11898,103.32949627846344,59.58667746474581,0.0013283212445188,False
0.15,0.7199078679505079,3.200000000000001,7865.0,24.15504,0.3,68900.0,0.33,276.0,2700.0,36.52751761599022,2.732495237728691,7377.737141867466,20.98734597383556,6.773049018217423,15.540171642154665,4.040553780488732,3539,92,1158,1796,118.58275459913597,68.43442555095532,0.0015557828855346,False
0.16,0.5932258333474051,3.200000000000001,7866.0,24.15504,0.3,68900.0,0.33,276.0,2700.0,27.4188678825029,2.1849307882608326,5899.3131283042485,16.349831144802522,4.4123322171972434,11.06903673770038,2.227401428936411,2843,82,932,1439,94.5315040464138,54.52251956639245,0.0011561663492787,False
0.17,0.6957839055324206,3.200000000000001,7867.0,24.15504,0.3,68900.0,0.33,276.0,2700.0,34.118606729681645,2.889791808884886,7802.437883989192,20.07313704516872,6.277807647481279,14.045469684512929,3.388015838596393,3312,90,1082,1683,102.77072816925912,59.31252939805297,0.001328030682207,False
0.18,0.5879571829699319,3.200000000000001,7868.0,24.15504,0.08,68900.0,0.33,276.0,2700.0,26.45957023691974,2.3691468090856174,6396.696384531167,16.165695098958423,4.326676053695161,10.293875137961315,1.957529244609544,45806,282,11294,25937,82.54070869105394,47.60927277757291,0.0010347522020023,False
0.19,0.5936458685815169,3.200000000000001,7869.0,24.15504,0.1,68900.0,0.33,276.0,2700.0,26.527761475165697,2.5057718841334258,6765.5840871602495,16.364541141049173,4.4192028115529896,10.163220334116524,1.913430927419564,28939,226,7320,16243,80.15332317314633,46.238895687191295,0.0009974470621358,False
0.2,0.5411261185662594,3.200000000000001,7870.0,24.15504,0.08,68900.0,0.33,276.0,2700.0,22.88069787846153,2.271314627027008,6132.549492972921,14.559639096243709,3.607441111484627,8.32105878221782,1.336126484457619,39355,256,9518,22452,70.82310160851155,40.85951026819636,0.0008615521489032,False
0.21,0.8380402308309798,3.200000000000001,7871.0,24.15504,0.3,68900.0,0.33,276.0,2700.0,43.25941289432575,4.522842160860939,12211.673834324534,25.67530430570529,9.525780834901893,17.584108588620463,5.002938674040954,4289,104,1404,2177,97.78124331346169,56.447213337765085,0.0013866849178592,False
0.22,0.7798639729475798,3.200000000000001,7872.0,24.15504,0.3,68900.0,0.33,276.0,2700.0,38.51844169450215,4.214727467344946,11379.764161831354,23.32280904333688,8.100929774353746,15.195632651165273,3.886202307008801,3664,96,1208,1846,87.89179063349545,50.74417508348599,0.0012250024706266,False
0.23,0.5656310827086537,3.200000000000001,7873.0,24.15504,0.05,68900.0,0.33,276.0,2700.0,23.556996391769623,2.683572079842689,7245.644615575261,15.393153743930286,3.974406349578999,8.163842647839337,1.2908342697363095,168042,416,25394,108075,71.99733033765682,40.449711164040224,0.000808593896833,False
0.24,0.6147927287097757,3.200000000000001,7874.0,24.15504,0.2,68900.0,0.33,276.0,2700.0,26.411701450276134,3.1404512561376534,8479.218391571665,17.11085359659674,4.773132750702634,9.300847853679391,1.6326814945649804,5299,112,1756,2659,66.43311200709756,38.24897965248849,0.0008464009826537,False
0.25,0.8466095745561135,3.200000000000001,7875.0,24.15504,0.3,68900.0,0.33,276.0,2700.0,42.497472325556544,5.279459117219675,14254.539616493124,26.02901362383565,9.74731555315062,16.46845870172089,4.467856435930946,4190,102,1376,2120,85.04149294032166,49.074533474734615,0.0011972953493043,False
0.26,0.9152570717324746,3.200000000000001,7876.0,24.15504,0.3,68900.0,0.33,276.0,2700.0,47.49937254255629,6.138107342212653,16572.88982397416,28.92912752070839,11.63300743610576,18.570245021847896,5.494900093893106,4507,108,1484,2275,147.70989590627164,85.2272522379866,0.0017129035534536,False
0.27,0.7186689312398311,3.200000000000001,7877.0,24.15504,0.3,68900.0,0.33,276.0,2700.0,32.490720958178215,4.345023350553661,11731.563046494884,20.94003856042328,6.747076334259307,11.550682397754931,2.402052983705646,3246,88,1066,1641,67.86013221938943,39.10921404609189,0.0009162252412835,False
0.28,0.5977153584471566,3.200000000000001,7878.0,24.15504,0.08,68900.0,0.33,276.0,2700.0,24.163821850479263,3.336958897778972,9009.789024003225,16.507287775292347,4.486088457724034,7.656534075186919,1.1491295599450622,55466,262,10144,34270,61.84411497149507,35.57751317149198,0.0010383517500707,False
0.29,0.870463501653491,3.200000000000001,7879.0,24.15504,0.2,68900.0,0.33,276.0,2700.0,42.928327872058674,6.173527339296244,16668.523816099856,27.023330454961545,10.380040499676566,15.904997417097132,4.2065131603803225,8613,150,2858,4320,76.08174700879675,43.84577324553546,0.0010868065604235,False
0.3,0.648124786110396,3.200000000000001,7880.0,24.15504,0.08,68900.0,0.33,276.0,2700.0,26.8324172551202,3.968313920503416,10714.447585359225,18.3100237773448,5.363380548325282,8.522393477775402,1.395066627821866,63692,278,11176,39656,61.891733562568746,34.9430542044033,0.0007580653109335,False
0.31,0.913665036232118,3.200000000000001,7881.0,24.15504,0.3,68900.0,0.33,276.0,2700.0,45.57726351296262,7.002081720013805,18905.620644037277,28.860528134251577,11.587005852878896,16.71673537871104,4.584924132865091,4398,106,1454,2211,74.85159759097915,43.06795690260685,0.0010895205200655,False
0.32,0.750012803733896,3.200000000000001,7882.0,24.15504,0.1,68900.0,0.33,276.0,2700.0,33.11830770554987,5.230300094172757,14121.810254266446,22.14872698891082,7.422296227319256,10.969580716639047,2.1919961331464988,47613,254,9012,29211,63.73193018319116,36.79033259944581,0.0008454746549639,False
0.33,0.6948740987231219,3.200000000000001,7883.0,24.15504,0.1,68900.0,0.33,276.0,2700.0,29.04817396183008,4.717682426907261,12737.742552649604,20.03894494326228,6.259560526394437,9.0092290185678,1.5418780994871764,41733,232,7862,25626,59.22461250650002,34.18810113227052,0.0007578783004311,False
0.34,0.7916224702877097,3.200000000000001,7884.0,24.15504,0.08,68900.0,0.33,276.0,2700.0,35.434914445927184,5.941617350703157,16042.366846898523,23.79143306697789,8.377922714645662,11.643481378949293,2.4363053639425045,92550,328,15034,58587,67.79199238743097,38.24164932711898,0.0008573091215906,False
0.3500000000000001,0.929275614022674,3.200000000000001,7885.0,24.15504,0.2,68900.0,0.33,276.0,2700.0,45.39972555681299,7.855154782427177,21208.917912553377,29.53592396934086,12.042799064626395,15.863801587472128,4.18764428219922,10509,156,3100,5571,71.59535329461596,41.31411846844009,0.0010061279324587,False
0.36,0.8951039978219598,3.200000000000001,7886.0,24.15504,0.3,68900.0,0.33,276.0,2700.0,42.42256235149658,7.538345125372115,20353.53183850471,28.065450183882565,11.058716610446796,14.357112167614016,3.520371485074681,4007,100,1320,2021,64.84445865784396,37.40937893313724,0.0009331219991699,False
0.37,1.0440765436751227,3.200000000000001,7887.0,24.15504,0.3,68900.0,0.33,276.0,2700.0,53.95396300153774,9.87539576016296,26663.56855243999,34.690952669171175,15.726282838019698,19.26301033236656,5.850887077856738,5068,116,1682,2539,72.42694585510405,41.77669499029747,0.0011044999356507,False
0.38,0.98989562670728,3.200000000000001,7888.0,24.15504,0.3,68900.0,0.33,276.0,2700.0,49.15376119302384,9.22429097861601,24905.585642263224,32.216735524520445,13.914056006420276,16.937025668503395,4.689765027804267,4649,110,1544,2327,67.17146969297299,38.75339821599946,0.0010069440890383,False
0.39,0.8541296866645385,3.200000000000001,7889.0,24.15504,0.2,68900.0,0.33,276.0,2700.0,38.37981812789874,7.359827111861393,19871.533202025763,26.34093518659511,9.944228605533857,12.038882941303626,2.5844014936724635,9909,138,2464,5583,62.33661529480973,35.93672236066244,0.0008349890482505,False
0.4,1.0563857336409732,3.200000000000001,7890.0,24.15504,0.3,68900.0,0.33,276.0,2700.0,53.87488838148453,10.640936389743745,28730.52825230811,35.263346994450146,16.156819313630393,18.611541387034386,5.5158829238866485,5171,116,1722,2582,68.02025493712858,39.237290570138725,0.0010476961519841,False
0.4100000000000001,0.8837104448395887,3.200000000000001,7891.0,24.15504,0.1,68900.0,0.33,276.0,2700.0,39.92611347950252,8.040505458445974,21709.36473780413,27.581686367034315,10.741710408817744,12.344427112468203,2.701204950371771,63348,280,10624,39784,62.947917740303375,35.45773476480807,0.0008376411129692,False
0.42,0.8694104231541968,3.200000000000001,7892.0,24.15504,0.08,68900.0,0.33,276.0,2700.0,38.55309180878912,7.940979735499605,21440.64528584893,26.979132651836597,10.351606085719126,11.573959156952526,2.410626350219521,118493,344,16412,77251,60.48470355693247,34.21376369972364,0.0008068603871801,False
0.43,0.9143867451486508,3.200000000000001,7893.0,24.15504,0.2,68900.0,0.33,276.0,2700.0,41.57924546703551,8.773018704006402,23687.150500817286,28.891618033049685,11.607845971510642,12.68762743398582,2.83482726750424,11398,146,2846,6411,59.651891279945445,34.42580016423767,0.0008360125259166,False
0.44,1.0594053981554648,3.200000000000001,7894.0,24.15504,0.3,68900.0,0.33,276.0,2700.0,52.67948374788532,11.411077472132511,30809.90917475778,35.404347234919825,16.263515620255102,17.275136512965496,4.852438148122591,5097,114,1692,2547,62.78638160048714,36.221001175918666,0.0009695991382018,False
0.45,1.075102987514984,3.200000000000001,7895.0,24.15504,0.3,68900.0,0.33,276.0,2700.0,53.61982048333927,11.873607855045748,32058.74120862352,36.1410228035082,16.82505243862209,17.478797679831068,4.951444583576343,5135,116,1688,2583,63.11451188708344,36.394458282630055,0.0009689478611488,False
0.46,1.0020879019474862,3.200000000000001,7896.0,24.15504,0.2,68900.0,0.33,276.0,2700.0,47.35914159729564,10.688742525691444,28859.6048193669,32.76707283719014,14.310202449388054,14.592068760105498,3.6214599236966087,12874,158,3180,7274,60.659186181358976,34.99866971200969,0.0008820505247822,False
0.4700000000000001,1.0552104855816662,3.200000000000001,7897.0,24.15504,0.2,68900.0,0.33,276.0,2700.0,51.27850830019687,11.8330030678305,31949.108283142352,35.208531904590764,16.115408347574235,16.069976395606105,4.282405279743735,13843,166,3408,7825,62.013602857069664,35.77645653261346,0.0009230623392736,False
0.4800000000000001,0.9156725960102888,3.200000000000001,7898.0,24.15504,0.2,68900.0,0.33,276.0,2700.0,40.09199034917008,9.390454340636952,25354.226719719773,28.94704257310607,11.64503191284594,11.144947776064011,2.254577572208987,11055,142,2710,6262,54.521337632951216,31.44214319762096,0.0007667579352164,False
0.49,0.9558644902661168,3.200000000000001,7899.0,24.15504,0.2,68900.0,0.33,276.0,2700.0,42.79443603492584,10.238233339155366,27643.230015719488,30.700398752514765,12.843567760353425,12.094037282411072,2.605334421198057,11686,148,2892,6594,55.69098613778057,32.05925667553799,0.000793383582254,False
0.5,0.8879486293385304,3.200000000000001,7900.0,24.15504,0.1,68900.0,0.33,276.0,2700.0,37.45271699807968,9.101379861720778,24573.7256266461,27.76125619937872,10.85898705003281,9.69146079870096,1.7576071883120328,69105,268,9962,44796,55.11009360105552,31.20088894990729,0.0007221470091355,False
0.03,0.7246329284295339,3.200000000000001,7903.0,27.17442,0.1,68900.0,0.33,276.0,2700.0,41.19800608774695,0.6179135426484382,1668.3665651507831,21.168121249982047,6.872642363351249,20.0298848377649,6.254728820702811,33827,290,11136,17117,767.6301424810372,437.1002533633183,0.0079203177277958,True
0.04,0.3660012032788035,3.200000000000001,7904.0,27.17442,0.05,68900.0,0.33,276.0,2700.0,16.932399203648075,0.338513942786407,913.9876455232992,9.042242635620154,1.552051044457449,7.890156568027921,1.2135371016710417,55442,348,18214,28115,274.13171185397795,156.74211665843328,0.0026352302263002,False
0.05,0.6080859488768225,3.200000000000001,7905.0,27.17442,0.1,68900.0,0.33,276.0,2700.0,32.007846372579394,0.7999343599266897,2159.822771802062,16.872941717544638,4.659172466003344,15.134904655034756,3.8592381060766554,26782,252,8792,13588,378.8771818876173,216.48884822299985,0.0039118762979051,True
0.06,0.4477795962931367,3.200000000000001,7906.0,27.17442,0.05,68900.0,0.33,276.0,2700.0,21.20919724524343,0.6358235280151847,1716.7235256409988,11.522782806639166,2.3917929657050263,9.686414438604263,1.7559694376898416,69511,396,22934,35104,221.3497035533933,127.0003395606017,0.0022858102490039,False
0.0699999999999999,0.6259625351960751,3.200000000000001,7907.0,27.17442,0.1,68900.0,0.33,276.0,2700.0,32.57207722592159,1.1393043253871338,3076.121678545261,17.509593163918165,4.96648167735371,15.062484062003424,3.827177351966576,26892,252,8836,13632,262.599453131685,150.45576176706678,0.0029684601152891,False
0.08,0.7093281412894528,3.200000000000001,7908.0,27.17442,0.1,68900.0,0.33,276.0,2700.0,38.214966051219015,1.5275263117563345,4124.321041742103,20.584612783813565,6.553141518180023,17.63035326740545,5.025615206423688,31900,278,10490,16159,263.96354928223553,150.94971377404283,0.0030692020952682,False
0.09,0.4438343179018936,3.200000000000001,7909.0,27.17442,0.08,68900.0,0.33,276.0,2700.0,20.086808647038445,0.9023795750870844,2436.424852735128,11.399253994476313,2.346576186082652,8.687554652562133,1.4441966109955675,25618,238,8426,12973,160.72567471493875,92.52756128968376,0.0021298558319153,False
0.0999999999999999,0.5786675767771613,3.200000000000001,7910.0,27.17442,0.2,68900.0,0.33,276.0,2700.0,28.346151433767883,1.4152131765860032,3821.075576782209,15.842728636190374,4.178004907019063,12.503422797577509,2.76279173043306,6115,120,1996,3115,160.72256058999403,92.4037980442928,0.0019397349472985,False
0.11,0.7204203942518219,3.200000000000001,7911.0,27.17442,0.3,68900.0,0.33,276.0,2700.0,37.96255152482497,2.0851526939840848,5629.912273757029,21.006927498213443,6.7838106027649525,16.955624026611524,4.698657908780868,3809,96,1236,1949,261.9776706297886,147.7597813572336,0.0023377415745804,False
0.12,0.8191860598074208,3.200000000000001,7912.0,27.17442,0.3,68900.0,0.33,276.0,2700.0,45.1047547561639,2.702666170632898,7297.198660708824,24.90357456419584,9.048983455920022,20.20118019196806,6.346317285287124,4447,106,1456,2257,185.52997255551895,107.0718642662298,0.0025411326595446,False
0.13,0.6162194403743406,3.200000000000001,7913.0,27.17442,0.3,68900.0,0.33,276.0,2700.0,29.9084389822171,1.9394471478041515,5236.507299071209,17.16160964608777,4.797581206161197,12.74682933612933,2.858134058357045,2913,84,952,1479,134.95861815978662,77.82980224938227,0.0016441597978172,False
0.14,0.8087333175755549,3.200000000000001,7914.0,27.17442,0.3,68900.0,0.33,276.0,2700.0,43.54499304785472,3.042402493188864,8214.486731609933,24.47957756427172,8.790891167956866,19.065415483583,5.748488674768002,3991,102,1316,2011,157.32088044815748,90.75102399581708,0.0021661571308869,False
0.15,0.6156067395968311,3.200000000000001,7915.0,27.17442,0.1,68900.0,0.33,276.0,2700.0,29.225644083979745,2.184854722827903,5899.107751635338,17.139806212672095,4.787072954559757,12.08583787130765,2.602218231731854,24090,238,7972,12124,111.817724854708,64.51229035525297,0.001440310011744,False
0.16,0.7464316492698837,3.200000000000001,7916.0,27.17442,0.3,68900.0,0.33,276.0,2700.0,38.12188933659662,3.0411725045883267,8211.165762388482,22.00938044195452,7.343227821734589,16.112508894642097,4.302055317146262,3748,96,1222,1909,131.27797156365904,75.79334346713748,0.0017249931977576,False
0.17,0.7249680505101792,3.200000000000001,7917.0,27.17442,0.1,68900.0,0.33,276.0,2700.0,36.2095693291345,3.0675236298382345,8282.313800563234,21.180963937810137,6.879738420043305,15.028605391324366,3.8122147902050703,30860,268,9786,15853,116.95280725960131,67.4859252926971,0.0015734680138091,False
0.18,0.5013249633684853,3.200000000000001,7918.0,27.17442,0.08,68900.0,0.33,276.0,2700.0,20.99609727854451,1.877434242831848,5069.07245564599,13.238001155612675,3.054384066788016,7.7580961229318355,1.1769498239561675,36395,246,8990,20588,81.4004378688281,46.98470128330828,0.0009737851377849,False
0.19,0.8754158029951622,3.200000000000001,7919.0,27.17442,0.3,68900.0,0.33,276.0,2700.0,46.91627100212644,4.442680289194699,11995.236780825686,27.231552735056404,10.514383510705484,19.68471826707004,6.071703221510785,4513,108,1476,2293,125.46737290903827,72.43435816325747,0.0018091460532474,False
0.2,0.795234399604833,3.200000000000001,7920.0,27.17442,0.3,68900.0,0.33,276.0,2700.0,40.35629377428729,4.01887421660958,10850.960384845866,23.93608081129827,8.464116819260115,16.420212962989016,4.445242602650534,3918,100,1282,1989,110.75464668748748,63.88064935072415,0.0015239399438822,False
0.21,0.830711778394227,3.200000000000001,7921.0,27.17442,0.3,68900.0,0.33,276.0,2700.0,42.696039412360165,4.46368794525455,12051.957452187286,25.37427823435901,9.338724440440656,17.321761178001154,4.875036495186105,4151,102,1358,2108,109.58076794058744,63.22050297171244,0.0015420917699418,False
0.22,0.7019421562689527,3.200000000000001,7922.0,27.17442,0.3,68900.0,0.33,276.0,2700.0,32.9139124668595,3.598229252304261,9715.218981221504,20.30512165550345,6.402136879035705,12.608790811356048,2.803907626731444,3100,88,1018,1567,91.27626881271074,52.66097511819604,0.0011957211578592,False
0.23,0.7001353180530043,3.200000000000001,7923.0,27.17442,0.1,68900.0,0.33,276.0,2700.0,32.46709965073227,3.7082339546233953,10012.231677483169,20.23695828963537,6.365510401690498,12.230141361096898,2.657276447067103,35381,250,8674,20070,87.3844870761683,50.42093779306428,0.001155100769273,False
0.24,0.9154000593103964,3.200000000000001,7924.0,27.17442,0.3,68900.0,0.33,276.0,2700.0,48.24735724706181,5.760729951751935,15553.970869730225,28.93529184516252,11.637144382686126,19.31206540189929,5.876414430934191,4640,110,1526,2345,105.30319831481806,60.78939805931607,0.001546836909456,False
0.25,0.6265620124801281,3.200000000000001,7925.0,27.17442,0.2,68900.0,0.33,276.0,2700.0,26.884208596994387,3.327801151149405,8985.063108103392,17.53108195509631,4.976984721278368,9.353126641898076,1.649183570128963,5325,112,1760,2679,71.91975802160854,41.52271549823568,0.0009413528039025,False
0.26,0.6443538895938068,3.200000000000001,7926.0,27.17442,0.1,68900.0,0.33,276.0,2700.0,27.75725656105288,3.5716322646172154,9643.40711446648,18.172959385242137,5.294593883567336,9.58429717581074,1.7229616189501202,32324,232,7746,18499,74.79073074993265,43.13779397365688,0.0009480355813868,False
0.27,0.8776493472917537,3.200000000000001,7927.0,27.17442,0.3,68900.0,0.33,276.0,2700.0,44.18315823680368,5.92350238316809,15993.456434553844,27.32566504344005,10.57531146867216,16.857493193363624,4.65180908550407,4269,104,1404,2157,92.62359268632216,53.45438349394105,0.0013169406064155,False
0.28,0.777236303420173,3.200000000000001,7928.0,27.17442,0.3,68900.0,0.33,276.0,2700.0,36.32304881751374,5.039250673164189,13605.976817543313,23.21856074252992,8.039782142777586,13.104488074983816,3.0005314696133967,3472,94,1146,1747,79.36304991165606,45.81910631156614,0.0010946742346077,False
0.29,0.9639578211316258,3.200000000000001,7929.0,27.17442,0.1,68900.0,0.33,276.0,2700.0,50.3169901659237,7.244883371906679,19561.185104148037,31.058378039874924,13.093483757267972,19.25861212604877,5.8486003853612925,65212,326,13450,39159,96.28392439663594,54.35556834535868,0.0014023178152342,False
0.3,0.9469104001089892,3.200000000000001,7930.0,27.17442,0.3,68900.0,0.33,276.0,2700.0,48.572109377975536,7.229267738931702,19519.022895115595,30.306265066696007,12.570439679909777,18.26584431127953,5.341171940978073,4492,108,1476,2272,89.56577329375102,51.70983333074867,0.0013222339990982,False
0.31,0.9621622122883332,3.200000000000001,7931.0,27.17442,0.3,68900.0,0.33,276.0,2700.0,49.43598579836243,7.600183674250783,20520.495920477115,30.978813658253884,13.037786504380213,18.457172140108547,5.43760283012943,4843,112,1602,2434,87.6576917058034,50.57074013655448,0.0013087262788402,False
0.32,0.6812803831510235,3.200000000000001,7932.0,27.17442,0.05,68900.0,0.33,276.0,2700.0,28.43472728953094,4.480927227609736,12098.503514546286,19.530547318416115,5.990617575884365,8.904179971114825,1.5096903482746296,261112,460,30396,174666,89.13141033872402,49.72845204024668,0.0008566766013452,False
0.33,0.7921043472660665,3.200000000000001,7933.0,27.17442,0.3,68900.0,0.33,276.0,2700.0,35.785299289475404,5.829308105968623,15739.13188611528,23.81071194866342,8.389391903313127,11.974587340811985,2.5600837973445048,3371,92,1112,1697,70.78944740956123,40.77278423396773,0.0009755510166159,False
0.34,0.8335758847367911,3.200000000000001,7934.0,27.17442,0.08,68900.0,0.33,276.0,2700.0,38.47708002381368,6.4587854989437705,17438.72084714818,25.49176458845275,9.411567269168769,12.985315435360928,2.9527817702249965,100311,344,16228,63555,83.36739434970964,46.57909990098996,0.0010234361452591,False
0.3500000000000001,0.9128548676246526,3.200000000000001,7935.0,27.17442,0.3,68900.0,0.33,276.0,2700.0,44.123608347197845,7.631834270744515,20605.952531010196,28.8256431497826,11.563638091463032,15.297965197415245,3.9318038207185166,4122,102,1368,2064,75.15186710559405,43.30791573793248,0.0011017469722853,False
0.36,1.036773240012495,3.200000000000001,7936.0,27.17442,0.3,68900.0,0.33,276.0,2700.0,53.71614672596351,9.57119031277487,25842.21384449215,34.35313892384278,15.474158670375498,19.363007802120727,5.902968357600628,5099,116,1690,2558,83.23609107282994,48.03589798224774,0.0012613535700715,False
0.37,0.7773885533889078,3.200000000000001,7937.0,27.17442,0.2,68900.0,0.33,276.0,2700.0,33.501212283147346,6.09163687726074,16447.419568603997,23.22459626397196,8.043317627371286,10.276616019175384,1.9516807501105455,8310,130,2270,4533,68.1885456949912,39.368675202743006,0.0008811404330594,False
0.38,1.0717012926646647,3.200000000000001,7938.0,27.17442,0.2,68900.0,0.33,276.0,2700.0,55.90072653830803,10.506214394220004,28366.77886439401,35.98085831753702,16.70238420526095,19.919868220771008,6.196169811040948,13993,174,3644,7775,83.49800924697159,48.19353188806853,0.0012663604875472,False
0.39,1.0860548284982678,3.200000000000001,7939.0,27.17442,0.3,68900.0,0.33,276.0,2700.0,56.74197455956429,10.940447616036169,29539.208563297656,36.65865174438535,17.223694917077452,20.08332281517893,6.283247301041284,5251,118,1744,2627,81.11040017010005,46.80300521091901,0.001248444983968,False
0.4,1.0218297364770468,3.200000000000001,7940.0,27.17442,0.2,68900.0,0.33,276.0,2700.0,51.02780107681364,10.071518928809564,27193.10110778582,33.66610595519043,14.965942746224403,17.361695121623207,4.89442381741484,13819,166,3434,7786,86.04178097261934,49.34441287458425,0.0011924176937387,False
0.4100000000000001,0.8128651782087779,3.200000000000001,7941.0,27.17442,0.05,68900.0,0.33,276.0,2700.0,34.78646237744952,6.9868769825251125,18864.567852817803,24.64685098653792,8.89238279830768,10.139611390911597,1.9055058157825684,392816,514,37102,269463,85.12698893118446,47.50552439377724,0.0008581313044487,False
0.42,0.9677758722636955,3.200000000000001,7942.0,27.17442,0.2,68900.0,0.33,276.0,2700.0,46.01215978946608,9.507384011441776,25669.9368308928,31.227827251621388,13.212389599011528,14.784332537844694,3.705005587569751,12497,156,3090,7054,70.69065752671463,40.7829734649956,0.001025820922367,False
0.43,1.047747642619253,3.200000000000001,7943.0,27.17442,0.3,68900.0,0.33,276.0,2700.0,52.07729836659392,11.030100077411715,29781.27020901164,34.86126534195312,15.853949271450183,17.216033024640794,4.823849194038468,4802,112,1596,2400,71.73075364198311,41.37019239687414,0.00109783039511,False
0.44,0.8422048509860411,3.200000000000001,7944.0,27.17442,0.1,68900.0,0.33,276.0,2700.0,35.96662749813398,7.734249097187212,20882.472562405477,25.84697317776021,9.633066041241898,10.119654320373773,1.898816944054686,61182,264,9612,38992,62.35482248831401,35.98656503969243,0.0008442692292119,False
0.45,0.8488552089824366,3.200000000000001,7945.0,27.17442,0.2,68900.0,0.33,276.0,2700.0,36.140596784760376,7.940782522865504,21440.11281173686,26.12200990814679,9.805871596338443,10.018586876613586,1.8650890734729408,9570,134,2352,5410,60.92074583344058,35.172543281310254,0.0008335749686747,False
0.46,0.9800489121867768,3.200000000000001,7946.0,27.17442,0.3,68900.0,0.33,276.0,2700.0,45.629789308475786,10.290991499262896,27785.67704800982,31.77499964066262,13.59900383205045,13.854789667813163,3.3080123327875537,4292,104,1426,2141,64.49068256731624,37.1316194619321,0.0009503712455046,False
0.4700000000000001,0.9436867906774842,3.200000000000001,7947.0,27.17442,0.1,68900.0,0.33,276.0,2700.0,42.50853412421236,9.77205913647414,26384.55966848017,30.16486421784763,12.472972098721469,12.343669906364733,2.700912962247328,75750,290,11334,48787,68.9375343947635,39.40206074655559,0.0009120246530993,False
0.4800000000000001,1.1791210834610557,3.200000000000001,7948.0,27.17442,0.3,68900.0,0.33,276.0,2700.0,61.37772652222744,14.499031022170724,39147.38375986095,41.17899449856211,20.844035788113796,20.19873202366532,6.34500476594307,5835,124,1902,2944,75.28813684300971,43.44043618109883,0.0011593745046156,False
0.49,1.1356238835677896,3.200000000000001,7949.0,27.17442,0.2,68900.0,0.33,276.0,2700.0,57.25826848807074,13.781872290175851,37211.0551834748,39.03918732633139,19.099575005550903,18.219081161739357,5.3177027153750505,15352,176,3742,8725,71.31776247829555,41.13945569898458,0.0010978023065185,False
0.5,0.9724070262357424,3.200000000000001,7950.0,27.17442,0.3,68900.0,0.33,276.0,2700.0,43.73657819794285,10.672345161686565,28815.33193655372,31.433854557762807,13.357487339284711,12.30272364018004,2.6851421775981503,4520,102,1392,2346,62.45320431494248,36.04237441211262,0.000887082187211,False
0.02,0.4989550713899358,3.200000000000001,7952.0,30.1938,0.05,68900.0,0.33,276.0,2700.0,25.673225253758574,0.2567154973767342,693.1318429171826,13.16056236952612,3.02310322269318,12.512662884232451,2.766387725316446,84148,440,27646,42673,906.5640175957748,516.5173872890215,0.0081395852623759,True
0.03,0.3496422124021711,3.200000000000001,7953.0,30.1938,0.05,68900.0,0.33,276.0,2700.0,16.276917011391863,0.2440972065031127,659.0624575584044,8.566208542368194,1.4080319675015764,7.710708469023668,1.1639347609984636,53357,342,17526,27062,551.2930065706167,318.0952173775393,0.0036415211630445,True
0.04,0.6746582670645545,3.200000000000001,7954.0,30.1938,0.1,68900.0,0.33,276.0,2700.0,37.10675007025748,0.7420009601185975,2003.4025923202128,19.284566031175725,5.862099090832735,17.82218403908175,5.120098130714137,30664,272,10076,15544,580.502328473072,330.8145409816716,0.0061034827118829,True
0.05,0.7259095480737107,3.200000000000001,7955.0,30.1938,0.2,68900.0,0.33,276.0,2700.0,40.54802044237804,1.0134387116707324,2736.2845215109774,21.217059503174397,6.899697236179601,19.33096093920365,5.886258524508868,8348,146,2752,4214,441.6915579159822,252.39017167267943,0.0054383972091277,True
0.06,0.6567332876576535,3.200000000000001,7956.0,30.1938,0.2,68900.0,0.33,276.0,2700.0,35.09706571423553,1.0524595820849492,2841.6408716293627,18.624264412750712,5.522353650733743,16.472801301484814,4.469894068648794,7279,134,2390,3688,319.2032618423378,184.2750061120451,0.0040452277859303,True
0.0699999999999999,0.6679111088124322,3.200000000000001,7957.0,30.1938,0.2,68900.0,0.33,276.0,2700.0,35.54923820220689,1.2435049595567127,3357.463390803124,19.03507354465689,5.732825397953079,16.51416465755,4.489320438396367,7270,134,2386,3685,285.11576006699204,163.18841218051062,0.0035805529734158,True
0.08,0.4068198550526383,3.200000000000001,7958.0,30.1938,0.08,68900.0,0.33,276.0,2700.0,18.172695364606135,0.7258354842918203,1959.755807587915,10.259362941405811,1.9458413619614885,7.913332423200325,1.220005877669668,23365,226,7686,11830,152.5281215743674,87.75106238326168,0.0017435302007338,False
0.09,0.5540070640354617,3.200000000000001,7959.0,30.1938,0.2,68900.0,0.33,276.0,2700.0,27.03087878517821,1.214862731303374,3280.1293745191097,14.995891503902644,3.7977882243503287,12.034987281275566,2.5829254930469547,5686,116,1868,2878,185.3165906139155,106.99223013926796,0.0022524524612456,False
0.0999999999999999,0.4231861979859916,3.200000000000001,7960.0,30.1938,0.05,68900.0,0.33,276.0,2700.0,18.569724340090275,0.9263918219023632,2501.2579191363807,10.75913142639982,2.117830123846466,7.810592913690455,1.1914383019441028,81895,368,20106,46458,128.32003228214305,74.00055298783471,0.0014920386449207,False
0.11,0.4982141421929411,3.200000000000001,7961.0,30.1938,0.1,68900.0,0.33,276.0,2700.0,22.8357696141151,1.2531796888950473,3383.5851600166275,13.136380670076557,3.0133611371002,9.699388944038546,1.7601814482051523,19123,208,6306,9658,135.2266447250366,78.0507462494558,0.0016483501909126,False
0.12,0.7638905702988137,3.200000000000001,7962.0,30.1938,0.3,68900.0,0.33,276.0,2700.0,40.84791375899039,2.447255710802485,6607.590419166711,22.69177043187298,7.733433607449858,18.15614332711741,5.286177896647373,3865,98,1260,1969,192.42863630581172,111.09036972283282,0.0025813573952844,False
0.13,0.7041786774486203,3.200000000000001,7963.0,30.1938,0.3,68900.0,0.33,276.0,2700.0,36.07705140000412,2.340406954960315,6319.09877839285,20.38960854334541,6.447644168600706,15.68744285665871,4.107237213640391,3465,92,1136,1755,166.33203804282758,96.03093506642058,0.0021585455649751,False
0.14,0.4650510284536346,3.200000000000001,7964.0,30.1938,0.08,68900.0,0.33,276.0,2700.0,19.93144404318472,1.3894540628619627,3751.5259697273,12.068165599319087,2.59550690765056,7.863278443865635,1.2060528447885972,28310,240,8506,14901,105.77719770459684,61.02586179951661,0.0012306426021054,False
0.15,0.4574308481999947,3.200000000000001,7965.0,30.1938,0.05,68900.0,0.33,276.0,2700.0,19.195576233757976,1.4325996340611726,3868.019011965166,11.826617756528668,2.504466556236352,7.368958477229308,1.071866922175179,104897,372,20536,63869,100.32302616670412,56.22145917925939,0.0011422604793514,False
0.16,0.5186036161314942,3.200000000000001,7966.0,30.1938,0.2,68900.0,0.33,276.0,2700.0,22.63301158982028,1.802062284846224,4865.568169084805,13.806866128445158,3.288022698108184,8.826145461375123,1.4859604132619595,4836,106,1592,2442,101.68796276027744,58.70955727408008,0.0012353500558792,False
0.17,0.543337840586045,3.200000000000001,7967.0,30.1938,0.1,68900.0,0.33,276.0,2700.0,23.89216703126478,2.0205444345194485,5455.469973202511,14.634249258321422,3.639725471683609,9.257917772943358,1.6191810371641604,20776,212,6556,10702,103.1055670553164,59.48764323840098,0.0012373150168592,False
0.18,0.8749588688481378,3.200000000000001,7968.0,30.1938,0.3,68900.0,0.33,276.0,2700.0,47.25444474205876,4.24068551454813,11449.850889279953,27.21231487083239,10.501944879802693,20.04212987122637,6.261259365254561,4481,108,1472,2267,146.4641217774582,84.38251769259111,0.0021140892998274,False
0.19,0.6187387453569524,3.200000000000001,7969.0,30.1938,0.3,68900.0,0.33,276.0,2700.0,28.18157561871665,2.662884227770768,7189.787414981074,17.25136022679936,4.840929555905916,10.93021539191729,2.178045328135148,2766,80,904,1404,103.5848664764884,59.688209004318914,0.0013024195820855,False
0.2,0.5111173109667834,3.200000000000001,7970.0,30.1938,0.08,68900.0,0.33,276.0,2700.0,21.03120706568934,2.0863655457497874,5633.186973524426,13.559473330259603,3.185587192635337,7.471733735429735,1.0992216468855496,37438,248,9040,21368,84.92871838679619,48.97653696662625,0.0010130360678966,False
0.21,0.6629036897433752,3.200000000000001,7971.0,30.1938,0.3,68900.0,0.33,276.0,2700.0,30.534456725410767,3.1867217631248703,8604.14876043715,18.850651777728803,5.637970809207323,11.683804947681963,2.4512490460824523,2952,84,960,1506,101.24747337092758,58.44621559106837,0.0012928305061855,False
0.22,0.6675531035338698,3.200000000000001,7972.0,30.1938,0.3,68900.0,0.33,276.0,2700.0,30.53754800974989,3.336829162022209,9009.438737459965,19.02186739896458,5.726013105177225,11.515680610785314,2.3891839431550164,2928,84,952,1494,97.24543994318604,56.13351604592712,0.0012518124476232,False
0.23,0.7391610811087046,3.200000000000001,7973.0,30.1938,0.1,68900.0,0.33,276.0,2700.0,35.22252611747077,4.025107998298324,10867.791595405475,21.727466329479824,7.184232763871498,13.495059787990948,3.159124765573174,38537,262,9478,21846,101.60181817671806,58.6469484512396,0.0013691993723715,False
0.24,0.737498693048184,3.200000000000001,7974.0,30.1938,0.3,68900.0,0.33,276.0,2700.0,34.776237995809325,4.144195641601632,11189.328232324408,21.66319433923584,7.1481667153764,13.113043656573488,3.003971073774768,3290,90,1084,1658,97.24861797840228,55.95199711484566,0.0013074722410249,False
0.25,0.8584575378330546,3.200000000000001,7975.0,30.1938,0.3,68900.0,0.33,276.0,2700.0,43.40718514384526,5.393173219505765,14561.567692665563,26.521091507370844,10.058617927756949,16.886093636474417,4.665444708251182,4115,102,1352,2081,106.80448761049546,61.55615192430621,0.001525533958273,False
0.26,0.6882396013312098,3.200000000000001,7976.0,30.1938,0.3,68900.0,0.33,276.0,2700.0,30.705042291245743,3.954844409542282,10678.079905764162,19.790238121114005,6.127437832434577,10.914804170131742,2.172593422892295,2992,84,988,1504,84.65931107844504,48.85506772893205,0.0011245132355603,False
0.27,0.917093240271968,3.200000000000001,7977.0,30.1938,0.3,68900.0,0.33,276.0,2700.0,47.280819165711584,6.341686608570658,17122.553843140777,29.00832548386288,11.686198887372736,18.272493681848708,5.344512278802078,4541,108,1492,2297,105.27269400946366,60.737553474582185,0.0015493363330805,False
0.28,0.8775150760704342,3.200000000000001,7978.0,30.1938,0.3,68900.0,0.33,276.0,2700.0,43.82025654426969,6.088859754910017,16439.92133825705,27.32000386803324,10.571642798324955,16.50025267623645,4.482783043414938,4274,104,1404,2162,97.68167064327656,56.327281638729296,0.0014153879570168,False
0.29,0.6875624534487264,3.200000000000001,7979.0,30.1938,0.1,68900.0,0.33,276.0,2700.0,29.744572638926257,4.261882830492039,11507.083642328504,19.764916154721536,6.114045488605276,9.97965648420472,1.852162658113237,39413,238,8166,23624,80.58160196951016,46.523109395693965,0.0010376144501369,False
0.3,0.7866855855449352,3.200000000000001,7980.0,30.1938,0.1,68900.0,0.33,276.0,2700.0,36.3561556709515,5.396874682878107,14571.56164377089,23.59425489275533,8.260954126698408,12.761900778196168,2.8640794438203008,49998,268,9840,30386,91.60990136420844,51.1635019848935,0.0011775007551395,False
0.31,0.9088901373626574,3.200000000000001,7981.0,30.1938,0.3,68900.0,0.33,276.0,2700.0,45.20373729025648,6.944185155494353,18749.299919834757,28.65516404675819,11.449690274101776,16.548573243498293,4.505505118607424,4411,106,1460,2215,93.22775580153572,53.784701528877456,0.001352466610018,False
0.32,0.7775308346302499,3.200000000000001,7982.0,30.1938,0.1,68900.0,0.33,276.0,2700.0,35.06001485161714,5.540973237543525,14960.627741367518,23.23023712988716,8.04662245304606,11.82977772172998,2.505649215502535,50083,262,9474,30726,81.71778132911655,47.14607490958109,0.0011018404703872,False
0.33,1.0179167016228123,3.200000000000001,7983.0,30.1938,0.3,68900.0,0.33,276.0,2700.0,53.26529183023689,8.71350687519438,23526.468563024824,33.487129991313054,14.834556395295047,19.77816183892384,6.121049520100668,5144,116,1702,2585,98.64357234661634,56.94412604447264,0.001476995452627,False
0.34,0.9774883897673996,3.200000000000001,7984.0,30.1938,0.2,68900.0,0.33,276.0,2700.0,49.58486076295688,8.347108224598188,22537.192206415108,31.660530635271265,13.517789818481784,17.924330127685614,5.170681593883597,10212,162,3262,5219,94.21129988295397,54.36545202460869,0.0013673808694725,False
0.3500000000000001,0.7542193969003131,3.200000000000001,7985.0,30.1938,0.1,68900.0,0.33,276.0,2700.0,32.493395923984984,5.596547096682266,15110.677161042118,22.312821696979288,7.515811894853,10.180574227005696,1.919264798170734,47676,250,8794,29397,75.01998227731139,43.29612811289891,0.000990546657598,False
0.36,1.0533260253252412,3.200000000000001,7986.0,30.1938,0.3,68900.0,0.33,276.0,2700.0,55.10152419871439,9.820558257871332,26515.5072962526,35.12071069679743,16.049142030316695,19.980813501916955,6.228583772445361,5316,118,1766,2661,93.04793076393952,53.69359690768058,0.0014300173158423,False
0.37,0.6872044029623359,3.200000000000001,7987.0,30.1938,0.1,68900.0,0.33,276.0,2700.0,27.39371548052242,4.961749968774882,13396.72491569218,19.751531503272712,6.106971047049345,7.642183977249708,1.1452210782744627,41498,224,7482,25671,69.48494620338423,39.18144925039129,0.0008584871391095,False
0.38,0.7129068675372763,3.200000000000001,7988.0,30.1938,0.2,68900.0,0.33,276.0,2700.0,28.80671018846052,5.35835128774898,14467.548476922246,20.72052752881692,6.627051317089454,8.086182659643601,1.268700029340474,7533,118,1958,4174,70.00325110612889,40.35936026318517,0.0008714148455918,False
0.39,0.7579452913402376,3.200000000000001,7989.0,30.1938,0.2,68900.0,0.33,276.0,2700.0,31.557797522168972,6.029533093743597,16279.73935310771,22.45853626773411,7.599218463377141,9.099261254434865,1.569685369633544,8325,122,2092,4671,70.86407459221773,40.91338895051685,0.0009122236104149,False
0.4,0.7498653755037763,3.200000000000001,7990.0,30.1938,0.05,68900.0,0.33,276.0,2700.0,30.71564120451594,6.00908695435001,16224.534776745026,22.14298403748658,7.41903130304317,8.572657167029359,1.40994434869316,334772,476,32564,228882,91.36122393379918,52.08100002647929,0.0008899815712777,False
0.4100000000000001,1.040815799677867,3.200000000000001,7991.0,30.1938,0.3,68900.0,0.33,276.0,2700.0,52.223783694257214,10.561527852470697,28516.125201670875,34.53996156131494,15.613410766630968,17.683822132942275,5.051882914160272,4994,114,1650,2511,82.5468315457107,47.64342059705661,0.0012588064984874,False
0.42,0.8177809737097376,3.200000000000001,7992.0,30.1938,0.2,68900.0,0.33,276.0,2700.0,34.83265409202897,7.159687814979983,19331.157100445955,24.846419978996085,9.014031948883677,9.986234113032882,1.8543441339036937,9485,132,2332,5369,69.69443021733395,40.23784152775902,0.0009372643418199,False
0.43,0.7805833265672883,3.200000000000001,7993.0,30.1938,0.2,68900.0,0.33,276.0,2700.0,31.944790330883716,6.7016108497340205,18094.349294281856,23.35137842560848,8.11771739642549,8.593411905275232,1.41610654669147,8675,126,2154,4890,65.66196096930912,37.8455645902559,0.0008752414000507,False
0.44,0.7609999862910346,3.200000000000001,7994.0,30.1938,0.2,68900.0,0.33,276.0,2700.0,30.3272003945444,6.493575134397509,17532.652862873274,22.57826143876904,7.668005242955655,7.748938955775365,1.1744301085581457,8100,120,2014,4563,63.79937959923368,36.78149391239812,0.0008374742294848,False
0.45,0.7813801449375042,3.200000000000001,7995.0,30.1938,0.2,68900.0,0.33,276.0,2700.0,31.425781022929694,6.879948976453601,18575.862236424724,23.383039529324147,8.136336816739822,8.04274149360555,1.2563878402862212,8429,124,2098,4744,64.37919170327898,37.16149541320616,0.0008454523304449,False
0.46,1.1062926600978116,3.200000000000001,7996.0,30.1938,0.3,68900.0,0.33,276.0,2700.0,55.8664918378144,12.645433081010776,34142.669318729095,37.62310673837,17.975328416590408,18.243385099444403,5.329895335579632,5406,118,1772,2724,82.23943873953233,47.44478943118587,0.0012318147653332,False
0.4700000000000001,1.0758825022563312,3.200000000000001,7997.0,30.1938,0.3,68900.0,0.33,276.0,2700.0,52.97279104913618,12.231159513830953,33024.130687343575,36.17776622381386,16.853239218691826,16.795024825322315,4.622079704860873,5179,114,1672,2627,74.90026892857847,43.04744700896961,0.0011700202835955,False
0.4800000000000001,1.0137410814563306,3.200000000000001,7998.0,30.1938,0.2,68900.0,0.33,276.0,2700.0,47.60797131810361,11.194289773180996,30224.58238758869,33.29656822575068,14.695124869244392,14.311403092352926,3.500835096063396,12703,156,3120,7195,74.17849143094632,42.82428800104728,0.0010803140328639,False
0.49,1.0728889999294542,3.200000000000001,7999.0,30.1938,0.2,68900.0,0.33,276.0,2700.0,52.0259705636936,12.499959298703471,33749.89010649938,36.03674696300129,16.74515211824415,15.989223600692306,4.2451928195406765,13903,166,3404,7881,75.96267001099942,43.83796876895741,0.0011377829619234,False
0.5,1.1597938692436025,3.200000000000001,8000.0,30.1938,0.3,68900.0,0.33,276.0,2700.0,58.95877387731528,14.477894081529673,39090.314020130114,40.22233865619478,20.05742040688809,18.73643522112049,5.579526325358421,6111,122,1878,3172,79.45209916532099,45.79523377775871,0.0012240897344988,False
0.02,0.3404972532870808,3.200000000000001,8002.0,33.21318,0.08,68900.0,0.33,276.0,2700.0,16.037806361345417,0.1603613084523205,432.9755328212656,8.30302812993853,1.3308993294500002,7.734778231406887,1.1705380209976797,20498,214,6758,10355,569.0806542819398,324.67524159791014,0.0056988980014492,True
0.03,0.7068314453480278,3.200000000000001,8003.0,33.21318,0.1,68900.0,0.33,276.0,2700.0,39.85515072349491,0.5977707121846595,1613.9809228985807,20.489982566839405,6.501866163021542,19.365168156655503,5.904095450836882,33135,286,10912,16761,883.2063586964641,503.317326599712,0.0093765337117564,True
0.04,0.6436469968622448,3.200000000000001,8004.0,33.21318,0.1,68900.0,0.33,276.0,2700.0,34.86340404454916,0.697134039603259,1882.2619069287996,18.147305053737007,5.281756618836983,16.71609899081215,4.584622579233724,29339,264,9626,14894,599.5379308634442,341.73929431490285,0.0063257762040332,True
0.05,0.6530006991728179,3.200000000000001,8005.0,33.21318,0.1,68900.0,0.33,276.0,2700.0,35.18108755264549,0.8792653894282692,2374.016551456327,18.48778307749116,5.45309175909373,16.693304475154328,4.57382636966546,29594,266,9724,15002,491.0887117594917,280.38534689001307,0.0052237926490467,True
0.06,0.6598176123415722,3.200000000000001,8006.0,33.21318,0.2,68900.0,0.33,276.0,2700.0,35.318498496166804,1.0591025655428865,2859.576926965793,18.73730632974074,5.579971196716859,16.581192166426064,4.520868631173973,7280,134,2394,3683,367.5510756382247,209.9834805861888,0.0044747750839912,True
0.0699999999999999,0.4310632090699585,3.200000000000001,8007.0,33.21318,0.1,68900.0,0.33,276.0,2700.0,19.899908471797836,0.6957784189928047,1878.6017312805727,11.002066385335018,2.2035356983981624,8.897842086462814,1.5077572794053578,16519,192,5424,8377,211.83296562387827,121.64969077181624,0.0023178715278535,False
0.08,0.63588630244045,3.200000000000001,8008.0,33.21318,0.2,68900.0,0.33,276.0,2700.0,32.92636832735824,1.315982402801908,3553.152487565152,17.866482132637053,5.142011599124092,15.059886194721187,3.826029196322184,6721,128,2200,3415,262.31855052675724,150.47563371857368,0.0032762606291066,False
0.09,0.6750145831137289,3.200000000000001,8009.0,33.21318,0.2,68900.0,0.33,276.0,2700.0,35.360930187523174,1.5897150444088808,4292.230619903979,19.297773484942663,5.868972844130136,16.06315670258051,4.279257799721255,7392,136,2432,3738,249.0642603831885,142.79436900354702,0.0031641190213288,False
0.0999999999999999,0.7511677391133218,3.200000000000001,8010.0,33.21318,0.2,68900.0,0.33,276.0,2700.0,40.614624957555456,2.028636852775377,5477.319502493519,22.19373549517949,7.447902563459623,18.420889462375968,5.419265710684246,8379,146,2750,4248,257.98273137589086,147.8154513746681,0.0032866172786312,False
0.11,0.4861454116392565,3.200000000000001,8011.0,33.21318,0.2,68900.0,0.33,276.0,2700.0,22.08524617656422,1.2119008998297502,3272.1324295403256,12.744436335793049,2.8571905152812005,9.34080984077117,1.6452896154514502,4547,102,1492,2303,150.36351084170062,86.75340410084263,0.0017632776062373,False
0.12,0.683922888471552,3.200000000000001,8012.0,33.21318,0.3,68900.0,0.33,276.0,2700.0,34.96357361668423,2.094195302264122,5654.32731611313,19.6290119374784,6.042357209079843,15.33456167920583,3.948161906815721,3352,90,1096,1702,193.5296992957196,111.67489005560498,0.002464683566181,False
0.13,0.6670034571699367,3.200000000000001,8013.0,33.21318,0.2,68900.0,0.33,276.0,2700.0,33.42249177013911,2.167860579019098,5853.223563351565,19.00159824097291,5.715563375708472,14.4208935291662,3.5477027966893737,6855,130,2250,3474,169.3861216826578,97.54002295604845,0.0022157758674738,False
0.14,0.6255426113780451,3.200000000000001,8014.0,33.21318,0.2,68900.0,0.33,276.0,2700.0,30.21950177362367,2.1096181039925628,5695.968880779919,17.494546004150283,4.959132141625678,12.724955769473386,2.849514037633115,6299,122,2068,3191,148.64285025594924,85.80706703867791,0.0019132307181013,False
0.15,0.7185299964071962,3.200000000000001,8015.0,33.21318,0.3,68900.0,0.33,276.0,2700.0,36.42749191121212,2.7249933098703267,7357.481936649882,20.934735894775667,6.744167401874644,15.492756016436449,4.019174092004317,3529,92,1152,1795,161.26205714601173,93.05738171453704,0.0021340221836888,False
0.16,0.5112156777782747,3.200000000000001,8016.0,33.21318,0.2,68900.0,0.33,276.0,2700.0,22.17441766034461,1.765374770488169,4766.511880318057,13.562714832279704,3.186921154218446,8.611702828064905,1.4215463837302769,4797,106,1568,2439,110.38028252632034,63.611542835162936,0.0013373907270859,False
0.17,0.5206379411766853,3.200000000000001,8017.0,33.21318,0.08,68900.0,0.33,276.0,2700.0,22.469327167782843,1.8996030461231812,5128.928224532589,13.874335917269338,3.3161789617768744,8.594991250513505,1.416575915653693,38519,254,9476,21829,107.34261057327518,61.91337209426703,0.0013019288279317,False
0.18,0.7710084913307722,3.200000000000001,8018.0,33.21318,0.3,68900.0,0.33,276.0,2700.0,39.24442737520896,3.5197839515316507,9503.416669135457,22.97217597291806,7.895949034410694,16.272251402290905,4.376165082879043,3938,100,1290,1997,145.29110164365542,83.88351266197071,0.0019718328557454,False
0.19,0.5456092735699819,3.200000000000001,8019.0,33.21318,0.1,68900.0,0.33,276.0,2700.0,23.450067890144005,2.213390993556365,5976.155682602186,14.711001673904631,3.673053332583552,8.739066216239372,1.4596623390271866,25194,210,6416,14108,103.06591112953204,59.48966156972407,0.0012479834101072,False
0.2,0.5265374907409901,3.200000000000001,8020.0,33.21318,0.05,68900.0,0.33,276.0,2700.0,21.975923567472694,2.1808371959281234,5888.2604290059335,14.070586719947888,3.398609759815144,7.90533684752481,1.2177725638870205,140675,402,23886,88166,102.08853009168072,57.505521059855546,0.0011523506561333,False
0.21,0.8793148373560329,3.200000000000001,8021.0,33.21318,0.2,68900.0,0.33,276.0,2700.0,46.48280904606182,4.861298756793237,13125.50664334174,27.39592350211002,10.620880590008502,19.0868855439518,5.7595818332152655,9438,158,3106,4773,139.21158045722024,80.27832211998874,0.0020271602680836,False
0.22,0.6235736902352117,3.200000000000001,8022.0,33.21318,0.1,68900.0,0.33,276.0,2700.0,27.58508955752425,3.012058732277383,8132.558577148934,17.424052619330887,4.924756174057836,10.161036938193362,1.9126974417804528,30601,230,7590,17280,100.78515932678404,58.16353116846361,0.0012820834441291,False
0.23,0.7103982255518717,3.200000000000001,8023.0,33.21318,0.3,68900.0,0.33,276.0,2700.0,33.184296565917954,3.790711599869749,10234.921319648322,20.62521927204689,6.575190511983644,12.559077293871065,2.7844789121138955,3115,88,1024,1573,108.1008164072698,62.37567877282272,0.0014253517067708,False
0.24,0.8622253935565392,3.200000000000001,8024.0,33.21318,0.3,68900.0,0.33,276.0,2700.0,44.054155792535575,5.257545777208782,14195.373598463711,26.67832010418157,10.158841669488424,17.37583568835401,4.901295892279641,4419,106,1454,2232,122.30488226705032,70.54208802414381,0.0017486650278233,False
0.25,0.9040653655252684,3.200000000000001,8025.0,33.21318,0.3,68900.0,0.33,276.0,2700.0,46.97491368577256,5.839139287246606,15765.676075565838,28.44823699475849,11.311935068747648,18.52667669101407,5.472795781501041,4365,106,1432,2211,122.648141172473,70.7338630439558,0.0017917616340574,False
0.26,0.9000370800873767,3.200000000000001,8026.0,33.21318,0.3,68900.0,0.33,276.0,2700.0,46.29240907172533,5.98120209100463,16149.2456457125,28.275918170795386,11.197684661537572,18.01649090092995,5.216482570532942,4364,106,1428,2216,117.82469250397791,68.00333414932976,0.0017182258561146,False
0.27,0.5874532248696194,3.200000000000001,8027.0,33.21318,0.08,68900.0,0.33,276.0,2700.0,23.79728991363096,3.171410159539728,8562.807430757266,16.148118635047883,4.31853364987163,7.649171278583079,1.147123490331902,53901,262,10042,33176,82.93475174014705,47.86613659617986,0.0010197340610183,False
0.28,0.8523642810751586,3.200000000000001,8028.0,33.21318,0.3,68900.0,0.33,276.0,2700.0,41.89240211557996,5.81896013489347,15711.19236421237,26.26758147456459,9.897790932376267,15.624820641015372,4.078830797482797,3870,98,1282,1941,105.550208881171,60.88001994782158,0.00150475681168,False
0.29,0.620515664458158,3.200000000000001,8029.0,33.21318,0.08,68900.0,0.33,276.0,2700.0,25.33292879747108,3.62219447348104,9779.925078398808,17.31475914229607,4.871640143036023,8.018169655175008,1.2494456695549832,58469,270,10544,36221,82.29863878028375,47.446274327967856,0.0010211005063218,False
0.3,0.7776036397893333,3.200000000000001,8030.0,33.21318,0.1,68900.0,0.33,276.0,2700.0,35.70236964665389,5.298806779233466,14306.778303930358,23.23312375172721,8.048313839235522,12.469245894926686,2.749507060002056,48038,264,9500,29156,94.56065095701716,54.56190513705149,0.0012697397342086,False
0.31,0.999585426294108,3.200000000000001,8031.0,33.21318,0.1,68900.0,0.33,276.0,2700.0,52.494410385305486,8.074239485226947,21800.44661011276,32.65381088452628,14.228345397842247,19.84059950077921,6.1541059126153,72297,332,13738,44330,122.96828362012702,68.42754042575213,0.0016927305287833,False
0.32,0.7869076782573307,3.200000000000001,8032.0,33.21318,0.1,68900.0,0.33,276.0,2700.0,35.730351684995746,5.648227130884095,15250.213253387055,23.60311207208392,8.266195222299038,12.12723961291183,2.6179680914149426,51149,266,9640,31417,90.6137108911844,52.31119105055467,0.0012288416764082,False
0.33,0.8007435995218279,3.200000000000001,8033.0,33.21318,0.3,68900.0,0.33,276.0,2700.0,36.40690399999677,5.93187288320476,16016.056784652852,24.157340438997547,8.596594605233676,12.249563560999215,2.664721722028916,3405,92,1118,1722,86.07388126464843,49.405405549575846,0.0012067929261556,False
0.34,0.8890285546849304,3.200000000000001,8034.0,33.21318,0.1,68900.0,0.33,276.0,2700.0,42.63386903336643,7.165439630567838,19346.687002533163,27.80708428595139,10.888991877068769,14.82678474741504,3.7235522465009288,60832,292,11282,37495,98.62951315172148,55.85570979479692,0.0013509306269609,False
0.3500000000000001,0.9753176219147444,3.200000000000001,8035.0,33.21318,0.2,68900.0,0.33,276.0,2700.0,49.05010056480605,8.493970408825955,22933.72010383008,31.56361480058773,13.449167368693807,17.486485764218312,4.955196959867854,10462,160,3196,5466,101.40576580910653,58.542850614132334,0.0014664658875534,False
0.36,0.6891292451413085,3.200000000000001,8036.0,33.21318,0.05,68900.0,0.33,276.0,2700.0,27.80232543190384,4.906702479845435,13248.096695582672,19.823523895507023,6.14505890004627,7.978801536396816,1.2383564202008357,278420,452,29782,188249,94.38230591488906,53.72181572169072,0.0009688482725918,False
0.37,0.7542286090809063,3.200000000000001,8037.0,33.21318,0.2,68900.0,0.33,276.0,2700.0,31.893749808145436,5.794256319385383,15644.492062340534,22.313181542345564,7.516017446253494,9.580568265799869,1.7217611268681114,7934,126,2158,4331,80.5978691856445,46.532612154101166,0.0010378415609954,False
0.38,0.9466414467754232,3.200000000000001,8038.0,33.21318,0.3,68900.0,0.33,276.0,2700.0,45.72230201530509,8.572313734849445,23145.247084093506,30.29445767451639,12.56229029675164,15.4278443407887,3.989976561902196,4101,102,1360,2055,88.44055222598823,50.897648359599145,0.001313666257007,False
0.39,1.009238099491261,3.200000000000001,8039.0,33.21318,0.3,68900.0,0.33,276.0,2700.0,50.36072654538112,9.69610425327046,26179.48148383024,33.09155781772069,14.545652793341558,17.26916872766043,4.849548540071099,4886,112,1626,2441,92.08602641861026,53.03189550376123,0.0013909003257666,False
0.4,1.0089488982138324,3.200000000000001,8040.0,33.21318,0.3,68900.0,0.33,276.0,2700.0,49.98189860594477,9.862338434635792,26628.31377351664,33.07840856478033,14.5360845739896,16.90349004116443,4.673746139353808,4870,112,1622,2431,90.12053012164348,51.98348555703144,0.0013616002151447,False
0.4100000000000001,0.8229305440908461,3.200000000000001,8041.0,33.21318,0.2,68900.0,0.33,276.0,2700.0,35.50130458845157,7.133419635780529,19260.233016607428,25.05613099043665,9.14252001208698,10.445173598014922,2.009100376306451,9468,132,2342,5345,78.98121200419324,45.59970076548883,0.0010559945558798,False
0.42,0.8039748341666426,3.200000000000001,8042.0,33.21318,0.2,68900.0,0.33,276.0,2700.0,33.86048368003302,6.955532028460771,18779.936476844083,24.28746768517216,8.674862805761348,9.573015994860864,1.719330777300577,9341,132,2306,5276,75.59352891719136,43.535257316479886,0.0010097619451737,False
0.43,1.0643454749793853,3.200000000000001,8043.0,33.21318,0.2,68900.0,0.33,276.0,2700.0,53.44642031274152,11.324461295833457,30576.04549875033,35.635513355544866,16.438986552194812,17.810906957196657,5.1145252563613575,14131,168,3474,8004,91.32420994806256,52.70432488766128,0.0013799460650713,False
0.44,1.098183306416915,3.200000000000001,8044.0,33.21318,0.3,68900.0,0.33,276.0,2700.0,55.91278955506733,12.122404749712103,32730.49282422268,37.23541106793028,17.671802435039126,18.67737848713705,5.549397685327023,5107,116,1696,2553,89.47758140290924,51.46429845830397,0.001394334312817,False
0.45,0.9029462093532918,3.200000000000001,8045.0,33.21318,0.1,68900.0,0.33,276.0,2700.0,40.08546556598867,8.828377998641875,23836.62059633306,28.400321699663667,11.280123864018032,11.685143866325005,2.451745865376157,69621,282,10772,44537,78.59287765104742,45.339128729228975,0.001096879904085,False
0.46,0.8545693397526668,3.200000000000001,8046.0,33.21318,0.1,68900.0,0.33,276.0,2700.0,36.248897476735344,8.133386377961864,21960.143220497037,26.35921523139216,9.9558134972943,9.889682245343185,1.8224271193324368,63988,264,9758,41061,78.47099479667631,43.91234622521236,0.001013780343372,False
0.4700000000000001,0.9232909710650016,3.200000000000001,8047.0,33.21318,0.2,68900.0,0.33,276.0,2700.0,40.97227476277166,9.411038186535572,25409.803103646045,29.276272865857276,11.866814513743444,11.696001896914389,2.455776327207872,11220,144,2768,6342,77.16515065823828,44.471495829319046,0.0010830313460252,False
0.4800000000000001,1.0712527081136431,3.200000000000001,8048.0,33.21318,0.2,68900.0,0.33,276.0,2700.0,52.240548922892806,12.306108398330414,33226.49267549212,35.9597589874463,16.686248480693028,16.280789935446506,4.3801400823626135,14102,166,3448,7996,84.93535035407798,49.005155608648,0.0012711303619196,False
0.49,1.142670617347089,3.200000000000001,8049.0,33.21318,0.2,68900.0,0.33,276.0,2700.0,57.85834810482558,13.92889179628082,37608.007849958216,39.38261755017161,19.37588306341729,18.47573055465397,5.4469912671364735,15391,176,3754,8738,87.37804042044372,50.39737521052314,0.0013518846465615,False
0.5,1.02615248356603,3.200000000000001,8050.0,33.21318,0.2,68900.0,0.33,276.0,2700.0,47.92202150706465,11.71870598896702,31640.50617021096,33.86426888014902,15.11190094266736,14.05775262691563,3.393194953700341,13310,160,3250,7551,79.53459234291084,45.82853975275648,0.0011664200593287,False
0.02,0.471238747576557,3.200000000000001,8052.0,36.23256,0.08,68900.0,0.33,276.0,2700.0,23.89679289670523,0.238951173806235,645.1681692768346,12.26538031905736,2.670790985161664,11.631412577647868,2.431839811355429,31079,266,10258,15686,929.5360929686544,530.6848356014781,0.0091183701775191,True
0.03,0.6382872479834119,3.200000000000001,8053.0,36.23256,0.1,68900.0,0.33,276.0,2700.0,34.833265328666315,0.522442431262229,1410.5945644080184,17.95319931579868,5.185012122398907,16.880066012867633,4.662569691136678,29518,266,9704,14956,857.3007057444371,488.2294127699549,0.0089805867338073,True
0.04,0.444151380330857,3.200000000000001,8054.0,36.23256,0.1,68900.0,0.33,276.0,2700.0,21.58768267649697,0.431619612243387,1165.372953057145,11.409166935581162,2.3501920326863472,10.17851574091581,1.91857242044296,17795,200,5838,9032,422.2967280409337,241.22354940393788,0.0043990203430021,True
0.05,0.6784760820965985,3.200000000000001,8055.0,36.23256,0.1,68900.0,0.33,276.0,2700.0,37.02599976115725,0.9253881946411328,2498.5481255310588,19.426245836915257,5.935994334011467,17.599753924241995,5.010606139370335,30721,272,10094,15574,556.3036242364437,317.3476530638404,0.0059795722929288,True
0.06,0.60406828938926,3.200000000000001,8056.0,36.23256,0.2,68900.0,0.33,276.0,2700.0,31.389880568999512,0.941244027727868,2541.358874865244,16.730963366933995,4.591668077786904,14.658917202065515,3.6504240500590353,6645,126,2178,3372,359.9647863216418,206.00341981927087,0.0043794328459608,True
0.08,0.571266098592663,3.200000000000001,8058.0,36.23256,0.2,68900.0,0.33,276.0,2700.0,28.497246852268702,1.138817543798325,3074.8073682554777,15.586958080634146,4.061692685936826,12.91028877163456,2.9228751421385013,5871,118,1926,2976,265.1833266049591,152.15649766069447,0.0031287224654501,False
0.09,0.7538347017237801,3.200000000000001,8059.0,36.23256,0.1,68900.0,0.33,276.0,2700.0,41.18268965557077,1.8516942204710447,4999.574395271822,22.297796672975423,7.507231150117698,18.884892982595343,5.655536929646653,34049,290,11208,17231,333.3188110372497,191.0302741272351,0.0039659720362211,True
0.0999999999999999,0.7504010599566742,3.200000000000001,8060.0,36.23256,0.2,68900.0,0.33,276.0,2700.0,40.556788482211736,2.025745029008211,5469.51157832217,22.163853820065174,7.430898544819908,18.39293466214656,5.405153515811698,8358,146,2744,4236,281.11463763504804,161.07099048612193,0.0035809793361037,True
0.11,0.4987269350303984,3.200000000000001,8061.0,36.23256,0.1,68900.0,0.33,276.0,2700.0,22.86782103637829,1.254942517119523,3388.344796222712,13.153115215140978,3.020101669412938,9.714705821237317,1.765159152293415,19037,208,6272,9623,531.8556997287892,286.1287502725187,0.0019804405537931,True
0.12,0.8083117989491608,3.200000000000001,8062.0,36.23256,0.3,68900.0,0.33,276.0,2700.0,44.25547564045104,2.6517094236901344,7159.615443963363,24.462537007287168,8.780576161660212,19.79293863316387,6.128866737970078,4164,104,1360,2118,242.46681195770907,139.82440789234977,0.0033304062356343,False
0.13,0.7782216334602781,3.200000000000001,8063.0,36.23256,0.3,68900.0,0.33,276.0,2700.0,41.571180381551656,2.6975253387608986,7283.318414654426,23.257631693580443,8.062679335052522,18.313548687971213,5.365153996291623,4037,102,1318,2054,219.3773389066005,126.6333384428684,0.0029436682858686,False
0.14,0.5197877501681005,3.200000000000001,8064.0,36.23256,0.1,68900.0,0.33,276.0,2700.0,23.294769297490745,1.6248868306633868,4387.194442791144,13.846126096851162,3.3043951192847225,9.44864320063958,1.6795082886213355,19173,208,6350,9642,136.53850032983684,78.80706919902512,0.0016725118431462,False
0.15,0.6503421773493145,3.200000000000001,8065.0,36.23256,0.1,68900.0,0.33,276.0,2700.0,31.596658711883222,2.362680819920663,6379.23821378579,18.390788284261287,5.4040705550543935,13.20587042762194,3.0413897351337305,26089,248,8634,13128,157.00349632525146,90.64596352179592,0.0020542101399778,False
0.16,0.6572839733396046,3.200000000000001,8066.0,36.23256,0.2,68900.0,0.33,276.0,2700.0,31.750472053857592,2.5314591219691978,6834.939629316834,18.644429762961213,5.532615318517773,13.10604229089638,3.001156196548575,6630,126,2178,3357,149.92992660840707,86.50589550173443,0.0019618011212599,False
0.17,0.6468130232346998,3.200000000000001,8067.0,36.23256,0.3,68900.0,0.33,276.0,2700.0,30.706170641428766,2.599734741383254,7019.283801734786,18.262303337477046,5.339393442559263,12.44386730395172,2.739658701176009,2989,84,972,1525,145.36667413031256,83.92747422986105,0.0018193916300905,False
0.18,0.8476734969100453,3.200000000000001,8068.0,36.23256,0.3,68900.0,0.33,276.0,2700.0,45.09936513727668,4.04672835011774,10926.166545317898,26.073057011138907,9.775031829445703,19.02630812613777,5.728303479327965,4250,104,1394,2153,191.7919863857619,110.28138165718026,0.0024327939044679,False
0.19,0.8400547123276514,3.200000000000001,8069.0,36.23256,0.3,68900.0,0.33,276.0,2700.0,44.1385992786124,4.178801475460856,11282.76398374431,25.758288364874755,9.57758682815124,18.38031091373764,5.398785352690385,4269,104,1402,2160,162.46523015879515,93.59509924879552,0.0022878939561844,False
0.2,0.6972903454137511,3.200000000000001,8070.0,36.23256,0.1,68900.0,0.33,276.0,2700.0,33.23604743141207,3.306849582322058,8928.493872269557,20.12979738297306,6.308089292205797,13.106250048439009,3.00123970988374,36425,254,8964,20637,130.761148351042,75.4232220677968,0.0017316563600414,False
0.21,0.5467091814944065,3.200000000000001,8071.0,36.23256,0.1,68900.0,0.33,276.0,2700.0,22.94284233146121,2.3896022517601625,6451.926079752438,14.748214497411976,3.6892545424536967,8.194627834049234,1.2996522906935342,25433,208,6294,14366,103.4386781108263,59.71627243155521,0.001255902347852,False
0.22,0.608597618437151,3.200000000000001,8072.0,36.23256,0.08,68900.0,0.33,276.0,2700.0,26.60189508533187,2.90390734033622,7840.549818907793,16.891052512151123,4.667810469764004,9.710842573180743,1.763903129427784,48456,278,10998,28275,108.6663412700596,62.72310468668673,0.0013603506444289,False
0.23,0.6843975410860471,3.200000000000001,8073.0,36.23256,0.3,68900.0,0.33,276.0,2700.0,31.37758969412968,3.5829403096140933,9673.938835958052,19.6467169615911,6.051678372559947,11.73087273253858,2.468738062945854,3066,86,1006,1551,114.11357929329496,65.82491294574723,0.0014889196759418,False
0.24,0.8016627329612174,3.200000000000001,8074.0,36.23256,0.3,68900.0,0.33,276.0,2700.0,39.45147850895845,4.705224503179531,12704.106158584736,24.19432878116921,8.618815421622676,15.25714972778924,3.9135909184431448,3647,96,1202,1838,124.7579227812377,72.02849318412582,0.0017393041435426,False
0.25,0.5993587910673459,3.200000000000001,8075.0,36.23256,0.08,68900.0,0.33,276.0,2700.0,25.123073376199308,3.1076592485500165,8390.679971085045,16.565052904154395,4.51326453017672,8.558020472044912,1.4056052816267033,55478,270,10576,33974,97.28293796980654,56.12734522412146,0.0012066708500356,False
0.26,0.6293711880886688,3.200000000000001,8076.0,36.23256,0.08,68900.0,0.33,276.0,2700.0,26.77304176018912,3.44368434050492,9297.947719363285,17.631899658031582,5.0263741699843125,9.141142102157538,1.5826898294793923,60380,282,11356,37092,102.9273752113149,58.44530747031653,0.0012413485673512,False
0.27,0.86733983375031,3.200000000000001,8077.0,36.23256,0.3,68900.0,0.33,276.0,2700.0,43.38640905676869,5.8159412438633655,15703.041358431086,26.89231109805836,10.295833284011437,16.494097958710324,4.479892040148071,4284,104,1410,2163,121.05770751840858,69.83758935529524,0.0017291835257532,False
0.28,0.9586972861289268,3.200000000000001,8078.0,36.23256,0.3,68900.0,0.33,276.0,2700.0,50.25997597740935,6.9904204755495725,18874.135283983847,30.825509991491643,12.930712882615548,19.434465985917704,5.940292407065976,4982,114,1638,2519,127.06860300208068,73.3123050163254,0.0019011929326325,False
0.29,0.6382173014676233,3.200000000000001,8079.0,36.23256,0.05,68900.0,0.33,276.0,2700.0,26.475734107913567,3.7879012434946895,10227.333357435664,17.950670943547856,5.183756447085908,8.525063164365712,1.3958552035912173,229081,442,28606,151736,552.3512564627694,299.0778401191374,0.0011492707693514,True
0.3,0.8114721318761418,3.200000000000001,8080.0,36.23256,0.3,68900.0,0.33,276.0,2700.0,38.16157419311512,5.667687461202657,15302.756145247176,24.59040723207152,8.858087912974241,13.571166961043597,3.190400451771584,3560,94,1174,1793,104.3267002709972,60.12601860719914,0.0014485099605507,False
0.31,0.8646844412858974,3.200000000000001,8081.0,36.23256,0.2,68900.0,0.33,276.0,2700.0,41.800074316269374,6.416617394526365,17324.866965221187,26.781125960113098,10.22457130307407,15.018948356156276,3.807953908547705,8600,148,2828,4340,107.266643063336,61.85289910489739,0.0015268902011638,False
0.32,0.7783822168048509,3.200000000000001,8082.0,36.23256,0.3,68900.0,0.33,276.0,2700.0,35.12069649363981,5.550682300267151,14986.842210721306,23.264001561759457,8.06641463477541,11.856694931880355,2.51573233450826,3389,92,1118,1706,95.95013747874629,55.38067178098594,0.0013071918939285,False
0.33,0.9107101111661896,3.200000000000001,8083.0,36.23256,0.3,68900.0,0.33,276.0,2700.0,44.64692615260297,7.291476538384785,19686.98665363892,28.733371895662785,11.501913077495251,15.913554256940188,4.210436539110468,4372,106,1448,2194,105.34489589928384,60.820107425326974,0.0015397760581418,False
0.34,0.733711189614136,3.200000000000001,8084.0,36.23256,0.1,68900.0,0.33,276.0,2700.0,31.38094700477789,5.2524428857077785,14181.595791411002,21.5170195770665,7.066394224924507,9.863927427711392,1.8139513392167288,46217,246,8642,28420,91.36472457551658,52.02347128426393,0.0011800922330926,False
0.3500000000000001,0.6513434988097575,3.200000000000001,8085.0,36.23256,0.05,68900.0,0.33,276.0,2700.0,25.62729644822094,4.394979688423555,11866.445158743598,18.427300127155423,5.422503923981103,7.1999963210655125,1.0275242355575482,247999,430,27282,167096,104.0262133767004,59.21490964375133,0.0010310103819967,False
0.36,0.6955851302409671,3.200000000000001,8086.0,36.23256,0.1,68900.0,0.33,276.0,2700.0,28.22819607337496,4.983359195309714,13455.069827336229,20.0656649523722,6.273818346465113,8.162531121002754,1.2904591511553989,42020,230,7626,25977,83.59322572649434,48.21941046338214,0.0010650705438055,False
0.37,1.0060536424911657,3.200000000000001,8087.0,36.23256,0.3,68900.0,0.33,276.0,2700.0,50.81940585826126,9.295502688656804,25097.85725937337,32.94688444633196,14.44050457110392,17.872521411929306,5.145001882447117,4992,114,1654,2505,104.358604469005,60.07936015520552,0.0015813037107327,False
0.38,0.9114980990017814,3.200000000000001,8088.0,36.23256,0.2,68900.0,0.33,276.0,2700.0,43.00353936925676,8.055748832100264,21750.521846670712,28.76725910504612,11.524567975354213,14.236280264210638,3.4688191432539472,11334,150,2936,6304,98.30454424805907,56.71904199760612,0.001380020063459,False
0.39,0.7453012106860534,3.200000000000001,8089.0,36.23256,0.2,68900.0,0.33,276.0,2700.0,30.69558094403708,5.861400861008363,15825.78232472258,21.96546079927308,7.318372396131656,8.730120144763998,1.4569715351232926,8107,122,2060,4533,83.95036494528493,48.46543284888681,0.0010756316237172,False
0.4,0.8663418594386922,3.200000000000001,8090.0,36.23256,0.1,68900.0,0.33,276.0,2700.0,38.95973115574718,7.657904944596276,20676.343350409945,26.850503679095663,10.269016311802316,12.109227476651515,2.61111136720604,61278,278,10408,38386,90.12686699082344,52.0120421907169,0.0012518404023126,False
0.4100000000000001,0.9715444323968728,3.200000000000001,8091.0,36.23256,0.3,68900.0,0.33,276.0,2700.0,46.64854066397284,9.418603031262398,25430.228184408475,31.395439279744043,13.330389259746587,15.253101384228795,3.911786228484189,4436,106,1478,2213,93.40357821367404,53.891838889954805,0.0013857616945002,False
0.42,0.8584042771347089,3.200000000000001,8092.0,36.23256,0.1,68900.0,0.33,276.0,2700.0,37.74874775092308,7.772067483347741,20984.5822050389,26.518871552738595,10.05720545502086,11.229876198184485,2.2851379716731186,61223,270,10070,38624,86.74984739438415,50.03103928303747,0.0011917436476055,False
0.43,1.099329794401148,3.200000000000001,8093.0,36.23256,0.2,68900.0,0.33,276.0,2700.0,56.377560450942575,11.95465642554667,32277.57234897601,37.290122571769736,17.714523746300777,19.08743787917284,5.759867320754108,15327,176,3766,8674,102.33612075905022,59.06397564128145,0.0015694026874053,False
0.44,1.0061169898047189,3.200000000000001,8094.0,36.23256,0.3,68900.0,0.33,276.0,2700.0,48.35959393950278,10.460701714288351,28243.894628578557,32.94975989966325,14.44259175879914,15.40983403983953,3.981890044510788,4628,108,1542,2305,90.20178294796648,51.92062104147004,0.0013641749492771,False
0.45,1.0472266860855834,3.200000000000001,8095.0,36.23256,0.2,68900.0,0.33,276.0,2700.0,51.32720055999853,11.357768372294071,30665.974605194,34.83707607103406,15.835794368573808,16.49012448896447,4.478025996279735,13698,164,3376,7744,95.55782708484912,55.1450659796733,0.0014202394066732,False
0.46,0.8638576135450187,3.200000000000001,8096.0,36.23256,0.2,68900.0,0.33,276.0,2700.0,36.91616804067242,8.286858607668114,22374.518240703903,26.74654166314877,10.202442224010214,10.169626377523656,1.9155836163421007,9946,136,2462,5609,81.35507368366575,46.96435770236726,0.0011138962465682,False
0.4700000000000001,0.916762625644805,3.200000000000001,8097.0,36.23256,0.3,68900.0,0.33,276.0,2700.0,40.48496257707038,9.296519822895768,25100.60352181857,28.99405909722371,11.676610669072003,11.490903479846663,2.380090846176236,4005,98,1298,2026,83.9851656349471,48.46601896333775,0.0011578010132774,False
0.4800000000000001,0.8643533489882878,3.200000000000001,8098.0,36.23256,0.1,68900.0,0.33,276.0,2700.0,36.351556154659086,8.492750133954315,22930.42536167665,26.76727507054098,10.215706571584803,9.584281084118109,1.72295643763049,66380,266,9822,42855,80.55114509155418,46.472792601226736,0.0010842414206266,False
0.49,1.0853779461936186,3.200000000000001,8099.0,36.23256,0.2,68900.0,0.33,276.0,2700.0,53.05181894701418,12.751292152617024,34428.48881206597,36.62657211105736,17.198892182116975,16.42524683595682,4.447600029499951,14325,168,3508,8121,91.36462818201434,52.71441609838645,0.001386389596808,False
0.5,0.8164424193586559,3.200000000000001,8100.0,36.23256,0.1,68900.0,0.33,276.0,2700.0,32.41281383709434,7.841404071474439,21171.790992980983,24.79201785096841,8.980810080437617,7.62079598612593,1.1394060089631788,59638,244,8706,38551,75.58860033848568,43.58848164273023,0.0009919222087729,False
0.02,0.393268075810101,3.200000000000001,8102.0,39.25194,0.08,68900.0,0.33,276.0,2700.0,19.10649646093341,0.1910482094485147,515.8301655109898,9.850635934002094,1.809583441815903,9.25586052693132,1.6185352323673885,24540,234,8094,12393,787.7505937286196,448.1774737981853,0.0079607375957571,True
0.04,0.7119031694380067,3.200000000000001,8104.0,39.25194,0.1,68900.0,0.33,276.0,2700.0,39.86492750183248,0.7971645087501061,2152.3441736252867,20.68237607683205,6.606273311380563,19.182551425000437,5.8091088026304565,33366,286,10970,16905,820.4811169484666,467.6990664609283,0.0084974848354408,True
0.05,0.7357202635679901,3.200000000000001,8105.0,39.25194,0.1,68900.0,0.33,276.0,2700.0,41.29059852841311,1.0320031638227196,2786.408542321343,21.59451280053764,7.109701336345882,19.69608572787547,6.077698172523163,34592,292,11356,17552,682.5131554946898,389.074492574945,0.0071804921610545,True
0.06,0.6417604423440769,3.200000000000001,8106.0,39.25194,0.1,68900.0,0.33,276.0,2700.0,34.02891597996473,1.0204150900568276,2755.1207431534344,18.078900286213607,5.247585277219474,15.950015693751125,4.227170187162646,28690,262,9422,14551,466.7469741897439,266.50676103273963,0.0050988545593082,True
0.0699999999999999,0.5459493472677666,3.200000000000001,8107.0,39.25194,0.1,68900.0,0.33,276.0,2700.0,27.1386655073177,0.949134915236003,2562.6642711372083,14.722504028468189,3.678058113062668,12.416161478849514,2.7289231978266653,22476,228,7374,11409,320.7996956992882,183.93725607336484,0.0036264400913034,True
0.08,0.6474863362535772,3.200000000000001,8108.0,39.25194,0.2,68900.0,0.33,276.0,2700.0,33.743665403224,1.3486742858365337,3641.420571758641,18.28679229649272,5.351697932879152,15.456873106731283,4.003023647042618,7033,132,2308,3565,344.4340618034966,197.42088763982724,0.0039575988000007,True
0.09,0.734137600821517,3.200000000000001,8109.0,39.25194,0.2,68900.0,0.33,276.0,2700.0,39.6985670314603,1.784908702386069,4819.253496442387,21.533458464623223,7.075572827922167,18.16510856683708,5.2906641255360976,8374,146,2748,4246,319.9190336155835,183.113776500166,0.0041565362227188,True
0.0999999999999999,0.4990650529091993,3.200000000000001,8110.0,39.25194,0.2,68900.0,0.33,276.0,2700.0,23.18906314750951,1.1573587622730843,3124.868658137328,13.164153011384874,3.024550838786274,10.024910136124635,1.8671920765131893,4878,106,1594,2481,208.7043980183118,120.32322779953029,0.0023437907862647,False
0.11,0.7638295521888345,3.200000000000001,8111.0,39.25194,0.3,68900.0,0.33,276.0,2700.0,41.20743184486997,2.2636211115865623,6111.777001283718,22.689372170572263,7.732049071675186,18.51805967429771,5.468427960088624,3805,98,1246,1930,276.42535341193224,159.58599437483144,0.003640052384308,True
0.12,0.60599965807106,3.200000000000001,8112.0,39.25194,0.3,68900.0,0.33,276.0,2700.0,29.53888975597293,1.768714270621443,4775.528530677896,16.79916454400107,4.6240475821700855,12.739725211971866,2.855333311548643,2933,84,958,1490,207.80346001084848,119.8857668469532,0.0025040388373214,False
0.13,0.4511625885657095,3.200000000000001,8113.0,39.25194,0.2,68900.0,0.33,276.0,2700.0,19.382538085986152,1.255263589549142,3389.2116917826834,11.62901767357764,2.430954065676445,7.753520412408511,1.175690476127303,4144,98,1362,2095,142.59000758874876,82.29631185406814,0.0016471965699457,False
0.14,0.5313819991213633,3.200000000000001,8114.0,39.25194,0.1,68900.0,0.33,276.0,2700.0,24.026512256183608,1.676108837771886,4525.493861984092,14.232395244305447,3.4671665383461217,9.79411701187816,1.7910577005742356,19863,214,6572,9997,150.1410084906322,86.57393307305979,0.0018596603932251,False
0.15,0.8066362253300579,3.200000000000001,8115.0,39.25194,0.3,68900.0,0.33,276.0,2700.0,43.01555436465649,3.2190979938786546,8691.564583472367,24.394843450409585,8.739644102616078,18.620710914246903,5.520546108737423,4003,102,1318,2020,212.17653175103743,122.32435158389788,0.0029244656445421,False
0.16,0.5417333297117576,3.200000000000001,8116.0,39.25194,0.2,68900.0,0.33,276.0,2700.0,24.08649022612286,1.9183405757504253,5179.519554526149,14.58011049508501,3.616288101380171,9.506379731037848,1.6979475256297454,5068,108,1672,2554,137.89156643865428,79.61157591055513,0.0016905409104423,False
0.17,0.6497915271996908,3.200000000000001,8117.0,39.25194,0.3,68900.0,0.33,276.0,2700.0,30.910278721433684,2.6170839281837543,7066.126606096137,18.37072030487868,5.3939491903017895,12.539558416555003,2.776865262118035,3020,86,986,1535,156.6345686956117,90.15544532036478,0.0019842071318101,False
0.18,0.8453387115926198,3.200000000000001,8118.0,39.25194,0.3,68900.0,0.33,276.0,2700.0,44.91669496552631,4.030288034660209,10881.777693582562,25.97644076529505,9.714269654508088,18.940254200231266,5.683981619847878,4252,104,1396,2152,185.9111475188809,107.1213974569811,0.002627170011976,False
0.19,0.5751215895932754,3.200000000000001,8119.0,39.25194,0.1,68900.0,0.33,276.0,2700.0,25.32717525615153,2.3917161933270816,6457.63372198312,15.720019270067388,4.122044450620649,9.607155986084146,1.7303282572935674,27842,222,7042,15633,126.6568465419166,73.10995819309997,0.0015654122173427,False
0.2,0.7477767973372762,3.200000000000001,8120.0,39.25194,0.1,68900.0,0.33,276.0,2700.0,36.84604766718897,3.66784960589975,9903.193935929325,22.06168379403652,7.372868870079442,14.78436387315245,3.705019264179692,40282,270,9900,22828,150.14184396341267,86.60895304787633,0.0020446502729863,False
0.21,0.7294338907850385,3.200000000000001,8121.0,39.25194,0.3,68900.0,0.33,276.0,2700.0,35.18676535000573,3.6752141687073454,9923.078255509836,21.352375154327145,6.974711782875839,13.834390195678584,3.2994976141684926,3351,90,1100,1695,142.1852593411423,81.97087343715175,0.0018891614945653,False
0.22,0.7689920351325912,3.200000000000001,8122.0,39.25194,0.3,68900.0,0.33,276.0,2700.0,37.71815639339117,4.126696084222735,11142.079427401382,22.89260981680792,7.849706885790917,14.825546576583251,3.723010801568183,3634,96,1196,1834,142.753253069292,82.39972445008036,0.0019343207415316,False
0.23,0.9048826050074072,3.200000000000001,8123.0,39.25194,0.3,68900.0,0.33,276.0,2700.0,47.7761271067161,5.4687721120615365,14765.684702566148,28.483245984362608,11.335198395438088,19.292881122353496,5.866426283376551,4504,108,1476,2284,156.70221893834818,90.3572379391453,0.002288522992085,False
0.24,0.7171889939368984,3.200000000000001,8124.0,39.25194,0.08,68900.0,0.33,276.0,2700.0,33.33951328203399,3.971788675948596,10723.82942506121,20.88357937288452,6.7161281748864825,12.455933909149469,2.744339498937886,72806,320,14276,44320,131.97743481834877,74.38676044467135,0.0016576326412737,False
0.25,0.6060736210376257,3.200000000000001,8125.0,39.25194,0.08,68900.0,0.33,276.0,2700.0,25.5543334756841,3.161566760985618,8536.23025466117,16.801778214401526,4.6252901948721465,8.752555261282573,1.4637234338865284,55577,270,10562,34076,105.86620173961494,61.12095984837224,0.0013231036421502,False
0.26,0.7732247693908438,3.200000000000001,8126.0,39.25194,0.3,68900.0,0.33,276.0,2700.0,36.68871871960331,4.732722345228764,12778.35033211766,23.05974466611863,7.946958779498503,13.62897405348468,3.21423643426974,3531,94,1162,1782,122.71857445053348,70.69763442019628,0.0016767834533184,False
0.27,0.6655054217904018,3.200000000000001,8127.0,39.25194,0.08,68900.0,0.33,276.0,2700.0,28.86419121146705,3.855441834747642,10409.692953818634,18.946394149084284,5.68713966515798,9.917797062382764,1.8316978304103384,65984,294,12276,40642,107.38222234076866,61.916098759333465,0.0013782178188136,False
0.28,0.8126904494367844,3.200000000000001,8128.0,39.25194,0.1,68900.0,0.33,276.0,2700.0,38.91596779292664,5.402259329721996,14586.10019024939,24.63976861306127,8.888076903059675,14.276199179865372,3.4858175733376786,47872,280,10594,28149,143.0378605421306,79.4424080132031,0.0016855032730129,False
0.29,0.7773826681832987,3.200000000000001,8129.0,39.25194,0.1,68900.0,0.33,276.0,2700.0,36.00881204888863,5.170197544936585,13959.533371328778,23.22436295073735,8.043180946533633,12.784449098151278,2.872983401597049,46359,266,9626,27774,114.90619013245134,66.30895054109867,0.0015526342637881,False
0.3,0.8199980642828075,3.200000000000001,8130.0,39.25194,0.2,68900.0,0.33,276.0,2700.0,38.78972978185355,5.761910799513219,15557.15915868569,24.936627034377103,9.069218688174884,13.853102747476449,3.307307888661665,7968,142,2626,4017,112.90582796688992,65.06915810057016,0.001593083465248,False
0.31,0.6269917173825308,3.200000000000001,8131.0,39.25194,0.08,68900.0,0.33,276.0,2700.0,25.18270333611233,3.8409248926020143,10370.497210025438,17.546490663153634,4.984521223571413,7.636212672958695,1.1435963309693986,61365,270,10678,38230,98.44154656754434,55.60639185511021,0.001160210948233,False
0.32,0.6920391711002074,3.200000000000001,8132.0,39.25194,0.08,68900.0,0.33,276.0,2700.0,29.152179148481498,4.595719525041821,12408.442717612916,19.93253690124523,6.202902445107782,9.21964224723627,1.607182920065961,72576,294,12320,45458,363.1325252238361,186.0301807589466,0.0012260780918701,True
0.33,0.7599816520875534,3.200000000000001,8133.0,39.25194,0.3,68900.0,0.33,276.0,2700.0,33.50694068964322,5.453378936996429,14724.123129890357,22.538322970141483,7.64503336464345,10.96861771950174,2.1916544276470216,3115,86,1026,1570,96.9918168255446,55.96173743515534,0.0013390010681528,False
0.34,0.8300733879681939,3.200000000000001,8134.0,39.25194,0.1,68900.0,0.33,276.0,2700.0,38.219718940802665,6.415034114831986,17320.592110046364,25.348119398307592,9.322534094468484,12.871599542495073,2.9074999796364978,55624,276,10414,34177,107.67239360829684,61.45136727806673,0.0014708181823052,False
0.3500000000000001,1.010480207602607,3.200000000000001,8135.0,39.25194,0.1,68900.0,0.33,276.0,2700.0,51.909679192742445,8.994396668714819,24284.87100553001,33.14805724378542,14.58679117090809,18.76162194895702,5.592394502193271,75219,330,13700,46529,129.65789004080548,72.85346688767942,0.001825395822337,False
0.36,0.9836927998319536,3.200000000000001,8136.0,39.25194,0.2,68900.0,0.33,276.0,2700.0,49.36649928865193,8.788253774059935,23728.285189961825,31.93818495106221,13.715085573801288,17.42831433758972,4.926831799741352,11002,160,3212,5852,118.14312253068904,68.20793650661368,0.0017119894649252,False
0.37,1.0609685882762234,3.200000000000001,8137.0,39.25194,0.2,68900.0,0.33,276.0,2700.0,55.36983435359692,10.137331960293912,27370.79629279357,35.47742887157071,16.318916458330776,19.892405482026213,6.181584498036862,13085,174,3646,7090,122.25603621566012,70.57592050493193,0.0018449388401934,False
0.38,0.9546908563436298,3.200000000000001,8138.0,39.25194,0.3,68900.0,0.33,276.0,2700.0,46.35375917568424,8.692290595321486,23469.184607368014,30.64862396297309,12.807567116654017,15.705135212711143,4.115276521332529,4253,104,1404,2141,106.15060453451676,61.276365911931286,0.0015639985510235,False
0.39,0.9804736172889784,3.200000000000001,8139.0,39.25194,0.2,68900.0,0.33,276.0,2700.0,48.04755803319527,9.245036393394154,24961.59826216421,31.79400215551301,13.61250287159266,16.25355587768226,4.367466478198505,12687,158,3174,7142,109.80374302818744,63.39084616601762,0.0016003201726065,False
0.4,1.0678860139016622,3.200000000000001,8140.0,39.25194,0.3,68900.0,0.33,276.0,2700.0,54.83571450517851,10.833101614482528,29249.374359102825,35.80156676986705,16.565449340580017,19.034147735311457,5.732347726097489,5108,116,1698,2555,112.01689094953498,64.5944669020107,0.0017262734092836,False
0.4100000000000001,1.0917105047015212,3.200000000000001,8141.0,39.25194,0.3,68900.0,0.33,276.0,2700.0,56.47370500765537,11.432761721717242,30868.45664863655,36.927142525524616,17.43178325096321,19.546562482130756,5.999021529245969,5231,118,1736,2619,111.45936207378176,64.28612003082453,0.0017382453122887,False
0.42,0.9659601557179828,3.200000000000001,8142.0,39.25194,0.2,68900.0,0.33,276.0,2700.0,45.87006776479779,9.477544686261444,25589.370652905895,31.147198113128773,13.155761928751929,14.722869651669017,3.6782172424904847,12471,156,3082,7038,102.46606310822357,59.11244908971933,0.0014778353655231,False
0.43,1.106314625990905,3.200000000000001,8143.0,39.25194,0.2,68900.0,0.33,276.0,2700.0,56.97014795907237,12.082062739794583,32621.56939744537,37.62415913828202,17.9761548532893,19.345988820790343,5.894092113494718,15252,176,3738,8639,110.96188635020864,64.04800604083368,0.001713863114322,False
0.44,1.0323346693372475,3.200000000000001,8144.0,39.25194,0.2,68900.0,0.33,276.0,2700.0,50.46712460039471,10.924358459684573,29495.767841148343,34.14848810427707,15.322134197049811,16.318636496117634,4.397775737365242,13773,164,3406,7778,104.01468778968508,60.03012702509902,0.0015406652367284,False
0.45,0.916335950969296,3.200000000000001,8145.0,39.25194,0.1,68900.0,0.33,276.0,2700.0,41.08469110405503,9.053203744706805,24443.65011070837,28.9756516737066,11.66424356546842,12.109039430348428,2.611039820761615,71113,286,10944,45571,100.67792721212528,56.87996752136512,0.0013187803128313,False
0.46,0.9812522287205864,3.200000000000001,8146.0,39.25194,0.3,68900.0,0.33,276.0,2700.0,45.72358085190329,10.312563554251222,27843.9215964783,31.828851220280285,13.637271611078708,13.894729631623008,3.324708056827486,4306,104,1430,2149,92.1733356393439,52.98811964994325,0.0013746381737397,False
0.4700000000000001,1.1177980384964945,3.200000000000001,8147.0,39.25194,0.3,68900.0,0.33,276.0,2700.0,56.47413004496435,13.05397417785086,35245.73028019733,38.17599701828807,18.411373912306672,18.298133026676275,5.357399734455811,5383,118,1762,2714,100.98411743809896,58.23727433959494,0.0015923903471711,False
0.4800000000000001,0.8675548654508765,3.200000000000001,8148.0,39.25194,0.1,68900.0,0.33,276.0,2700.0,36.58102891675978,8.54782359685848,23079.123711517896,26.901322543941827,10.301616952251456,9.679706372817956,1.7537933553929772,65956,266,9820,42498,88.40968707307758,50.604518313542336,0.0011796377556699,False
0.49,0.9142646518935558,3.200000000000001,8149.0,39.25194,0.1,68900.0,0.33,276.0,2700.0,39.678657455015376,9.474867587077128,25582.142485108245,28.88635755918084,11.60431882095829,10.79229989583454,2.129451233881163,72147,278,10554,46656,90.36951030626317,51.69448147924463,0.0012313830008746,False
0.5,1.1058760426761425,3.200000000000001,8150.0,39.25194,0.2,68900.0,0.33,276.0,2700.0,54.39794521390574,13.33768691567728,36011.75467232866,37.60314862880628,17.959658132465417,16.794796585099462,4.621971216788138,14653,170,3556,8339,100.18713380989718,57.82563846951439,0.0015106784700781,False
0.02,0.4468772565662915,3.200000000000001,8152.0,42.27132,0.1,68900.0,0.33,276.0,2700.0,22.36726878905908,0.2236559327297697,603.8710183703784,11.494495554739212,2.3814082649091155,10.872773234319864,2.1577523321793457,18519,206,6134,9312,889.4387854318094,513.336752490834,0.0099798737760639,True
0.03,0.6216013288706602,3.200000000000001,8153.0,42.27132,0.1,68900.0,0.33,276.0,2700.0,33.646515084554245,0.5046411776005525,1362.5311795214918,17.35353375043429,4.890459206273878,16.292981334119954,4.3858180286733255,28477,260,9354,14440,965.7572430506956,550.5105046206929,0.0101344019286142,True
0.04,0.6658012681633283,3.200000000000001,8154.0,42.27132,0.1,68900.0,0.33,276.0,2700.0,36.46110585921447,0.7290880758976265,1968.5378049235917,18.95729191242517,5.692746499124767,17.5038139467893,4.96365842322714,30357,270,9980,15381,813.168652785697,463.4161141358648,0.0084029483497397,True
0.05,0.3535395145455475,3.200000000000001,8155.0,42.27132,0.05,68900.0,0.33,276.0,2700.0,15.939848893653291,0.3982344229535328,1075.2329419745386,8.679006736463062,1.4416367507563894,7.260842157190229,1.0434023278028566,52370,340,17248,26492,318.49615017169856,183.01124232921663,0.0032049318066416,True
0.06,0.6477210860568723,3.200000000000001,8156.0,42.27132,0.2,68900.0,0.33,276.0,2700.0,34.45279301337854,1.0331314010592416,2789.4547828599525,18.295333022400214,5.355991756213422,16.15745999097832,4.32286035515418,7250,134,2386,3665,457.22434161008863,261.78224152523245,0.005564974468377,True
0.0699999999999999,0.7586461373408487,3.200000000000001,8157.0,42.27132,0.2,68900.0,0.33,276.0,2700.0,42.29143045496549,1.4794816884034272,3994.600558689253,22.48598437076985,7.614968056425488,19.805446084195644,6.13548636802206,8512,148,2790,4321,460.1566834399073,263.23295309754064,0.0058854220353759,True
0.08,0.759413276449361,3.200000000000001,8158.0,42.27132,0.2,68900.0,0.33,276.0,2700.0,41.977124233865794,1.6780126390621997,4530.634125467939,22.51604294479213,7.632229463037884,19.461081289073665,5.954216823975685,8466,148,2774,4299,404.13323304049857,231.05751853522008,0.0052108882901317,True
0.09,0.5187879211890484,3.200000000000001,8159.0,42.27132,0.2,68900.0,0.33,276.0,2700.0,24.7447084970182,1.1119850683361732,3002.359684507668,13.812974447667113,3.29056793624858,10.931734049351086,2.1785828679124077,5363,112,1758,2720,246.25542296849773,142.1141238821642,0.0029114126420869,False
0.0999999999999999,0.725572720783163,3.200000000000001,8160.0,42.27132,0.3,68900.0,0.33,276.0,2700.0,38.69976827374677,1.9328940185849544,5218.813850179377,21.20414350465335,6.892552926824007,17.49562476909342,4.959658908239053,3889,98,1270,1978,307.7449328031105,177.42711715066812,0.0040080375897881,True
0.11,0.707434721856849,3.200000000000001,8161.0,42.27132,0.3,68900.0,0.33,276.0,2700.0,37.01026415259045,2.0327768885112043,5488.497598980252,20.51283370717709,6.51423418048855,16.497430445413357,4.481457291977346,3579,94,1172,1815,277.96204352140444,160.47282973561403,0.0035477986914392,True
0.12,0.4396629052016521,3.200000000000001,8162.0,42.27132,0.2,68900.0,0.33,276.0,2700.0,18.98036103026345,1.1352025470788731,3065.0468771129576,11.269070267144798,2.2992968702461694,7.7112907631186545,1.1640943231672962,4003,96,1308,2035,162.84638506882067,94.01901514708103,0.0018490076143954,False
0.13,0.6039573639431206,3.200000000000001,8163.0,42.27132,0.1,68900.0,0.33,276.0,2700.0,29.079381387217,1.885558404129147,5091.007691148698,16.72704917498601,4.589812405305686,12.35233221223099,2.704254001176539,23881,236,7888,12043,193.4954561281509,111.70022419588923,0.0024946940116864,False
0.14,0.7684679365423713,3.200000000000001,8164.0,42.27132,0.3,68900.0,0.33,276.0,2700.0,40.4714079390112,2.8272515355698187,7633.579146038511,22.87194645171117,7.837714316381207,17.59946148730003,5.010462780811388,4022,102,1318,2039,235.04857564220023,135.40896553267848,0.0031542352615688,False
0.15,0.5455524989519072,3.200000000000001,8165.0,42.27132,0.2,68900.0,0.33,276.0,2700.0,24.628293248224917,1.8400534101462884,4968.144207394978,14.709081662136931,3.672218175586372,9.919211586087982,1.8321647654400832,5361,112,1756,2721,159.0989619297164,91.8027460677828,0.0019403209139083,False
0.16,0.5094160697421128,3.200000000000001,8166.0,42.27132,0.2,68900.0,0.33,276.0,2700.0,22.06312554259202,1.7564714010679598,4742.472782883491,13.503450446756528,3.1625669221528607,8.559675095835491,1.4060955210849009,4297,100,1408,2179,139.43488615908146,80.5027092190084,0.0016949990713152,False
0.17,0.7563380447966019,3.200000000000001,8167.0,42.27132,0.3,68900.0,0.33,276.0,2700.0,38.50488366374604,3.2626253482803564,8809.088440356962,22.395636290759537,7.563172615166513,16.1092473729865,4.300547266886157,3768,96,1228,1920,193.60737753933643,111.77690497723962,0.0025805723716663,False
0.18,0.4878945058532214,3.200000000000001,8168.0,42.27132,0.05,68900.0,0.33,276.0,2700.0,20.18287918810427,1.8042446146922304,4871.460459669022,12.801013131194262,2.879531203001893,7.381866056910008,1.0752865883096625,120253,382,21682,74530,127.48397749179318,71.70820604944461,0.0014731420535917,False
0.19,0.5136974611902859,3.200000000000001,8169.0,42.27132,0.2,68900.0,0.33,276.0,2700.0,21.469606543565774,2.0252471656314337,5468.167347204871,13.64457802496108,3.220682426253102,7.825028518604698,1.195435260621669,4655,104,1526,2360,120.73496698119328,69.61564564831744,0.0014754085336513,False
0.2,0.7966931943384101,3.200000000000001,8170.0,42.27132,0.3,68900.0,0.33,276.0,2700.0,40.46598834317714,4.029843673498562,10880.57791844612,23.994594446797677,8.499077321079854,16.471393896379464,4.469233647581292,3922,100,1284,1990,173.22979246500228,99.8512214823176,0.0023763057127448,False
0.21,0.870197880812501,3.200000000000001,8171.0,42.27132,0.3,68900.0,0.33,276.0,2700.0,45.76343959479996,4.785764964410735,12921.565403908984,27.01217969497087,10.37286402089114,18.75125989982909,5.587099056480406,4361,106,1436,2201,176.84839555368703,102.0265595190188,0.0025456737622678,False
0.22,0.7741607382876239,3.200000000000001,8172.0,42.27132,0.3,68900.0,0.33,276.0,2700.0,38.09788469259684,4.168466197135371,11254.8587322655,23.096763371087945,7.968559305734618,15.00112132150889,3.8000931085992473,3625,96,1192,1831,156.23905303685947,90.18042292261192,0.002100351326063,False
0.23,0.7118078888154917,3.200000000000001,8173.0,42.27132,0.3,68900.0,0.33,276.0,2700.0,33.28322080433401,3.802087887287589,10265.637295676492,20.6787556919877,6.604302854190936,12.604465112346308,2.802214966903347,3120,88,1024,1578,136.94347295706498,79.00498007952189,0.0018183522239974,False
0.24,0.7087649706711794,3.200000000000001,8174.0,42.27132,0.1,68900.0,0.33,276.0,2700.0,32.74967446058991,3.90100801737532,10532.721646913364,20.56325370654145,6.541554883848114,12.186420754048456,2.6405468664727945,36445,254,8970,20654,133.05485069905257,76.73048848140716,0.0017584393725115,False
0.25,0.7611691967357168,3.200000000000001,8175.0,42.27132,0.3,68900.0,0.33,276.0,2700.0,36.1460834005539,4.485535501594344,12110.94585430473,22.58490029805383,7.6718262822858785,13.561183102500069,3.186290780691534,3339,90,1102,1680,218.6807013046419,122.37598277971654,0.0018353536353425,False
0.26,0.8275853312640706,3.200000000000001,8176.0,42.27132,0.3,68900.0,0.33,276.0,2700.0,40.70654151111425,5.255039308125193,14188.60613193802,25.246265953373097,9.259593276894012,15.460275557741156,4.004553968768819,3923,98,1300,1967,140.0768892259205,80.76123501343399,0.0019701105724214,False
0.27,0.8732376002762203,3.200000000000001,8177.0,42.27132,0.3,68900.0,0.33,276.0,2700.0,43.84155166067091,5.877385495389985,15868.94083755296,27.139893050399028,10.455167516829464,16.70165861027188,4.577782021439479,4288,104,1414,2161,159.33463622047154,91.25086821226118,0.0020351916912664,False
0.28,0.6392041240768895,3.200000000000001,8178.0,42.27132,0.05,68900.0,0.33,276.0,2700.0,26.829989324353203,3.710222344121711,10017.60032912862,17.98635320969574,5.2014881790450405,8.843636114657464,1.4912658349233294,224915,448,28940,148283,132.5599314331446,74.32259929203835,0.0013807802544063,False
0.29,0.9641558650234944,3.200000000000001,8179.0,42.27132,0.1,68900.0,0.33,276.0,2700.0,50.33310750728326,7.247220386403818,19567.49504329031,31.067158431508226,13.099635548765306,19.26594907577504,5.852415162361488,65155,326,13456,39107,150.2008382820782,84.55608030405745,0.0021822944504519,False
0.3,0.894462059109965,3.200000000000001,8180.0,42.27132,0.3,68900.0,0.33,276.0,2700.0,44.43124461448708,6.608138024408444,17841.9726659028,28.03810709762118,11.040709088349942,16.3931375168659,4.432571063941499,4269,104,1404,2157,131.3467826141688,75.77536385326496,0.0019097952502482,False
0.31,0.7464056279830789,3.200000000000001,8181.0,42.27132,0.08,68900.0,0.33,276.0,2700.0,33.17608855719433,5.079899601869728,13715.728925048266,22.00836910540073,7.342655122491888,11.167719451793598,2.26275552062216,80974,316,14006,50535,120.8299582483446,68.10993205475701,0.0015108119180404,False
0.32,0.6854437011295715,3.200000000000001,8182.0,42.27132,0.05,68900.0,0.33,276.0,2700.0,28.711668834676164,4.525237874832962,12218.142262048998,19.685759785933957,6.072252402954983,9.02590904874221,1.547014528122021,263152,462,30678,175959,136.96092044744003,76.27081033090423,0.0013413904405816,False
0.33,0.72261731164988,3.200000000000001,8183.0,42.27132,0.08,68900.0,0.33,276.0,2700.0,30.922062261831226,5.026873996407445,13572.5597903001,21.090937486834186,6.830053346560824,9.831124774997036,1.8031793501533795,78064,302,13002,49121,109.8171171223776,61.65453146875315,0.0013862001181848,False
0.34,0.8426137617957521,3.200000000000001,8184.0,42.27132,0.3,68900.0,0.33,276.0,2700.0,39.14402559349848,6.572166245790285,17744.84886363377,25.863852299609803,9.643638598857088,13.280173293888671,3.0714723530668024,3701,96,1226,1856,111.17747395726268,64.01814815308337,0.0015902523357624,False
0.3500000000000001,0.7029388183486635,3.200000000000001,8185.0,42.27132,0.1,68900.0,0.33,276.0,2700.0,29.00435218303972,4.985964442016847,13462.103993445488,20.34275606211709,6.422392976133144,8.661596120922635,1.4364285341162972,43646,236,8076,26882,100.45621435164068,57.97939219139623,0.0012850271750159,False
0.36,0.6998253423553455,3.200000000000001,8186.0,42.27132,0.05,68900.0,0.33,276.0,2700.0,28.50904690201034,5.033912344464592,13591.563330054398,20.225272634379028,6.359239247623135,8.283774267631312,1.325326903158543,282079,456,30212,190687,131.34859946101324,74.54344774905552,0.001253299674955,False
0.37,0.9905589158874332,3.200000000000001,8187.0,42.27132,0.3,68900.0,0.33,276.0,2700.0,49.56288241068279,9.06304585085479,24470.22379730793,32.24657910602657,13.935434915364718,17.316303304656216,4.872389064509928,4645,110,1542,2326,120.276745512379,69.39816272852161,0.0018051469778277,False
0.38,0.9814506092721478,3.200000000000001,8188.0,42.27132,0.2,68900.0,0.33,276.0,2700.0,48.47640932242995,9.095594123203163,24558.104132648543,31.837732766028346,13.64358671708598,16.638676556401606,4.547992593882816,11863,158,3150,6542,121.01490680325514,69.86032172469918,0.0017625490262211,False
0.39,0.911244889556907,3.200000000000001,8189.0,42.27132,0.3,68900.0,0.33,276.0,2700.0,42.65085412088228,8.192679130493184,22120.2336523316,28.756368197918214,11.517285212519935,13.894485922964066,3.3246060820267527,3967,100,1320,1981,105.6322352903166,60.92238079076772,0.0015594662236423,False
0.4,0.7119670185197609,3.200000000000001,8190.0,42.27132,0.08,68900.0,0.33,276.0,2700.0,28.18027353473329,5.502013420393498,14855.436235062443,20.6848022827807,6.607593939556519,7.495471251952591,1.1055805191630217,81685,284,11756,52961,95.16957280014908,53.897180378720826,0.0011791616797911,False
0.4100000000000001,0.8472209706789482,3.200000000000001,8191.0,42.27132,0.2,68900.0,0.33,276.0,2700.0,37.247384202460175,7.491365956652294,20226.688082961195,26.05432022362461,9.76323732686128,11.19306397883556,2.271871370208987,9815,136,2418,5550,102.5112259853014,59.18400385297223,0.0013905439718272,False
0.42,0.7812098759349848,3.200000000000001,8192.0,42.27132,0.08,68900.0,0.33,276.0,2700.0,32.27839484998158,6.623293374150025,17882.892110205066,23.37627265123955,8.132355986028422,8.902122198742031,1.509062611878397,98688,310,13600,64386,102.68462223083844,58.636003591558165,0.0012537288914528,False
0.43,0.9073738730397328,3.200000000000001,8193.0,42.27132,0.08,68900.0,0.33,276.0,2700.0,41.05193958037464,8.659647938374574,23381.04943361135,28.590070759222986,11.406290827805917,12.46186882115165,2.7466428894313424,128098,356,17236,83868,117.51835941447618,66.2325821598706,0.0014557453624964,False
0.44,0.7642720470139821,3.200000000000001,8194.0,42.27132,0.08,68900.0,0.33,276.0,2700.0,30.54802603727756,6.542156775798799,17663.82329465676,22.7067661483312,7.742092849637623,7.841259888946361,1.199936073838824,96964,298,12858,63613,91.81443532783938,52.61909571843835,0.0011830905545706,False
0.45,1.0591097381309258,3.200000000000001,8195.0,42.27132,0.3,68900.0,0.33,276.0,2700.0,52.29971739056318,11.576584659171134,31256.778579762064,35.39053156253057,16.25305001250798,16.909185828032612,4.676465353336846,5131,114,1696,2569,107.73319092378712,62.02150246986504,0.0016648107098321,False
0.46,0.9682343353384112,3.200000000000001,8196.0,42.27132,0.1,68900.0,0.33,276.0,2700.0,44.712777017218485,10.08007867227371,27216.21241513902,31.2481989734229,13.226711074349277,13.464578043795584,3.1466324020755643,77680,298,11680,49994,117.6420565815644,66.03950256662293,0.0014883964384416,False
0.4700000000000001,0.9001249085771219,3.200000000000001,8197.0,42.27132,0.3,68900.0,0.33,276.0,2700.0,39.25271731789907,9.006942186990509,24318.743904874373,28.279670879778863,11.200168257522634,10.973046438120203,2.193226070532125,3783,94,1204,1933,88.66124029160093,51.05745735608252,0.001323421286807,False
0.4800000000000001,0.9440100547773592,3.200000000000001,8198.0,42.27132,0.2,68900.0,0.33,276.0,2700.0,42.21411442814156,9.899764119590008,26729.36312289302,30.179032136977074,12.482725606319818,12.035082291164482,2.5829614867298094,11278,146,2802,6351,98.48237883127965,56.81122486555381,0.0013894229886219,False
0.49,1.0221114827813935,3.200000000000001,8199.0,42.27132,0.2,68900.0,0.33,276.0,2700.0,47.93581882077408,11.497872121688198,31044.25472855813,33.67900743285538,14.975429864584006,14.256811387918702,3.477557742895808,13085,160,3238,7380,102.3779111830721,59.03303346538388,0.0015021835673433,False
0.5,1.0379083214246614,3.200000000000001,8200.0,42.27132,0.2,68900.0,0.33,276.0,2700.0,48.8568636194292,11.952416517058143,32271.524596056992,34.405554044038226,15.513182024468044,14.451309575390972,3.560765507409899,13269,160,3254,7520,102.68349504703008,59.236908690695394,0.00150530510252,False
0.03,0.3509044015098758,3.200000000000001,8203.0,45.2907,0.08,68900.0,0.33,276.0,2700.0,16.348943909180672,0.2451776099696036,661.97954691793,8.602697825345388,1.4188671665944048,7.746246083835285,1.1736895566248011,21194,216,6950,10763,564.8525840292021,322.5411784053148,0.0054770517509099,True
0.04,0.3820349780599226,3.200000000000001,8204.0,45.2907,0.05,68900.0,0.33,276.0,2700.0,17.862474804175083,0.3571154547969486,964.2117279517612,9.515339890133529,1.7008164607237513,8.347134914041554,1.3437010059268026,58035,356,19058,29442,832.0190127990542,466.2619478331181,0.0046205247820431,True
0.05,0.5366555998061033,3.200000000000001,8205.0,45.2907,0.05,68900.0,0.33,276.0,2700.0,27.170137263748234,0.6789916322059096,1833.277406955956,14.409206151152272,3.5426884155406007,12.760931112595962,2.863696783334691,89098,454,29306,45133,559.7981075326476,319.90384255614777,0.0055959103655349,True
0.06,0.4969775990558629,3.200000000000001,8206.0,45.2907,0.1,68900.0,0.33,276.0,2700.0,24.28155149291267,0.727994155445255,1965.5842197021889,13.09605435064594,2.997142372313262,11.18549714226673,2.269148216868007,20152,214,6614,10225,399.69162381023153,228.7767218188797,0.0043099603196556,True
0.08,0.5174277482754552,3.200000000000001,8208.0,45.2907,0.1,68900.0,0.33,276.0,2700.0,24.96740931233292,0.9976240422009076,2693.584913942451,13.767915097598136,3.271810552072825,11.199494214734782,2.2741865098719174,20900,218,6866,10595,299.9400551276345,172.16965413072631,0.0034670447239779,True
0.09,0.7256876512649919,3.200000000000001,8209.0,45.2907,0.1,68900.0,0.33,276.0,2700.0,39.067864067812216,1.7565270690219,4742.62308635913,21.208550314997183,6.894990182489004,17.85931375281503,5.138463113467104,31859,280,10490,16118,388.2588743054527,222.14129431103845,0.0047238329593101,True
0.0999999999999999,0.4648460189430768,3.200000000000001,8210.0,45.2907,0.08,68900.0,0.33,276.0,2700.0,21.070054965437865,1.0514083531695009,2838.8025535576526,12.061648014060683,2.5930334870292406,9.00840695137718,1.5416251338597398,27298,248,8998,13795,208.4101599675533,120.28205023932816,0.0024872905055623,False
0.11,0.6062768684965916,3.200000000000001,8211.0,45.2907,0.1,68900.0,0.33,276.0,2700.0,29.88218027629709,1.6407322753150528,4429.977143350643,16.808961190683817,4.628705843543584,13.073219085613276,2.987973568228532,25075,242,8254,12688,252.7929985556046,145.58269496647884,0.003132605617403,False
0.12,0.4695626770047773,3.200000000000001,8212.0,45.2907,0.2,68900.0,0.33,276.0,2700.0,20.775776197555214,1.2429274571163764,3355.9041342142164,12.211865644442218,2.650278199204175,8.563910553112995,1.4073507420877986,4139,98,1362,2090,183.70248325776285,106.05851139420366,0.002135406769609,False
0.13,0.5798135959311895,3.200000000000001,8213.0,45.2907,0.3,68900.0,0.33,276.0,2700.0,27.469075626873515,1.780888529706817,4808.399030208406,15.8824543550218,4.196183737553207,11.586621271851714,2.4152952078463894,2837,82,928,1439,215.40842569607747,124.36558872330032,0.0025463114338009,False
0.14,0.5674622680458138,3.200000000000001,8214.0,45.2907,0.1,68900.0,0.33,276.0,2700.0,26.34686216179408,1.8385333311646237,4964.039994144483,15.456045921474546,4.002651637763774,10.890816240319536,2.1641183065991507,21344,222,7056,10754,183.89525380229307,106.035725981895,0.0023174558202323,False
0.15,0.7278908762095555,3.200000000000001,8215.0,45.2907,0.3,68900.0,0.33,276.0,2700.0,37.10891712161114,2.7761002006502573,7495.470541755694,21.29309334270612,6.941810500835473,15.815823778905024,4.165710300185216,3790,96,1238,1927,223.78402299795167,129.20111147607983,0.0029580392195535,False
0.16,0.6729298927916516,3.200000000000001,8216.0,45.2907,0.3,68900.0,0.33,276.0,2700.0,32.83978897163393,2.618604475391306,7070.232083556526,19.22054620943928,5.828823478960419,13.619242762194652,3.210219003569113,3203,88,1052,1619,198.05692809581487,113.72152994109364,0.0025228138806191,False
0.17,0.4797074457114599,3.200000000000001,8217.0,45.2907,0.08,68900.0,0.33,276.0,2700.0,19.96924168116176,1.6870957797606927,4555.15860535387,12.536854052133462,2.7758110310791704,7.4323876290283,1.0887152513184777,34618,240,8550,19591,137.17412208214108,79.11769472733293,0.0016223246658144,False
0.18,0.5244795701016931,3.200000000000001,8218.0,45.2907,0.08,68900.0,0.33,276.0,2700.0,22.41940568527365,2.005531999437475,5414.936398481183,14.002029845512308,3.3697241695538103,8.417375839761345,1.364192170116335,38603,256,9524,21855,140.99867281152115,81.34642736774119,0.0017058943339799,False
0.19,0.6970278920043738,3.200000000000001,8219.0,45.2907,0.1,68900.0,0.33,276.0,2700.0,33.544850923984804,3.172395381771235,8565.467530782335,20.119921861485576,6.302807454222566,13.424929062499228,3.130412072451331,35162,254,8980,19678,750.7978174795912,394.2850853436674,0.0022409451641831,True
0.2,0.8637883542883473,3.200000000000001,8220.0,45.2907,0.3,68900.0,0.33,276.0,2700.0,45.62683336727117,4.545928175907961,12274.006074951494,26.74364548811681,10.200589878710256,18.883187879154352,5.654661702802296,4387,106,1444,2215,197.03181669882943,113.65784785199844,0.0028258501641817,False
0.21,0.6813866603363801,3.200000000000001,8221.0,45.2907,0.3,68900.0,0.33,276.0,2700.0,31.80461037949063,3.320087896803253,8964.237321368782,19.534504015059195,5.992693437732616,12.270106364431436,2.672605540929364,3095,86,1014,1568,155.6678797549041,89.7625262343059,0.0020062362289297,False
0.22,0.6565485259694147,3.200000000000001,8222.0,45.2907,0.3,68900.0,0.33,276.0,2700.0,29.78966056005247,3.254561542555461,8787.316164899745,18.617500402087504,5.518913225077549,11.172160157964967,2.264351682522088,2973,84,966,1518,143.2634107064939,82.71223720051067,0.0018419244810981,False
0.23,0.6476762597136083,3.200000000000001,8223.0,45.2907,0.3,68900.0,0.33,276.0,2700.0,28.883828321705085,3.296157751785203,8899.625929820048,18.29370203221189,5.355171679891108,10.590126289493195,2.059013928105905,2866,82,938,1453,136.67440189798356,78.8026068087996,0.0017469657750549,False
0.24,0.7707657055596495,3.200000000000001,8224.0,45.2907,0.3,68900.0,0.33,276.0,2700.0,37.17436866724147,4.43197132217349,11966.322569868424,22.96259062098029,7.890372880576245,14.211778046261175,3.4584015584027545,3651,96,1202,1842,151.4435406693412,87.41469427459747,0.0020711381142587,False
0.25,0.8331163461967526,3.200000000000001,8225.0,45.2907,0.2,68900.0,0.33,276.0,2700.0,41.47002616722041,5.151028347427655,13907.776538054668,25.472900317580603,9.39985715551974,15.997125849639808,4.248828808092085,8456,148,2788,4268,154.92848416532829,89.42135053223124,0.002199462537561,False
0.26,0.6043173724335797,3.200000000000001,8226.0,45.2907,0.08,68900.0,0.33,276.0,2700.0,25.15246454163034,3.233009302092281,8729.12511564916,16.73975381021752,4.595836571819562,8.412710731412822,1.3628272697272803,56224,270,10540,34578,118.81325232558837,68.56016048861142,0.0014748416967691,False
0.27,0.6089552447218745,3.200000000000001,8227.0,45.2907,0.08,68900.0,0.33,276.0,2700.0,25.16257292684377,3.355723366323501,9060.453089073451,16.903714776267947,4.673853418202434,8.258858150575822,1.3181300518789327,55913,268,10404,34423,116.05931621769837,66.9839199557739,0.0014431627856926,False
0.28,0.7871140420293896,3.200000000000001,8228.0,45.2907,0.3,68900.0,0.33,276.0,2700.0,37.03910219835794,5.139498146482371,13876.644995502402,23.611343083726663,8.271066898811464,13.427759114631272,3.131568752329093,3508,94,1156,1768,584.3992693373256,310.4853389486767,0.0018525486403159,True
0.29,0.7901374774060426,3.200000000000001,8229.0,45.2907,0.3,68900.0,0.33,276.0,2700.0,36.93123945902322,5.303949519406116,14320.663702396512,23.732058337149116,8.342636698280662,13.199181121874105,3.038687178874546,3488,94,1148,1760,129.6835948943491,74.58024427023756,0.0018050486255953,False
0.3,0.7268103517717852,3.200000000000001,8230.0,45.2907,0.3,68900.0,0.33,276.0,2700.0,32.12232607837948,4.761800243992302,12856.860658779216,21.251615783004883,6.918825204523572,10.870710295374597,2.1570249605312704,3146,86,1040,1580,118.91094366234675,68.6150816865352,0.0015943292896511,False
0.31,0.6369047506315018,3.200000000000001,8231.0,45.2907,0.08,68900.0,0.33,276.0,2700.0,25.818985442342225,3.939548619067653,10636.781271482663,17.903248679681482,5.16022640573174,7.915736762660742,1.2206777866640866,63064,274,10958,39311,108.65391556674771,62.645787272506304,0.0013604212038798,False
0.32,0.934290785509253,3.200000000000001,8232.0,45.2907,0.3,68900.0,0.33,276.0,2700.0,46.84721545250609,7.426925333685752,20052.69840095153,29.75420659520661,12.191473886558082,17.093008857299477,4.764548552872331,4367,106,1446,2192,140.1181294156144,80.76453229870582,0.0020431719601296,False
0.33,0.943932831360957,3.200000000000001,8233.0,45.2907,0.3,68900.0,0.33,276.0,2700.0,47.255934359861655,7.721962892582434,20849.299809972574,30.17564737417101,12.480395209046872,17.08028698569064,4.758432316464438,4344,106,1436,2184,137.53484452820237,79.29283835169242,0.0020143495854889,False
0.34,0.8191811640683635,3.200000000000001,8234.0,45.2907,0.1,68900.0,0.33,276.0,2700.0,37.42330630424349,6.279643966616898,16955.038709865625,24.90337533443255,9.048861535005646,12.51993096981094,2.769217568388748,53998,272,10070,33221,121.57680643396462,70.16265891958554,0.0016709655016998,False
0.3500000000000001,0.8470824563309858,3.200000000000001,8235.0,45.2907,0.3,68900.0,0.33,276.0,2700.0,39.14805856424188,6.761113058726855,18255.00525856251,26.048586084523627,9.759628826820029,13.099472479718251,2.9985157680931733,3706,96,1228,1858,117.81186680535129,68.0051880762671,0.0016726538971434,False
0.36,0.981967227909375,3.200000000000001,8236.0,45.2907,0.3,68900.0,0.33,276.0,2700.0,49.22747509424709,8.763229419067217,23660.719431481488,31.86086655039159,13.66004065858326,17.3666085438555,4.896811239516044,4831,112,1600,2425,131.0039010543248,75.61995026586654,0.0019633719479204,False
0.37,0.8190943790388661,3.200000000000001,8237.0,45.2907,0.3,68900.0,0.33,276.0,2700.0,36.46388003552377,6.639730411450376,17927.272110916016,24.8998437590614,9.046700448087371,11.564036276462373,2.406970036636995,3684,94,1220,1848,107.29560045243372,61.77807347585091,0.0015396233822701,False
0.38,1.067370002412271,3.200000000000001,8238.0,45.2907,0.3,68900.0,0.33,276.0,2700.0,55.535067452267285,10.43673916787226,28179.195753255102,35.77734590706768,16.546981570198064,19.757721545199608,6.110242402325802,5266,118,1744,2644,134.63371969698335,77.5647058394857,0.0020809533349336,False
0.39,0.7900099176493823,3.200000000000001,8239.0,45.2907,0.1,68900.0,0.33,276.0,2700.0,33.78035627995725,6.4629320515128015,17449.916539084563,23.726960677975264,8.33960976782655,10.05339560198199,1.8766777163137487,52715,256,9160,32851,108.98612359557524,62.07053251082385,0.0014379557241605,False
0.4,0.7600690160808796,3.200000000000001,8240.0,45.2907,0.08,68900.0,0.33,276.0,2700.0,31.410591571298934,6.148077027706619,16599.80797480787,22.54174831252113,7.647002552165395,8.868843258777808,1.4989255244587758,91903,304,13190,59618,109.0375059646574,62.25743460155381,0.0013535603280399,False
0.4100000000000001,0.7790689691988488,3.200000000000001,8241.0,45.2907,0.05,68900.0,0.33,276.0,2700.0,32.423511505269666,6.5024720537286855,17556.67454506745,23.29125031845902,8.082400599438031,9.132261186810643,1.579928545709346,364729,492,34400,250257,141.54844408532122,80.21971725259536,0.0013654302559991,False
0.42,0.8189716566594631,3.200000000000001,8242.0,45.2907,0.2,68900.0,0.33,276.0,2700.0,34.91694577070192,7.177389067501276,19378.950482253444,24.894850094889332,9.04364498643555,10.022095675812588,1.8662559189342751,9404,132,2318,5317,105.20465779772051,60.73350799143971,0.0014083266221493,False
0.43,0.8343063405710811,3.200000000000001,8243.0,45.2907,0.1,68900.0,0.33,276.0,2700.0,35.704966764745535,7.510048783014336,20277.131714138708,25.521761063471004,9.430198832072522,10.183205701274533,1.920150049058185,59854,264,9656,37940,104.68419600696494,60.39748880752239,0.0014166611170139,False
0.44,0.9829792585682476,3.200000000000001,8244.0,45.2907,0.2,68900.0,0.33,276.0,2700.0,46.52834845715385,10.05782770817159,27156.134812063294,31.90620394389589,13.692307771595718,14.622144513257956,3.634480063424128,12504,156,3116,7038,115.32820581662968,66.58187481362546,0.0016766759361279,False
0.45,1.1469567429659138,3.200000000000001,8245.0,45.2907,0.2,68900.0,0.33,276.0,2700.0,59.70936192095586,13.24375467850949,35758.137631975624,39.592116936779945,19.545130714867096,20.117244984175912,6.301376036357606,15799,180,3888,8941,127.59111264126484,73.59477015550551,0.0019936092069868,False
0.46,1.030688889978291,3.200000000000001,8246.0,45.2907,0.3,68900.0,0.33,276.0,2700.0,49.63980091675863,11.21329416916794,30275.89425675344,34.07273138006634,15.265995668950984,15.567069536692294,4.052701499783046,4605,108,1536,2291,110.28623342854038,63.56646251200035,0.0016910102154477,False
0.4700000000000001,0.9048038802855312,3.200000000000001,8247.0,45.2907,0.2,68900.0,0.33,276.0,2700.0,39.597851399255504,9.088048696109208,24537.73147949486,28.479872835970667,11.332956192596432,11.117978563284836,2.244907496487224,10884,142,2692,6142,104.35264917894952,60.24053133123249,0.0014418107628704,False
0.4800000000000001,1.0049941209751785,3.200000000000001,8248.0,45.2907,0.3,68900.0,0.33,276.0,2700.0,46.91796716886098,11.028688777362769,29777.45969887948,32.898805728494814,14.405622110857376,14.019161440366169,3.3769333334946072,4674,106,1502,2371,111.55342318372377,64.3934696750324,0.0015849777619499,False
0.49,0.8116725710516159,3.200000000000001,8249.0,45.2907,0.08,68900.0,0.33,276.0,2700.0,32.36641957695914,7.68336930695353,20745.09712877453,24.59852566627329,8.863017607533676,7.767893910685849,1.179648300580146,111328,306,13480,74054,524.021332906006,280.0799751742421,0.0012478911255458,True
0.5,0.8895918987379586,3.200000000000001,8250.0,45.2907,0.1,68900.0,0.33,276.0,2700.0,37.57155903222681,9.131090370257551,24653.94399969539,27.831002182598507,10.90466356926129,9.740556849628302,1.7735731990037369,69288,268,9982,44933,103.56397369104758,58.43571021581476,0.0013567737015622,False
0.03,0.4752168294599365,3.200000000000001,8253.0,48.31008,0.1,68900.0,0.33,276.0,2700.0,23.835174423868686,0.3574710676902645,965.1718827637142,12.392677763937726,2.719836740381416,11.44249665993096,2.3623656726911517,19505,210,6426,9860,777.4530330639337,443.7254046034984,0.0083292378533913,True
0.05,0.6680903305836918,3.200000000000001,8255.0,48.31008,0.1,68900.0,0.33,276.0,2700.0,36.26993102918304,0.9064864763417778,2447.5134861228003,19.041685910797163,5.736237490077663,17.22824511838588,4.829751013735885,29640,268,9724,15048,742.493247983529,423.7497339444889,0.00782024840671,True
0.06,0.641246482982191,3.200000000000001,8256.0,48.31008,0.2,68900.0,0.33,276.0,2700.0,33.99245061332884,1.0193211290577486,2752.1670484559213,18.06028008666633,5.238298242462059,15.93217052666251,4.218977113404311,7177,134,2362,3628,541.0050123254289,309.62488071043333,0.0062812875221751,True
0.0699999999999999,0.432916507133835,3.200000000000001,8257.0,48.31008,0.05,68900.0,0.33,276.0,2700.0,20.01141636182769,0.6996811951438501,1889.1392268883951,11.059450576473017,2.223978968401938,8.951965785354675,1.524297773258088,65125,382,21524,32833,313.5530503119329,180.2699877201337,0.0033875308600081,True
0.08,0.6821250934394472,3.200000000000001,8258.0,48.31008,0.2,68900.0,0.33,276.0,2700.0,36.22444285115342,1.4479053837537117,3909.344536135021,19.562003697290905,6.007128514643856,16.662439153862515,4.559223130890144,7463,136,2448,3785,429.71729682481015,245.8505664050482,0.0051971893587756,True
0.09,0.4312976190072687,3.200000000000001,8259.0,48.31008,0.05,68900.0,0.33,276.0,2700.0,19.33529743824819,0.8685615706915243,2345.116240867116,11.009319717668044,2.206115542189443,8.325977720580147,1.3375539714979188,72375,374,20698,38882,813.9635516421665,444.26742634510686,0.0026808287897465,True
0.0999999999999999,0.586472986216848,3.200000000000001,8260.0,48.31008,0.1,68900.0,0.33,276.0,2700.0,28.86897561765702,1.4413543857804552,3891.656841607229,16.113949294916534,4.302721388842628,12.755026322740488,2.861367003062173,23654,236,7786,11969,284.6134562505083,163.80791041210992,0.0035028600405272,True
0.11,0.4108702032003479,3.200000000000001,8261.0,48.31008,0.08,68900.0,0.33,276.0,2700.0,17.569317372512373,0.9635248156068956,2601.5170021386184,10.382418955362311,1.9876444243301776,7.186898417150061,1.0241196087232818,22813,224,7548,11485,182.6231160711191,105.42149737626346,0.0021167815450485,False
0.12,0.6167096233836725,3.200000000000001,8262.0,48.31008,0.3,68900.0,0.33,276.0,2700.0,30.266380139673867,1.8123636936434997,4893.381972837448,17.179059983057762,4.8059978123051605,13.087320156616103,2.993634118661661,2910,84,954,1473,264.15672287030407,152.2783070557284,0.0031458851635944,False
0.13,0.7341167513285975,3.200000000000001,8263.0,48.31008,0.3,68900.0,0.33,276.0,2700.0,38.26532809993067,2.4826449404555344,6703.141339229943,21.53265457444994,7.075123874612746,16.73267352548073,4.592478934157212,3781,96,1234,1924,275.40631099160555,158.9975287100679,0.0036436329309037,False
0.14,0.8013317513946681,3.200000000000001,8264.0,48.31008,0.3,68900.0,0.33,276.0,2700.0,42.97389448575748,3.002425593842052,8106.54910337354,24.18100676789729,8.610809749527425,18.792887717860182,5.608384155685373,3983,102,1312,2009,276.4867442055887,159.50247250774655,0.0038054987010932,True
0.15,0.793760196827296,3.200000000000001,8265.0,48.31008,0.3,68900.0,0.33,276.0,2700.0,42.028415906663575,3.145062609529189,8491.669045728811,23.87700347948212,8.428873735138195,18.15141242718146,5.283811125609006,4045,102,1324,2053,257.76307528594896,148.64420195325437,0.0035249863529694,False
0.16,0.8228034757569341,3.200000000000001,8266.0,48.31008,0.3,68900.0,0.33,276.0,2700.0,43.89791560037624,3.5032546056907066,9458.787435364908,25.050948242025434,9.139336500553645,18.84696735835081,5.636081894862938,4332,104,1420,2196,250.49002837396455,144.46535294496508,0.0034815128905161,False
0.17,0.8567374097622579,3.200000000000001,8267.0,48.31008,0.3,68900.0,0.33,276.0,2700.0,46.18351022085841,3.915308605634914,10571.333235214268,26.44943102634853,10.013059897049038,19.73407919450988,6.097751291414124,4364,106,1430,2213,243.89179278857236,140.78272103513063,0.0034681701621453,False
0.18,0.485101438640486,3.200000000000001,8268.0,48.31008,0.05,68900.0,0.33,276.0,2700.0,20.014897009657837,1.789126218632049,4830.640790306531,12.710704272776749,2.843903277926587,7.304192736881086,1.0547770592945385,119123,380,21530,73764,147.49567279865457,85.15435023358422,0.0016738749279941,False
0.19,0.619295621077689,3.200000000000001,8269.0,48.31008,0.3,68900.0,0.33,276.0,2700.0,28.218637013548545,2.666405060279796,7199.293662755449,17.27122052648696,4.850541949063566,10.947416487061584,2.18413688878377,2742,80,898,1389,166.09145316239483,95.63704862170968,0.0020860063746714,False
0.2,0.8446735557961564,3.200000000000001,8270.0,48.31008,0.3,68900.0,0.33,276.0,2700.0,44.133505623184455,4.396595401499306,11870.807584048129,25.948940887659138,9.697000420829422,18.18456473552532,5.300405019330116,4263,104,1398,2160,206.7804825268956,119.38443659136745,0.0029298863599898,False
0.21,0.5692452021064475,3.200000000000001,8271.0,48.31008,0.2,68900.0,0.33,276.0,2700.0,24.362194782463757,2.538634259115434,6854.312499611672,15.517361880221836,4.030263397765171,8.844832902241917,1.491629138649737,4929,108,1630,2478,138.50242227691922,79.96076359408704,0.0017407882568148,False
0.22,0.6402063477029388,3.200000000000001,8272.0,48.31008,0.1,68900.0,0.33,276.0,2700.0,28.690253794004175,3.133626798290173,8460.792355383468,18.022617407939897,5.219532697487997,10.66763638606428,2.085905899197824,32028,236,7918,18113,150.37620617390516,86.77201094205904,0.0019226107000189,False
0.23,0.8549178139372524,3.200000000000001,8273.0,48.31008,0.3,68900.0,0.33,276.0,2700.0,43.84587345613209,5.01679294224437,13545.3409440598,26.37370766015158,9.965001528358014,17.47216579598051,4.948208586113644,4263,104,1398,2160,183.8030034118561,106.11845316387226,0.002616981564887,False
0.24,0.6925790282874777,3.200000000000001,8274.0,48.31008,0.1,68900.0,0.33,276.0,2700.0,31.626367725645,3.766211209181924,10168.770264791194,19.95278468689229,6.213668633541224,11.67358303875271,2.4474574243593006,35051,248,8570,19918,148.93893688413073,85.97472456822427,0.0019554616565962,False
0.25,0.8333908375217448,3.200000000000001,8275.0,48.31008,0.3,68900.0,0.33,276.0,2700.0,41.49083620397131,5.153629602021513,13914.799925458085,25.48416767588612,9.406850792032044,16.006668528085193,4.253221190010531,4179,102,1376,2109,166.53560459007497,96.11688670375712,0.0023497378440899,False
0.26,0.5673904267501368,3.200000000000001,8276.0,48.31008,0.05,68900.0,0.33,276.0,2700.0,22.821410395996068,2.92997226315983,7910.925110531542,15.45357693927063,4.001541344086951,7.367833456725439,1.0715690809271212,176033,406,24404,114809,131.84598228486146,73.81711696811762,0.0014729678339315,False
0.27,0.9589819982225554,3.200000000000001,8277.0,48.31008,0.2,68900.0,0.33,276.0,2700.0,50.65610885581251,6.797350716734287,18352.846935182573,30.83809553629856,12.939491069682465,19.818013319513955,6.142140352948178,10311,166,3416,5181,175.56483896802442,101.2916044542845,0.0026233419430893,False
0.28,0.8378029014889739,3.200000000000001,8278.0,48.31008,0.3,68900.0,0.33,276.0,2700.0,40.79077910314568,5.664732913152555,15294.778865511898,25.665534534437175,9.519688491179991,15.125244568708496,3.854955578027438,3908,98,1294,1961,151.56838683015368,87.39756717873111,0.0021394932110019,False
0.29,0.8979776281920971,3.200000000000001,8279.0,48.31008,0.3,68900.0,0.33,276.0,2700.0,45.05708660597535,6.482197355714163,17501.932860428242,28.18797810817209,11.139542340728482,16.86910849780326,4.657344985014319,4268,104,1402,2159,155.92964523104828,90.02389377443701,0.0022613433708835,False
0.3,0.8166690921146786,3.200000000000001,8280.0,48.31008,0.3,68900.0,0.33,276.0,2700.0,38.54403001178524,5.725055834003166,15457.65075180855,24.80122721993424,8.986430799183392,13.742802791850998,3.261374965180225,3824,96,1270,1913,140.2300985211596,80.95639600842344,0.0019479099117237,False
0.31,0.804163471781386,3.200000000000001,8281.0,48.31008,0.3,68900.0,0.33,276.0,2700.0,37.2994954253747,5.719027666437679,15441.374699381731,24.29507254551821,8.679445053000922,13.004422879856495,2.9604173865632437,3464,94,1140,1748,133.98200293125635,77.32322543454626,0.0018568692909283,False
0.32,0.9463155925941692,3.200000000000001,8282.0,48.31008,0.3,68900.0,0.33,276.0,2700.0,47.80240242263001,7.57975524890558,20465.339172045067,30.280154698635048,12.552421051464286,17.522247723994962,4.972665802558706,4508,108,1478,2283,151.87782967606717,87.67479228542261,0.0022172065251832,False
0.33,0.957485103903631,3.200000000000001,8283.0,48.31008,0.3,68900.0,0.33,276.0,2700.0,48.33613757241585,7.900196422653797,21330.530341165253,30.771948930662603,12.893379213931617,17.564188641753248,4.9931827912778175,4848,112,1600,2442,147.34888793316225,85.06148172321178,0.0021888222972666,False
0.34,1.01771101297873,3.200000000000001,8284.0,48.31008,0.2,68900.0,0.33,276.0,2700.0,52.87555740135923,8.906526653126607,24047.62196344184,33.47773276719326,14.8276694394023,19.39782463416597,5.921142786275693,10860,168,3440,5572,157.18224634857145,90.7356734667178,0.0023025813116874,False
0.3500000000000001,0.7711702228090712,3.200000000000001,8285.0,48.31008,0.3,68900.0,0.33,276.0,2700.0,33.67576941132316,5.803462456966447,15669.348633809406,22.978562066854504,7.899664874797884,10.697207344468657,2.096202417831438,3319,90,1100,1663,115.45792051215288,66.64508141022986,0.0015963354048745,False
0.36,0.8607556998798099,3.200000000000001,8286.0,48.31008,0.1,68900.0,0.33,276.0,2700.0,39.83633588587574,7.072824361560385,19096.62577621304,26.61694891198309,10.119677816200838,13.219386973892648,3.046853454640453,59530,282,10778,36835,129.14895157529665,74.52575769093833,0.0018025819662841,False
0.37,0.6930077018521491,3.200000000000001,8287.0,48.31008,0.05,68900.0,0.33,276.0,2700.0,27.77442224880081,5.032180720906625,13586.887946447889,19.968867657127223,6.222225311885183,7.805554591673591,1.190044590978558,284396,452,29754,192799,145.58076474498822,82.47328233994018,0.00138895137515,False
0.38,1.0272044744882969,3.200000000000001,8288.0,48.31008,0.3,68900.0,0.33,276.0,2700.0,52.18910455292655,9.801006216997528,26462.71678589332,33.91256519166797,15.14755124732079,18.27653936125858,5.346545030323263,4963,114,1642,2494,138.12945947000642,79.73648713286092,0.0021150913218939,False
0.39,0.8348907103720042,3.200000000000001,8289.0,48.31008,0.3,68900.0,0.33,276.0,2700.0,36.97805997683824,7.086484272404589,19133.50753549239,25.545768109595045,9.445119992582825,11.432291867243194,2.358635720178234,3660,94,1210,1839,113.28706537219716,65.35804732591802,0.0016083437761496,False
0.4,0.994838514755919,3.200000000000001,8290.0,48.31008,0.3,68900.0,0.33,276.0,2700.0,48.84573109430077,9.635104932306994,26014.783317228885,32.43939828574119,14.073849769030902,16.406332808559583,4.438744836723908,4662,110,1546,2337,129.42022063803884,74.50126323423572,0.0019379520991127,False
0.4100000000000001,1.0631164133974824,3.200000000000001,8291.0,48.31008,0.2,68900.0,0.33,276.0,2700.0,54.069952175747055,10.939992391176103,29537.97945617548,35.57794329060048,16.395223694244148,18.49200888514657,5.455231303068043,14661,172,3590,8310,138.00239773914015,79.56428370076554,0.002089024338809,False
0.42,0.7288382414865566,3.200000000000001,8292.0,48.31008,0.05,68900.0,0.33,276.0,2700.0,28.737638555081297,5.879734552220964,15875.283290996604,21.329483529162765,6.962000073727063,7.408155025918532,1.0822655215060992,326184,456,30372,224090,139.2946604564827,79.45943775992411,0.0013330305471928,False
0.43,0.8805095156693641,3.200000000000001,8293.0,48.31008,0.2,68900.0,0.33,276.0,2700.0,39.05485083476709,8.23027385806895,22221.739416786164,27.44636377387518,10.653640032068374,11.608487060891909,2.4233661739994243,10392,140,2592,5850,230.80167231746827,125.74468633908602,0.0016015617439926,False
0.44,0.9349651511397328,3.200000000000001,8294.0,48.31008,0.2,68900.0,0.33,276.0,2700.0,42.81411248871432,9.240695795114885,24949.87864681019,29.78360620946379,12.211549013250464,13.030506279250533,2.970853218135579,11533,148,2874,6494,118.2744938048034,68.27169089160527,0.0016832504061397,False
0.45,0.8672503330249295,3.200000000000001,8295.0,48.31008,0.1,68900.0,0.33,276.0,2700.0,37.46565439063467,8.238920484187226,22245.085307305508,26.88856068688073,10.293426570494765,10.577093703753938,2.054506086307539,64913,270,9984,41583,111.33443377140804,64.26692039057701,0.0015240356601746,False
0.46,1.1546522349807211,3.200000000000001,8296.0,48.31008,0.3,68900.0,0.33,276.0,2700.0,60.00002978847012,13.596146809661578,36709.59638608626,39.96941971043434,19.85126234536221,20.030610078035785,6.255115535700634,5811,124,1926,2904,135.92971914799818,78.35436769781417,0.0020797465786999,False
0.4700000000000001,1.0809756401677626,3.200000000000001,8297.0,48.31008,0.3,68900.0,0.33,276.0,2700.0,53.39352373866321,12.330031695870082,33291.08557884922,36.41821363011255,17.038109610593725,16.975310108550666,4.708077914723644,5154,114,1668,2610,120.2181134060087,69.02168364185006,0.0018818116228779,False
0.4800000000000001,1.0892970305598488,3.200000000000001,8298.0,48.31008,0.3,68900.0,0.33,276.0,2700.0,53.72828901152482,12.663166019602096,34190.54825292566,36.81246982056744,17.342798956599346,16.915819190957386,4.679632936997249,5211,114,1670,2652,118.90831499736336,68.43925489987127,0.0018682306037199,False
0.49,1.0805344221989306,3.200000000000001,8299.0,48.31008,0.2,68900.0,0.33,276.0,2700.0,52.6530387432063,12.653591002684086,34164.69570724703,36.39735790553099,17.022045841487472,16.255680837675314,4.368454838803386,13959,166,3420,7905,122.44760720209712,70.64985051879721,0.0018372919385669,False
0.5,0.9717639598954652,3.200000000000001,8300.0,48.31008,0.1,68900.0,0.33,276.0,2700.0,43.68737824581575,10.660045173654789,28782.12196886793,31.40521407671849,13.337282494895083,12.28216416909726,2.6772373212402947,81706,296,11800,52954,131.50091574475823,73.9487646339606,0.0015990088911904,False
0.03,0.4844374403463871,3.200000000000001,8303.0,51.32946,0.1,68900.0,0.33,276.0,2700.0,24.42139454989178,0.3662643695806121,988.9137978676526,12.689263915359977,2.8354705107661826,11.732130634531805,2.4692061411855706,20119,216,6616,10189,923.500247428124,527.3315266626628,0.0090561712457143,True
0.04,0.659431021359912,3.200000000000001,8304.0,51.32946,0.1,68900.0,0.33,276.0,2700.0,35.999175078745765,0.7198494602883633,1943.5935427785807,18.72312448690145,5.572730264476458,17.27605059184431,4.852880804188095,29894,268,9820,15158,958.3017785076996,546.0646906039284,0.0100815174723837,True
0.05,0.5834594830277986,3.200000000000001,8305.0,51.32946,0.1,68900.0,0.33,276.0,2700.0,30.31102003113516,0.7575137013905806,2045.286993754568,16.009055281983485,4.254320057791158,14.301964749151676,3.496806356400578,25192,244,8252,12808,684.1142565596941,390.7953826209998,0.0070215305007131,True
0.06,0.5974649730096673,3.200000000000001,8306.0,51.32946,0.1,68900.0,0.33,276.0,2700.0,30.934897239041742,0.927594527829139,2504.505225138675,16.498492918700524,4.481956374337305,14.436404320341222,3.5543618465081663,25576,246,8404,12964,563.9482296945682,322.5009918171951,0.0061028651172737,True
0.0699999999999999,0.7580715724993659,3.200000000000001,8307.0,51.32946,0.2,68900.0,0.33,276.0,2700.0,42.24743466459866,1.4779418357408316,3990.442956500245,22.46348106195485,7.602054865582088,19.78395360264381,6.124113029841257,8507,148,2790,4316,767.3992550211512,437.0581945277687,0.0082087799506991,True
0.08,0.3927168944792834,3.200000000000001,8308.0,51.32946,0.05,68900.0,0.33,276.0,2700.0,17.350544705843163,0.692949457941302,1870.9635364415155,9.834109769678369,1.804158509999728,7.516434936164794,1.111209052058426,56603,354,18648,28555,859.8622425434844,496.182809005644,0.0028470017722244,True
0.09,0.7223731298398377,3.200000000000001,8309.0,51.32946,0.1,68900.0,0.33,276.0,2700.0,38.821448703126514,1.7454383776110496,4712.683619549834,21.081593997236943,6.824904464055392,17.73985470588957,5.0794660864443415,31795,280,10468,16087,442.903038810881,253.47835842074485,0.0053223016727479,True
0.0999999999999999,0.7864675626889668,3.200000000000001,8310.0,51.32946,0.2,68900.0,0.33,276.0,2700.0,43.30955828875231,2.163383519335221,5841.135502205097,23.58556122734522,8.255810987592831,19.723997061407086,6.092427468257609,8786,152,2890,4445,420.4565777638447,241.2114665115704,0.0053871939383568,True
0.11,0.629108751663249,3.200000000000001,8311.0,51.32946,0.2,68900.0,0.33,276.0,2700.0,31.446082341912447,1.7267468889239,4662.21660009453,17.622472753118057,5.021748154284167,13.82360958879439,3.295001265360267,6572,126,2152,3338,295.7468143615076,170.37742539823597,0.0037164568753158,True
0.13,0.6237712452937909,3.200000000000001,8313.0,51.32946,0.3,68900.0,0.33,276.0,2700.0,30.422788598863985,1.9728798728861956,5326.775656792727,17.431121295736485,4.928199082003977,12.9916673031275,2.955319209117782,3043,86,998,1540,255.7816770910709,147.66291649387,0.0031533059738973,False
0.14,0.7766913850180278,3.200000000000001,8314.0,51.32946,0.3,68900.0,0.33,276.0,2700.0,41.092507663893066,2.8707285163115457,7750.966994041173,23.19696376033034,8.027135806393055,17.895543903562725,5.156407290081509,4005,102,1312,2031,286.9809069963072,165.32649031349166,0.0038819944927266,True
0.15,0.6896645772305082,3.200000000000001,8315.0,51.32946,0.3,68900.0,0.33,276.0,2700.0,34.35396575226773,2.569478847949501,6937.592889463653,19.843562782006508,6.155676431916728,14.510402970261223,3.586197583967227,3339,90,1094,1692,245.22213947940563,141.0578846771026,0.0031281446652289,False
0.16,0.5646372778149866,3.200000000000001,8316.0,51.32946,0.3,68900.0,0.33,276.0,2700.0,25.552280458291904,2.035603794323952,5496.13024467467,15.35905673123309,3.959125503004061,10.193223727058813,1.9235217086801093,2537,76,826,1292,194.6157723343276,112.1474573160676,0.0023203614511125,False
0.18,0.704514773372604,3.200000000000001,8318.0,51.32946,0.2,68900.0,0.33,276.0,2700.0,34.40551747862266,3.0842820608388712,8327.561564264952,20.40231577801488,6.4544991682691215,14.003201700607786,3.3702171074302503,7337,134,2412,3713,203.7456324805484,117.57627754544347,0.0027189268408232,False
0.19,0.6294680692276382,3.200000000000001,8319.0,51.32946,0.1,68900.0,0.33,276.0,2700.0,28.89838054540937,2.730980695806576,7373.647878677755,17.63538013558382,5.028082537099787,11.263000409825551,2.297101841293211,30866,234,7840,17298,177.67854856913408,102.50893142056842,0.0022695216060033,False
0.2,0.5123119532430787,3.200000000000001,8320.0,51.32946,0.05,68900.0,0.33,276.0,2700.0,21.10396964525892,2.093641803706665,5652.832870007997,13.59885708356338,3.2018094338975125,7.50511256169554,1.108167630190847,134157,392,22700,84103,154.2170442786876,87.10303299910568,0.0017291313760073,False
0.21,0.7037776955285848,3.200000000000001,8321.0,51.32946,0.3,68900.0,0.33,276.0,2700.0,33.36632882942772,3.4840683340466443,9406.98450192594,20.374451789827265,6.439471343145319,12.991877039600457,2.9554030090986743,3129,88,1030,1578,181.59075861770265,104.73401434844624,0.0023606936964666,False
0.22,0.9152806755193292,3.200000000000001,8322.0,51.32946,0.3,68900.0,0.33,276.0,2700.0,48.98436729220368,5.365979283092123,14488.144064348731,28.93014506600368,11.63369028507458,20.0542222262,6.267711001982455,4634,110,1522,2345,213.99322956896597,123.54904235754412,0.0031644508963677,False
0.23,0.5575509629187687,3.200000000000001,8323.0,51.32946,0.1,68900.0,0.33,276.0,2700.0,23.0506920522298,2.625347080795608,7088.437118148141,15.116647884786104,3.8511460284882832,7.9340441674437,1.2257989476926756,25746,208,6350,14581,138.1787202331291,79.72915393400277,0.0016888459442766,False
0.25,0.8289732475426204,3.200000000000001,8325.0,51.32946,0.2,68900.0,0.33,276.0,2700.0,41.15638502986054,5.111823205257668,13801.922654195703,25.303063820605747,9.294672390126063,15.85332120925479,4.182849184868395,8508,148,2810,4287,174.62767480923037,100.7799971999065,0.0024771326098206,False
0.26,0.6174237000556146,3.200000000000001,8326.0,51.32946,0.1,68900.0,0.33,276.0,2700.0,25.99629677521621,3.3427074924584432,9025.310229637797,17.204491659286294,4.818274057605724,8.791805115929915,1.4755665651472811,29462,220,7062,16859,137.0610746176922,79.0742158461489,0.0017080173035336,False
0.27,0.8729172695405812,3.200000000000001,8327.0,51.32946,0.3,68900.0,0.33,276.0,2700.0,43.81678618538457,5.874042156226519,15859.913821811602,27.12642345617526,10.446475932354296,16.690362729209312,4.572433776127777,4286,104,1414,2159,172.1449129845454,99.26499875812353,0.002470152062304,False
0.28,0.740032408938364,3.200000000000001,8328.0,51.32946,0.3,68900.0,0.33,276.0,2700.0,33.67010084768092,4.667837957387593,12603.1624849465,21.761181738233848,7.203179197153836,11.908919109447073,2.535341239766243,3184,88,1046,1609,144.77350580882828,83.41128615643103,0.0019530071637508,False
0.29,0.8458689654654707,3.200000000000001,8329.0,51.32946,0.3,68900.0,0.33,276.0,2700.0,41.057666692869,5.902281468313744,15936.159964447108,25.9983712888869,9.728049576887058,15.059295403982098,3.825768108573314,3909,98,1294,1962,157.6186976427763,90.91175777587964,0.0022336300203921,False
0.3,0.9918986967699192,3.200000000000001,8330.0,51.32946,0.2,68900.0,0.33,276.0,2700.0,52.234163515857375,7.778575859613999,21002.1548209578,32.30689401838194,13.978678664922946,19.92726949747544,6.200102805308947,10459,168,3460,5261,174.5450996827208,100.65322031549051,0.0026487047259807,False
0.31,0.8131397022270135,3.200000000000001,8331.0,51.32946,0.1,68900.0,0.33,276.0,2700.0,37.9553751048424,5.820689016755185,15715.860345238998,24.65797996318696,8.899150478419719,13.29739514165544,3.078461461664534,53821,274,10328,32923,147.1584504021809,84.89500425956362,0.0020366701988113,False
0.32,0.7105572449036542,3.200000000000001,8332.0,51.32946,0.08,68900.0,0.33,276.0,2700.0,30.40068623098508,4.795480658242396,12947.79777725447,20.63125603561004,6.5784708009553485,9.76943019537504,1.7829901427129524,74596,298,12652,46734,130.2683161568064,75.19996922925228,0.0016920234080148,False
0.33,0.9329377098444616,3.200000000000001,8333.0,51.32946,0.3,68900.0,0.33,276.0,2700.0,46.38633588368344,7.578479144013069,20461.893688835287,29.69525244134629,12.151254083592688,16.69108344233715,4.572774939579619,4435,106,1468,2227,153.37492136879607,88.4647850804135,0.0022495851865066,False
0.34,0.9930258088523004,3.200000000000001,8334.0,51.32946,0.3,68900.0,0.33,276.0,2700.0,50.84636988076528,8.561564774625637,23116.22489148922,32.357669842823384,14.015120767538995,18.488700037941896,5.453555992913358,4800,112,1584,2416,157.6922068600565,90.98872307003518,0.0023727978430673,False
0.3500000000000001,0.9071308926382196,3.200000000000001,8335.0,51.32946,0.3,68900.0,0.33,276.0,2700.0,43.681962706564406,7.55454628363366,20397.27496581088,28.57964497259248,11.399345267594502,15.102317733971926,3.8447989839608416,3974,100,1316,1994,141.13778524617214,81.47013385708219,0.0020618358205911,False
0.36,0.719513774835042,3.200000000000001,8336.0,51.32946,0.08,68900.0,0.33,276.0,2700.0,29.82495246252276,5.270775345356844,14231.093432463478,20.972293784803284,6.764781015767461,8.852658677719472,1.4940056704106173,82302,298,12752,52656,121.12385172523948,69.89030503946215,0.0015654628532146,False
0.37,0.9439954134318524,3.200000000000001,8337.0,51.32946,0.3,68900.0,0.33,276.0,2700.0,45.859504295709726,8.377920899584772,22620.386428878886,30.17839038382504,12.482283749381256,15.681113911884689,4.104362849796484,4268,104,1406,2153,141.39030910678903,81.60541841296002,0.0020642345915774,False
0.38,0.6916063759574163,3.200000000000001,8338.0,51.32946,0.05,68900.0,0.33,276.0,2700.0,27.40170394339501,5.091400101186531,13746.780273203634,19.916309855129157,6.194279251616577,7.485394088265853,1.102879150430046,285454,446,29134,194135,140.54986775532734,79.61053888963258,0.0014436711873452,False
0.39,0.7774537872864,3.200000000000001,8339.0,51.32946,0.2,68900.0,0.33,276.0,2700.0,32.90387212734155,6.292017641752741,16988.4476327324,23.227182456494265,8.044832742656396,9.676689670847283,1.7528151009036552,8979,130,2250,5048,120.98156877185838,69.76513385088478,0.0015945776269525,False
0.4,0.8297521532672016,3.200000000000001,8340.0,51.32946,0.3,68900.0,0.33,276.0,2700.0,36.29648421132181,7.125255555711195,19238.19000042023,25.334960283514388,9.314393512564433,10.961523927807416,2.189137956853237,3526,92,1170,1763,115.8184832006894,66.31078291616717,0.0016647598577034,False
0.4100000000000001,0.9097996035530482,3.200000000000001,8341.0,51.32946,0.2,68900.0,0.33,276.0,2700.0,41.88237737338041,8.441539556690946,22792.156803065554,28.69423518931143,11.47576894234849,13.188142184068976,3.034229385657543,11521,146,2872,6487,130.13425258316278,75.04131646348014,0.0018335937060162,False
0.42,0.9125093018162518,3.200000000000001,8342.0,51.32946,0.2,68900.0,0.33,276.0,2700.0,41.7614224167688,8.61472916317535,23259.768740573443,28.810768478405336,11.553679504960652,12.950653938363466,2.9389503417853025,11323,146,2830,6366,128.07841297345644,73.94225982737984,0.00180570665322,False
0.43,0.9565114813710645,3.200000000000001,8343.0,51.32946,0.2,68900.0,0.33,276.0,2700.0,44.79867511672907,9.465196078690624,25556.02941246469,30.728955528279837,12.863439882687446,14.06971958844924,3.398243803996822,12279,154,3046,6932,129.95560229820046,75.0294833436101,0.001874452670454,False
0.44,1.0676113789249728,3.200000000000001,8344.0,51.32946,0.3,68900.0,0.33,276.0,2700.0,53.35739411467059,11.56021775282525,31212.587932628176,35.78867495237818,16.555618748440178,17.56871916229241,4.995400995614928,5160,116,1704,2588,135.54652304664336,78.1796298920412,0.0020842116204173,False
0.45,0.812637492550975,3.200000000000001,8345.0,51.32946,0.2,68900.0,0.33,276.0,2700.0,33.581434161593414,7.364970932652932,19885.42151816292,24.63762223519573,8.886772114479916,8.943811926397682,1.5218011818269837,8972,128,2224,5058,111.33464303835623,64.26397267413066,0.0014995883589102,False
0.46,0.8885066904633021,3.200000000000001,8346.0,51.32946,0.3,68900.0,0.33,276.0,2700.0,38.70798446359141,8.698976384939483,23487.23623933661,27.784934615102475,10.874486134530164,10.923049848488931,2.175509749590681,3796,94,1212,1936,116.51573438728192,66.91398488575634,0.0016121621085026,False
0.4700000000000001,1.1239470424896942,3.200000000000001,8347.0,51.32946,0.3,68900.0,0.33,276.0,2700.0,56.99520400130549,13.176426557591029,35576.35170549577,38.47285120810987,18.64703046227864,18.522352793195616,5.470603904687609,5304,118,1744,2664,133.264603235198,76.70722089667113,0.0020977541426504,False
0.4800000000000001,1.0302059381569313,3.200000000000001,8348.0,51.32946,0.2,68900.0,0.33,276.0,2700.0,48.91723468810516,11.50851298198137,31072.9850513497,34.05051358662925,15.249545546570111,14.86672110147591,3.741032564588741,13629,162,3334,7724,125.86635600421072,72.64424589588955,0.0019297792140859,False
0.49,0.9673672718431168,3.200000000000001,8349.0,51.32946,0.2,68900.0,0.33,276.0,2700.0,43.67133251716239,10.453072977303329,28223.29703871899,31.20967561966542,13.199633604187856,12.461656897496972,2.746560626884529,11564,148,2856,6524,119.10500117479609,68.76377659265866,0.001711181000966,False
0.5,1.0830057223586174,3.200000000000001,8350.0,51.32946,0.3,68900.0,0.33,276.0,2700.0,52.507516227119865,12.86507966898067,34735.71510624781,36.5142356748237,17.11213902630589,15.993280552296165,4.24705935732522,5589,114,1664,2949,131.9974728047196,76.17535599764986,0.0019123409103827,False
0.03,0.485426421611025,3.200000000000001,8353.0,54.34884,0.1,68900.0,0.33,276.0,2700.0,24.48452492398909,0.3672113251920691,991.4705780185868,12.721201939561691,2.8480357460683785,11.763322984427395,2.480824420876309,20258,216,6660,10262,939.8056425909012,536.2713577316038,0.0096140634899728,True
0.05,0.5926731040560592,3.200000000000001,8355.0,54.34884,0.1,68900.0,0.33,276.0,2700.0,30.942292979175367,0.7732955250915977,2087.897917747314,16.33048084483068,4.403300534707511,14.611812134344683,3.630005009615913,26133,248,8590,13242,732.2759279999026,418.2379011623676,0.0075804046063768,True
0.06,0.6205242207061944,3.200000000000001,8356.0,54.34884,0.1,68900.0,0.33,276.0,2700.0,32.53326810272316,0.9755456537395716,2633.973265096843,17.315064613699796,4.8717882937167785,15.218203489023368,3.896242639977207,26858,252,8822,13619,626.9858436333943,358.81435829533723,0.0067727320256093,True
0.0699999999999999,0.515267460898521,3.200000000000001,8357.0,54.34884,0.2,68900.0,0.33,276.0,2700.0,25.140526634048,0.8792000546715543,2373.8401476131967,13.696445394964874,3.24214511754409,11.444081239083127,2.3629450628725355,5424,112,1780,2748,401.99374684379256,232.08996054826568,0.0048584026595594,True
0.08,0.4798171865353707,3.200000000000001,8358.0,54.34884,0.1,68900.0,0.33,276.0,2700.0,22.587967136139795,0.902446355153164,2436.6051589135427,12.540383748874335,2.7771870294452468,10.047583387265458,1.874740674292083,18885,208,6208,9567,326.6703079209322,187.63366961731583,0.0038026331845803,True
0.09,0.3901681079326999,3.200000000000001,8359.0,54.34884,0.05,68900.0,0.33,276.0,2700.0,16.925267474408805,0.760110222318751,2052.297600260628,9.75778835460681,1.7791907614975182,7.167479119801996,1.0190805391787672,64489,350,18374,34688,237.35375097869476,136.98786820180757,0.0026926124307859,False
0.0999999999999999,0.5418710532928238,3.200000000000001,8360.0,54.34884,0.1,68900.0,0.33,276.0,2700.0,25.92268385256163,1.2940397975256897,3493.907453319362,14.584754970444834,3.618296446231314,11.337928882116795,2.3242566487056244,21471,222,7072,10857,294.3491700610973,169.43694949950077,0.0035791407351061,True
0.11,0.7903363458481028,3.200000000000001,8361.0,54.34884,0.3,68900.0,0.33,276.0,2700.0,43.23541981071671,2.375160449708132,6412.933214211956,23.740006514716903,8.34735704605342,19.495413295999803,5.972196596345288,4155,104,1356,2115,387.0769158901905,223.36381201776308,0.0052612404629181,True
0.12,0.6218596810425021,3.200000000000001,8362.0,54.34884,0.2,68900.0,0.33,276.0,2700.0,30.61825833824756,1.8334763855579244,4950.386241006396,17.362765186331753,4.894943721852076,13.255493151915807,3.061467336294151,6338,122,2076,3218,281.3010050353466,162.24288392716562,0.0035812161670634,True
0.13,0.7098093560370877,3.200000000000001,8363.0,54.34884,0.1,68900.0,0.33,276.0,2700.0,36.4851772012912,2.3669351320439675,6390.724856518712,20.602869879202835,6.563051529984335,15.882307322088366,4.196116397940368,30246,272,9996,15246,302.0039070512996,173.90670177850316,0.0039224920282964,True
0.14,0.6079888945181375,3.200000000000001,8364.0,54.34884,0.3,68900.0,0.33,276.0,2700.0,29.03118833543009,2.026436163319139,5471.377640961676,16.86950717341267,4.657535040136472,12.16168116201742,2.631098876817333,2869,82,942,1450,249.49347633100325,143.95950270202738,0.0030232344168044,False
0.15,0.7865893403064073,3.200000000000001,8365.0,54.34884,0.1,68900.0,0.33,276.0,2700.0,41.48227636951125,3.1041021442427685,8381.075789455475,23.590416964806384,8.25868347670138,17.89185940470487,5.154581332458612,33549,290,11116,16867,285.9053340519376,164.53316847406995,0.0039184338480452,True
0.16,0.8213739616520994,3.200000000000001,8366.0,54.34884,0.3,68900.0,0.33,276.0,2700.0,43.787108482157045,3.494390036233161,9434.853097829537,24.992670474269456,9.103567477265893,18.79443800788759,5.609177441032731,4336,104,1420,2200,281.3058405085267,162.24035559982602,0.0039073735102422,True
0.17,0.6271778692340674,3.200000000000001,8367.0,54.34884,0.3,68900.0,0.33,276.0,2700.0,29.37179103477593,2.486312474817897,6713.043682008321,17.553167288369618,4.987788156715891,11.818623746406312,2.501475681897994,2960,84,966,1505,210.75883464607043,121.1467743738522,0.0026316514985765,False
0.18,0.7796918932340957,3.200000000000001,8368.0,54.34884,0.3,68900.0,0.33,276.0,2700.0,39.89274617379354,3.5781326434042686,9660.958137191525,23.31597676458226,8.096916979914882,16.57676940921128,4.518784336510613,3977,100,1300,2021,241.36362726102945,139.22087608933933,0.0032733928683573,False
0.19,0.6998651706779295,3.200000000000001,8369.0,54.34884,0.3,68900.0,0.33,276.0,2700.0,33.74500651251972,3.191410162682057,8616.807439241555,20.226773971869186,6.360044816203704,13.518232540650535,3.168634653521647,3213,88,1060,1617,207.6976659927755,119.81259954496684,0.0027169112653221,False
0.2,0.6811113168118093,3.200000000000001,8370.0,54.34884,0.3,68900.0,0.33,276.0,2700.0,32.106284469921924,3.193873286173013,8623.457872667135,19.524253568309494,5.987316149787185,12.58203090161243,2.793442863614172,3132,88,1028,1584,193.1062405791333,111.46785331195744,0.0025097374463354,False
0.21,0.744791549772188,3.200000000000001,8371.0,54.34884,0.3,68900.0,0.33,276.0,2700.0,36.29229928376465,3.791295231752023,10236.497125730462,21.945670028472897,7.307182502875662,14.346629255291752,3.5158872711236397,3457,92,1132,1753,201.92046061610696,116.4041619414797,0.0026847661622181,False
0.22,0.538582519976466,3.200000000000001,8372.0,54.34884,0.1,68900.0,0.33,276.0,2700.0,22.15488859514067,2.414736626415191,6519.788891321015,14.473985418366809,3.570516202765717,7.68090317677386,1.1557795763505263,24283,202,5998,13724,148.25591912671646,85.55498167393587,0.0017846470808433,False
0.23,0.6709095858957833,3.200000000000001,8373.0,54.34884,0.3,68900.0,0.33,276.0,2700.0,30.453739772931485,3.4766975686762995,9387.08343542601,19.145808232929337,5.790067591006525,11.307931540002148,2.3133700223302256,3079,86,1012,1555,166.92886758539277,96.29926673105822,0.0021815175423613,False
0.24,0.6090802008884076,3.200000000000001,8374.0,54.34884,0.1,68900.0,0.33,276.0,2700.0,26.0407309806078,3.095934799777452,8359.02395939912,16.90813978374301,4.6759659180629445,9.132591196864787,1.580031118285493,29155,222,7170,16516,152.12363642787076,87.76277386695917,0.0019008823024004,False
0.25,0.7569989972485034,3.200000000000001,8375.0,54.34884,0.3,68900.0,0.33,276.0,2700.0,35.84547486651952,4.447959434840048,12009.490474068129,22.42149496296361,7.577983610956442,13.423979903555908,3.130024176116394,3314,90,1090,1673,172.99612229990802,99.7765047432617,0.0023438856121677,False
0.26,0.691205827137948,3.200000000000001,8376.0,54.34884,0.1,68900.0,0.33,276.0,2700.0,30.90777527718345,3.981199697714182,10749.239183828293,19.90129603421433,6.186304804234656,11.006479242969124,2.205105106520473,35093,244,8394,20104,157.17693522651552,90.74264716850612,0.0020519054540994,False
0.27,0.8687582443302428,3.200000000000001,8377.0,54.34884,0.3,68900.0,0.33,276.0,2700.0,43.49571099533431,5.830697005569721,15742.881915038248,26.95177462105947,10.3340197884601,16.543936374274836,4.503322782890379,4294,104,1414,2167,181.6468003601392,104.78793883754392,0.0025990553543586,False
0.28,0.7880154974531333,3.200000000000001,8378.0,54.34884,0.1,68900.0,0.33,276.0,2700.0,37.10469438607403,5.148681052762628,13901.438842459096,23.64731102400989,8.29236768230935,13.457383362064135,3.143686629546723,45352,270,9960,26734,603.9174517422724,335.7968779055756,0.0022497046835232,True
0.29,0.9162514392391168,3.200000000000001,8379.0,54.34884,0.2,68900.0,0.33,276.0,2700.0,46.49195430249119,6.690253171708959,18063.68356361419,28.97200624625456,11.66179493705436,17.51994805623663,4.971541765345401,9395,156,3120,4709,177.4003124923797,102.23172642618016,0.0026081011010982,False
0.3,0.6904816621076106,3.200000000000001,8380.0,54.34884,0.2,68900.0,0.33,276.0,2700.0,29.64133098312398,4.3896509797039815,11852.05764520075,19.874162301900917,6.171902807033703,9.767168681223064,1.7822518273297216,6153,122,2012,3107,134.8304016515458,77.58355307427989,0.0018092843664767,False
0.31,0.8052164076989721,3.200000000000001,8381.0,54.34884,0.3,68900.0,0.33,276.0,2700.0,37.376222196272046,5.7309203159266,15473.48485300182,24.337537721688705,8.70504856161502,13.03868447458334,2.974128245688421,3454,94,1138,1741,150.6554503147623,86.98064572403385,0.0020922013557852,False
0.32,0.8824340162300262,3.200000000000001,8382.0,54.34884,0.3,68900.0,0.33,276.0,2700.0,42.811245461367776,6.781170135103628,18309.1593647798,27.527693157517117,10.70653881883316,15.283552303850662,3.9253686837295314,4001,100,1326,2006,159.39969192219914,91.87956762701808,0.0022783074692322,False
0.33,1.0299819837584825,3.200000000000001,8383.0,54.34884,0.3,68900.0,0.33,276.0,2700.0,54.271390238718745,8.879513112593886,23974.68540400349,34.04021274182558,15.241920937766215,20.231177496893167,6.36240782517233,5088,116,1686,2553,176.88573346315368,102.10922327032108,0.0027005947756601,False
0.34,0.8387412267468048,3.200000000000001,8384.0,54.34884,0.1,68900.0,0.33,276.0,2700.0,38.85775109738181,6.52349958145045,17613.448869916214,25.70416938993313,9.543789234789385,13.153581707448676,3.020289653338933,56251,278,10436,34657,150.9629401712576,85.89432580908533,0.0020604702563778,False
0.3500000000000001,0.9670107204559172,3.200000000000001,8385.0,54.34884,0.3,68900.0,0.33,276.0,2700.0,48.38362156141169,8.377336583231932,22618.80877472621,31.19383963805454,13.188508574317158,17.189781923357145,4.811171991085226,4700,110,1558,2357,158.8305969372324,91.63163082492834,0.0023630108412321,False
0.36,0.948504911683378,3.200000000000001,8386.0,54.34884,0.3,68900.0,0.33,276.0,2700.0,46.5611088662247,8.283283498023193,22364.86544466262,30.37630348414853,12.618819200378114,16.18480538207617,4.335535702354921,4374,106,1440,2208,153.50795058585717,88.5912802477356,0.0022529421379662,False
0.37,0.8728864420019904,3.200000000000001,8387.0,54.34884,0.3,68900.0,0.33,276.0,2700.0,40.414228626625125,7.370544900804128,19900.471232171145,27.125127324355148,10.445639711466708,13.289101302269977,3.07509481066258,3806,98,1260,1910,137.4029043801305,79.30323855327117,0.0019870087790404,False
0.38,0.9719973905707922,3.200000000000001,8388.0,54.34884,0.2,68900.0,0.33,276.0,2700.0,47.72244472925805,8.952340850500502,24171.320296351358,31.415609262556465,13.344614648476778,16.306835466701585,4.3922737979762765,12057,158,3152,6681,154.29123510678585,89.06141798573599,0.0022388427000894,False
0.39,0.7680168830101372,3.200000000000001,8389.0,54.34884,0.2,68900.0,0.33,276.0,2700.0,32.250342618386874,6.164579387506584,16644.364346267776,22.85416852374771,7.827401853735892,9.396174094639164,1.6628224662293078,8559,126,2174,4786,129.06153938643004,74.51114256020433,0.0016674933251256,False
0.4,1.0648459607388516,3.200000000000001,8390.0,54.34884,0.3,68900.0,0.33,276.0,2700.0,54.58107755370268,10.782174224187386,29111.870405305945,35.658967320236655,16.456827488085633,18.92211023346602,5.674653263898247,5171,116,1720,2585,153.27694753274548,88.39001896893473,0.0023812001559645,False
0.4100000000000001,1.0295531978977734,3.200000000000001,8391.0,54.34884,0.3,68900.0,0.33,276.0,2700.0,51.300903462892855,10.372337405040993,28005.31099361068,34.02049413413201,15.227329203542192,17.280409328760847,4.854991798501199,4851,112,1612,2425,189.50290292396576,108.7437532695746,0.0022372675909957,False
0.42,1.0721815591769697,3.200000000000001,8392.0,54.34884,0.3,68900.0,0.33,276.0,2700.0,54.46133167015245,11.281710106385852,30460.6172872418,36.00345342548408,16.71967003219972,18.457878244668365,5.437959925813868,5097,116,1698,2542,148.64547284232307,85.64493513898934,0.0023033111434105,False
0.43,0.9112967088911452,3.200000000000001,8393.0,54.34884,0.2,68900.0,0.33,276.0,2700.0,41.34659744972126,8.722999380284092,23552.09832676705,28.7585968918386,11.51877540611949,12.588000557882658,2.795776025835398,11415,146,2858,6412,133.0228204050467,76.63131601900277,0.001872679549456,False
0.44,0.7499206198803102,3.200000000000001,8394.0,54.34884,0.05,68900.0,0.33,276.0,2700.0,29.583469600518367,6.329954359711776,17090.876771221796,22.145135974980654,7.420254637831788,7.438333625537709,1.0903002781200124,350291,464,31410,241616,152.81107867592587,86.2404190849434,0.0014928003602986,False
0.45,1.0445121781682405,3.200000000000001,8395.0,54.34884,0.2,68900.0,0.33,276.0,2700.0,51.106039328257296,11.308007095152307,30531.619156911234,34.71114527452723,15.741399811726051,16.394894053730063,4.433392716573744,13674,164,3376,7720,142.6380624753066,82.30941665779004,0.002121810599943,False
0.46,1.1565549134734006,3.200000000000001,8396.0,54.34884,0.2,68900.0,0.33,276.0,2700.0,60.16506487912034,13.63410488051108,36812.08317737992,40.06293574678495,19.92740025165941,20.102129132335385,6.29329537114833,15972,182,3960,9008,151.5274816960738,87.45684775002604,0.0023721442427022,False
0.4700000000000001,1.0228128612364298,3.200000000000001,8397.0,54.34884,0.2,68900.0,0.33,276.0,2700.0,48.66640381228514,11.219158513170989,30291.72798556167,33.711132999997645,14.999062860152405,14.955270812287496,3.7799043469814144,13371,162,3332,7527,136.01097894570472,78.51282969333965,0.0019983632918796,False
0.4800000000000001,1.0515379156223177,3.200000000000001,8398.0,54.34884,0.3,68900.0,0.33,276.0,2700.0,50.63378904480841,11.920486027589993,32185.312274492982,35.037462221669095,15.986416787423778,15.596326823139314,4.065930759833785,4879,110,1612,2437,138.3519031314921,79.82453738035,0.0020032691114783,False
0.49,1.1733621883941854,3.200000000000001,8399.0,54.34884,0.3,68900.0,0.33,276.0,2700.0,60.50106412041159,14.576357220099256,39356.16449426799,40.89295956965687,20.607714302423418,19.608104550754724,6.031357082324162,6044,124,1912,3096,255.65493883633872,147.40984138161554,0.0022692448093754,False
0.5,1.0469694898490556,3.200000000000001,8400.0,54.34884,0.2,68900.0,0.33,276.0,2700.0,49.58216221709602,12.133741166474884,32761.101149482187,34.82513634318171,15.826835939178956,14.757025873914309,3.693094772704072,13673,162,3318,7776,132.51888332664748,76.36959030258068,0.0019544640814488,False
0.04,0.4428460704222867,3.200000000000001,8404.0,57.36822,0.1,68900.0,0.33,276.0,2700.0,21.507406438595385,0.4300140874853554,1161.0380362104595,11.368372696307263,2.33532616325717,10.139033742288122,1.9053120757718145,17742,200,5822,9003,684.2477926467177,391.0009077953397,0.0069404722186693,True
0.06,0.5551050739636678,3.200000000000001,8406.0,57.36822,0.1,68900.0,0.33,276.0,2700.0,28.068332289231563,0.8415975793348398,2272.3134642040677,15.033271832359516,3.8142743813173023,13.035060456872046,2.9726768019824625,23091,232,7584,11709,942.9631254103896,539.6746947210183,0.0062354029598817,True
0.0699999999999999,0.4565728457030792,3.200000000000001,8407.0,57.36822,0.08,68900.0,0.33,276.0,2700.0,21.44992045559859,0.7500288384258328,2025.0778637497483,11.79951182560726,2.494330918472275,9.65040862999133,1.7443020800464422,27687,248,9112,14013,387.80626916323206,222.7312776595045,0.0042816070124855,True
0.08,0.421864761869189,3.200000000000001,8408.0,57.36822,0.05,68900.0,0.33,276.0,2700.0,19.06077940438748,0.7613588458830736,2055.668883884299,10.718529751289704,2.103639450086852,8.342249653097776,1.342280604203778,62093,372,20502,31288,311.4495283854192,179.13930707834635,0.0034533106341594,True
0.09,0.4510263399557418,3.200000000000001,8409.0,57.36822,0.1,68900.0,0.33,276.0,2700.0,20.52149978642096,0.9219406763593012,2489.239826170113,11.624733549481151,2.4293699200414043,8.896766236939808,1.507429243682103,17191,196,5648,8713,283.2719169074672,163.5230999512758,0.0033491914423574,True
0.0999999999999999,0.7420134792823898,3.200000000000001,8410.0,57.36822,0.3,68900.0,0.33,276.0,2700.0,39.92597883543182,1.9942045466691989,5384.352276006837,21.83790885194411,7.246365613567288,18.08806998348771,5.25216106689809,3826,98,1248,1948,423.25202969291865,244.3614465716228,0.0055993708547923,True
0.11,0.7183422625956399,3.200000000000001,8411.0,57.36822,0.3,68900.0,0.33,276.0,2700.0,37.8095847549004,2.07673952163787,5607.19670842225,20.92757151026733,6.740237916623945,16.882013244633068,4.663498394986075,3799,96,1234,1942,375.8641273570603,217.00522514610105,0.0049173001562731,True
0.12,0.6300019651529789,3.200000000000001,8412.0,57.36822,0.1,68900.0,0.33,276.0,2700.0,31.177300822048924,1.8670189345859975,5040.951123382194,17.65456470340599,5.03750311565857,13.522736118642936,3.170484181072572,26098,248,8604,13186,302.3808200797015,173.84837886627562,0.0038394710322767,True
0.13,0.6511204374560202,3.200000000000001,8413.0,57.36822,0.3,68900.0,0.33,276.0,2700.0,32.309517810981085,2.095517271673526,5657.8966335185205,18.41916431280753,5.418394412885326,13.890353498173551,3.3228771412118,3028,86,996,1528,302.70158946636144,173.60553365870493,0.0037195061895104,True
0.14,0.6362247063651696,3.200000000000001,8414.0,57.36822,0.3,68900.0,0.33,276.0,2700.0,30.95021554112961,2.160768067718109,5834.073782838894,17.87869581093983,5.148059753295885,13.071519730189776,2.987291685577776,3006,86,986,1521,269.4557495138831,155.5350583996202,0.0033749007136269,False
0.15,0.4553960249466315,3.200000000000001,8415.0,57.36822,0.08,68900.0,0.33,276.0,2700.0,19.074739645920744,1.4235368899734784,3843.549602928392,11.76236391113973,2.480466869671771,7.312375734781014,1.0569299796982925,30930,230,8042,17207,587.2939841446531,332.885912530136,0.0021553786241116,True
0.16,0.5547586413370358,3.200000000000001,8416.0,57.36822,0.2,68900.0,0.33,276.0,2700.0,24.916840769212182,1.9847686191975709,5358.875271833442,15.021474709549796,3.809068409010702,9.89536605966239,1.8242997898131312,5315,112,1746,2690,242.08285652699325,131.52081667143716,0.0025364137412456,False
0.17,0.8244472771062042,3.200000000000001,8417.0,57.36822,0.3,68900.0,0.33,276.0,2700.0,43.65866080544414,3.7006964053247007,9991.880294376691,25.118025457037128,9.180570404580005,18.54063534840701,5.479873999255304,4318,104,1416,2188,280.54101304784547,161.72627559247815,0.003917289224602,True
0.18,0.8319373782575716,3.200000000000001,8418.0,57.36822,0.3,68900.0,0.33,276.0,2700.0,43.8734944590415,3.936399989076576,10628.279970506754,25.42452741019798,9.36985394121296,18.44896704884352,5.433453952136384,4272,104,1396,2172,267.81101702068025,154.32078037929148,0.003761211251509,False
0.19,0.6563533254280915,3.200000000000001,8419.0,57.36822,0.1,68900.0,0.33,276.0,2700.0,30.719947565772262,2.904029562741052,7840.87981940084,18.61035516352588,5.515279776313086,12.109592402246388,2.6112502135720344,33338,246,8452,18702,205.5122439998188,118.57046029127176,0.0026686718705364,False
0.2,0.6489975008751256,3.200000000000001,8420.0,57.36822,0.3,68900.0,0.33,276.0,2700.0,29.902791185828363,2.97352395776368,8028.514685961936,18.3417961036824,5.379373839115357,11.56099508214596,2.405849881351677,2941,84,956,1501,198.05337384295748,114.28883335420888,0.0025027509214915,False
0.21,0.6470455303002013,3.200000000000001,8421.0,57.36822,0.3,68900.0,0.33,276.0,2700.0,29.45836761656789,3.073732406696366,8299.077498080189,18.270758526454216,5.343640540036746,11.187609090113677,2.26990813334038,2950,84,964,1498,185.9785274084965,107.36258699546389,0.0023880313912518,False
0.22,0.5957449974996296,3.200000000000001,8422.0,57.36822,0.1,68900.0,0.33,276.0,2700.0,25.767096608576047,2.8120795078930847,7592.614671311328,16.43812089819853,4.453631300419754,9.328975710377517,1.641551792526669,28505,220,7056,16111,168.31228242520194,97.05374988814116,0.0021033882278156,False
0.23,0.832814046636694,3.200000000000001,8423.0,57.36822,0.3,68900.0,0.33,276.0,2700.0,42.14721698463046,4.821447448021687,13017.908109658554,25.46049367407013,9.392158584279612,16.686723310560335,4.570711136257927,4200,102,1382,2121,212.96703605315585,122.86061874124024,0.0030038370663369,False
0.24,0.817075274631144,3.200000000000001,8424.0,57.36822,0.2,68900.0,0.33,276.0,2700.0,40.60532074028152,4.843685570938303,13077.951041533415,24.817733027406803,8.996507976111873,15.787587712874718,4.152822405173571,8222,146,2718,4139,201.75904884472007,116.40608655689694,0.0028212491407057,False
0.25,0.6885172608057115,3.200000000000001,8425.0,57.36822,0.3,68900.0,0.33,276.0,2700.0,31.03401745560968,3.8465272584763137,10385.623597886048,19.80062453739494,6.132934221450159,11.23339291821474,2.286406962973845,3092,86,1016,1562,165.9108884601587,95.35054590887268,0.002210129730422,False
0.26,0.7497542323171287,3.200000000000001,8426.0,57.36822,0.1,68900.0,0.33,276.0,2700.0,34.99990771579914,4.513176914734221,12185.577669782397,22.138654902696093,7.416570501815148,12.861252813103048,2.9033935870809264,39309,262,9406,22508,199.01756043254076,113.57140879603152,0.0023800669524239,False
0.27,0.8709403713404755,3.200000000000001,8427.0,57.36822,0.2,68900.0,0.33,276.0,2700.0,43.6640619653362,5.853424386519976,15804.245843603936,27.043353888579723,10.39293188086904,16.620708076756472,4.539507494349063,8664,150,2868,4356,191.0661371753238,110.30214605458713,0.0027502919634266,False
0.28,0.6530844210811149,3.200000000000001,8428.0,57.36822,0.08,68900.0,0.33,276.0,2700.0,27.74128595550068,3.8378038724823633,10362.07045570238,18.490840513059386,5.454639719559053,9.250445442441295,1.6168358470766893,63807,286,11706,39400,154.01745137912133,87.0354504127823,0.0019161512178381,False
0.29,0.9811838349801792,3.200000000000001,8429.0,57.36822,0.3,68900.0,0.33,276.0,2700.0,51.726261261319294,7.449227680739041,20112.91473799541,31.825789445099137,13.635094821594688,19.90047181622016,6.185867140855647,4973,114,1638,2510,200.44477649058916,115.72257438822577,0.0030048587195132,False
0.3,0.92906028565048,3.200000000000001,8430.0,57.36822,0.2,68900.0,0.33,276.0,2700.0,47.147298080100335,7.01554604424883,18941.97431947184,29.52656607161888,12.036440149728882,17.620732008481458,5.020894105480052,9532,158,3152,4790,184.25248009010696,106.22075077446314,0.0027196956871085,False
0.31,0.830442099675757,3.200000000000001,8431.0,57.36822,0.2,68900.0,0.33,276.0,2700.0,39.23106274102511,6.018420600363496,16249.73562098144,25.36322656632424,9.33188302784522,13.86783617470087,3.313462427481725,8167,144,2682,4116,167.27928214640275,96.57741191082876,0.0023005705846228,False
0.32,1.011414655977814,3.200000000000001,8432.0,57.36822,0.3,68900.0,0.33,276.0,2700.0,53.09971088383773,8.42732460269881,22753.77642728679,33.1905877955194,14.617786188734366,19.90912308831833,6.190461586035555,5180,116,1712,2606,190.36011614693675,109.88738836415688,0.0028596635169643,False
0.33,0.746898313472754,3.200000000000001,8433.0,57.36822,0.1,68900.0,0.33,276.0,2700.0,32.5938465644774,5.302718406344066,14317.33969712898,22.027520580529348,7.353503044178009,10.566325983948047,2.0507846378339423,46774,250,8798,28725,147.610950426012,85.16826839566171,0.0019495805523299,False
0.34,0.7764347531913459,3.200000000000001,8434.0,57.36822,0.3,68900.0,0.33,276.0,2700.0,34.35541965404904,5.758103236083568,15546.878737425634,23.186795147220373,8.021184032041365,11.168624506828664,2.263080795957797,3409,92,1124,1717,140.35779923002144,80.78773640728191,0.0019621900924668,False
0.3500000000000001,0.6892731094634756,3.200000000000001,8435.0,57.36822,0.1,68900.0,0.33,276.0,2700.0,28.096866727244556,4.8271544872526855,13033.317115582253,19.828908407323773,6.147911185187796,8.26795831992078,1.3207566979351109,41691,230,7716,25683,133.86243127407636,77.28546064094314,0.0017060687366495,False
0.36,1.0168318969036545,3.200000000000001,8436.0,57.36822,0.3,68900.0,0.33,276.0,2700.0,52.0654556742249,9.274065923463226,25039.97799335071,33.437580887074965,14.798256276874175,18.62787478714993,5.524190353410951,4993,114,1654,2506,171.5082040087934,98.86799156488668,0.0025980964686901,False
0.37,0.8408155902012506,3.200000000000001,8437.0,57.36822,0.2,68900.0,0.33,276.0,2700.0,38.04152113074004,6.931594014065387,18715.303837976546,25.789658318843472,9.597197673259224,12.251862811896563,2.665603659193837,9265,138,2506,5078,150.65177953338235,86.96284456128787,0.0020338352707702,False
0.38,0.891286583421008,3.200000000000001,8438.0,57.36822,0.3,68900.0,0.33,276.0,2700.0,41.468053043309965,7.7640064301703715,20962.81736146,27.90300149179569,10.951889340243756,13.565051551514276,3.1878829100733848,3916,98,1296,1966,143.2577819751357,82.70431440288007,0.0021032954731955,False
0.39,0.8220900016790853,3.200000000000001,8439.0,57.36822,0.3,68900.0,0.33,276.0,2700.0,36.05570383231074,6.906624824221732,18647.887025398675,25.02185524200225,9.121473677668774,11.033848590308494,2.2148488534470427,3688,94,1222,1849,131.2007847089689,75.72399769746946,0.0018757401937419,False
0.4,0.8451278494684111,3.200000000000001,8440.0,57.36822,0.3,68900.0,0.33,276.0,2700.0,37.40743384765196,7.347445482977016,19838.102804037942,25.967721780446546,9.7087931263005,11.439712067205411,2.361347643323485,3638,94,1202,1829,132.36225897344863,76.38657666722598,0.0018969740860116,False
0.4100000000000001,0.9106373396166342,3.200000000000001,8441.0,57.36822,0.2,68900.0,0.33,276.0,2700.0,41.94576093019494,8.454533185837919,22827.23960176238,28.73024316147803,11.499822219340674,13.215517768716914,3.0452890335027547,11485,146,2850,6478,145.24561830290477,83.85291442184331,0.00205083286862,False
0.42,1.0007199759929195,3.200000000000001,8442.0,57.36822,0.2,68900.0,0.33,276.0,2700.0,48.6190376356944,10.05482835914973,27148.03656970427,32.705141057883665,14.26542188440406,15.91389657781074,4.210593525254332,12896,160,3196,7270,153.38109627924064,88.4855132417053,0.0022546073223097,False
0.43,1.0993987346427032,3.200000000000001,8443.0,57.36822,0.3,68900.0,0.33,276.0,2700.0,56.38339730285592,11.955911348708057,32280.96064151175,37.29341351903543,17.717094649797165,19.08998378382049,5.76118330108911,5507,120,1830,2756,157.0507256437183,90.55447813561034,0.0024614802890444,False
0.44,0.7623926061394282,3.200000000000001,8444.0,57.36822,0.08,68900.0,0.33,276.0,2700.0,30.42112008595228,6.51423746650686,17588.441159568523,22.63292136241414,7.699486232568406,7.788198723538141,1.1852487660615454,95196,296,12622,62469,134.13550406391292,76.14174495280255,0.0016021121668752,False
0.45,1.0988658763774133,3.200000000000001,8445.0,57.36822,0.3,68900.0,0.33,276.0,2700.0,55.60498289577514,12.320269397843829,33264.727374178336,37.26797998046703,17.697229322715177,18.337002915308112,5.37695992487135,5352,118,1772,2680,150.05734369667925,86.31761451896517,0.0023648558704166,False
0.46,1.1386719336133424,3.200000000000001,8446.0,57.36822,0.3,68900.0,0.33,276.0,2700.0,58.62110799464663,13.278994797082186,35853.2859521219,39.187584194347245,19.2187945034898,19.433523800299383,5.939799706407614,5436,120,1798,2725,152.6926853234161,87.98383979686383,0.0024210072369352,False
0.4700000000000001,0.7828435593696048,3.200000000000001,8447.0,57.36822,0.08,68900.0,0.33,276.0,2700.0,30.961206396783496,7.058437120528352,19057.78022542655,23.441228996083016,8.170598465342263,7.51997740070048,1.1121613448139105,103928,300,13044,68766,137.91416289979065,79.08755448890462,0.0015702407690838,False
0.4800000000000001,0.987865442917324,3.200000000000001,8448.0,57.36822,0.2,68900.0,0.33,276.0,2700.0,45.577910284081966,10.707075125015804,28909.10283754267,32.12545953413297,13.848742783236414,13.452450749948994,3.1416676582206104,12406,152,3096,6984,137.1878626842475,78.94406070860265,0.0019913307021754,False
0.04,0.4216564220252744,3.200000000000001,8454.0,60.3876,0.1,68900.0,0.33,276.0,2700.0,20.21622805972517,0.4041905199079496,1091.314403751464,10.712132427874364,2.101407019699096,9.504095631850811,1.697216499791146,16451,192,5404,8339,662.9268772169802,378.6028034253446,0.0068967193918294,True
0.05,0.4890089807781069,3.200000000000001,8455.0,60.3876,0.1,68900.0,0.33,276.0,2700.0,24.08580430792816,0.6018833083104072,1625.0849324380993,12.837102419580887,2.8938177185540788,11.248701888347272,2.2919344102436714,19695,212,6456,10005,632.8486689219595,361.7841582911198,0.0066739966694835,True
0.06,0.7464044991513853,3.200000000000001,8456.0,60.3876,0.2,68900.0,0.33,276.0,2700.0,41.72996635330055,1.2514466012569023,3378.905823393636,22.00832523290736,7.342630278772081,19.721641120393187,6.091183677515178,8482,148,2788,4294,750.9862465695063,429.5288181039696,0.0095013221697685,True
0.0699999999999999,0.4515045316498881,3.200000000000001,8457.0,60.3876,0.1,68900.0,0.33,276.0,2700.0,21.13935663409617,0.7391591046732416,1995.7295826177524,11.63977159296128,2.434932366376159,9.499585041134894,1.6957732617029175,17423,198,5710,8852,392.30482539425583,225.55098505522923,0.0044476203935466,True
0.08,0.5227755802214936,3.200000000000001,8458.0,60.3876,0.1,68900.0,0.33,276.0,2700.0,25.311515172509274,1.0113882766079438,2730.7483468414484,13.945344254743668,3.3459131585937008,11.366170917765606,2.334524881985757,20795,218,6836,10535,401.4431091419742,230.5709518927444,0.0046804060294927,True
0.09,0.7155517577755892,3.200000000000001,8459.0,60.3876,0.1,68900.0,0.33,276.0,2700.0,38.31605711213402,1.7226957560163896,4651.278541244252,20.8211834116895,6.681987911213252,17.49487370044452,4.959292155196862,31753,278,10454,16066,517.0496199307868,295.9384308601489,0.0061871244632184,True
0.0999999999999999,0.7001124607228679,3.200000000000001,8460.0,60.3876,0.2,68900.0,0.33,276.0,2700.0,36.827662912050656,1.8392887505001403,4966.079626350379,20.23609651741972,6.365047848702849,16.591566394630934,4.525759098202709,7489,136,2456,3799,424.4545437936826,243.40208926252225,0.0054629680688769,True
0.11,0.6918485900192278,3.200000000000001,8461.0,60.3876,0.1,68900.0,0.33,276.0,2700.0,35.87846768456267,1.97052808276964,5320.425823478028,19.925390751160435,6.199104361653481,15.953076933402237,4.228576278883841,29541,268,9744,14919,393.158310214773,225.6912102954575,0.0049254203325922,True
0.12,0.4458522683094255,3.200000000000001,8462.0,60.3876,0.1,68900.0,0.33,276.0,2700.0,19.34833030753193,1.157280703714982,3124.6579000304514,11.462388245460534,2.369642999009752,7.885942062071397,1.2123622952947697,16186,190,5336,8176,228.3776049372974,131.48309482001844,0.0026839192539472,False
0.13,0.6820071827633853,3.200000000000001,8463.0,60.3876,0.3,68900.0,0.33,276.0,2700.0,34.48549770045816,2.236955964489821,6039.781104122517,19.55761171506485,6.0048222044970165,14.927885985393306,3.767866240007196,3300,90,1080,1674,329.9144574840147,190.4726632463769,0.0041438544703156,True
0.14,0.5301921390891738,3.200000000000001,8464.0,60.3876,0.1,68900.0,0.33,276.0,2700.0,23.951105982850912,1.6708303986385975,4511.2420763242135,14.192598796538988,3.4502556597120537,9.758507186311924,1.7794252610734562,19959,214,6602,10048,231.1115512468945,133.38525766613506,0.0028525103832471,False
0.15,0.7575658519887751,3.200000000000001,8465.0,60.3876,0.3,68900.0,0.33,276.0,2700.0,39.2982203406745,2.940297942080004,7938.804443616011,22.443680963779855,7.590699629398558,16.85453937689464,4.6504016873185545,3783,96,1232,1929,309.65820318901547,178.71755235405487,0.0041538471502275,True
0.16,0.5641352805988207,3.200000000000001,8466.0,60.3876,0.3,68900.0,0.33,276.0,2700.0,25.519871369432064,2.033011067215161,5489.129881480935,15.341842861512657,3.951419620204336,10.178028507919407,1.9184085529891752,2541,76,828,1293,229.73941894873397,132.5204121843122,0.0027258049959005,False
0.17,0.8476569372084297,3.200000000000001,8467.0,60.3876,0.3,68900.0,0.33,276.0,2700.0,45.46818762295183,3.8545061848128577,10407.166698994715,26.072371268206208,9.774600073079254,19.395816354745623,5.920093888266397,4395,106,1440,2229,301.1344423809428,173.85875905287045,0.0042716608163393,True
0.18,0.8685236209072915,3.200000000000001,8468.0,60.3876,0.3,68900.0,0.33,276.0,2700.0,46.74279756899337,4.194637268972258,11325.520626225096,26.94193509638813,10.32769742516255,19.80086247260524,6.133060156190291,4524,108,1484,2292,291.7255205828913,168.4264429323924,0.0041857187038453,True
0.19,0.5155904886352265,3.200000000000001,8469.0,60.3876,0.2,68900.0,0.33,276.0,2700.0,21.585660470523383,2.036272288692408,5497.9351794695,13.707124800486577,3.2465711741024363,7.878535670036809,1.2102988854100287,4732,104,1558,2389,173.05162257799694,99.70435579353764,0.0021163553698334,False
0.2,0.6796085133430346,3.200000000000001,8470.0,60.3876,0.3,68900.0,0.33,276.0,2700.0,32.00201326711843,3.1834461658926987,8595.304647910287,19.468341009837943,5.958017053701165,12.533672257280482,2.7745708878084665,3150,88,1036,1590,213.38859839140864,122.94279251166556,0.0027800467705037,False
0.21,0.6884761353669686,3.200000000000001,8471.0,60.3876,0.3,68900.0,0.33,276.0,2700.0,32.29635705095154,3.3717212973065847,9103.64750272778,19.799086034635668,6.132119943714641,12.497271016315874,2.7603986464080563,3163,88,1040,1597,208.08799115631277,120.13805087036032,0.0027041602349974,False
0.22,0.7934880752065508,3.200000000000001,8472.0,60.3876,0.3,68900.0,0.33,276.0,2700.0,39.52970203060268,4.325966104316009,11680.108481653226,23.866104425407464,8.422377769229152,15.663597605195214,4.096411664913143,3781,98,1244,1909,225.77376057442405,130.1912894690582,0.003096554468383,False
0.23,0.7240615028859118,3.200000000000001,8473.0,60.3876,0.3,68900.0,0.33,276.0,2700.0,34.14733573510461,3.90146110432621,10533.944981680768,21.146229352201072,6.860552613344098,13.00110638290354,2.959091509017888,3322,90,1096,1672,197.93468003687744,114.27400438814232,0.0026558883879506,False
0.24,0.7472764718278511,3.200000000000001,8474.0,60.3876,0.3,68900.0,0.33,276.0,2700.0,35.47531982637593,4.228085461269611,11415.83074542795,22.04222434058252,7.361835715189598,13.433095485793412,3.1337502539199877,3298,90,1084,1666,197.3779062760692,113.9518807778619,0.0026580099355194,False
0.25,0.58987385020258,3.200000000000001,8475.0,60.3876,0.08,68900.0,0.33,276.0,2700.0,24.517764587758528,3.031995649994923,8186.388254986292,16.23260068939353,4.357724414913913,8.285163898365,1.3257287649189902,54050,266,10286,33135,160.3236108381013,92.52288710935396,0.001976642475956,False
0.26,0.6572836704824854,3.200000000000001,8476.0,60.3876,0.1,68900.0,0.33,276.0,2700.0,28.61568531420472,3.683228002526949,9944.715606822763,18.644418670656528,5.532609671921166,9.97126664354819,1.8493816693942169,32961,234,7910,18862,168.22684091541387,97.09852408942707,0.0021543026178169,False
0.27,0.5864948172034659,3.200000000000001,8477.0,60.3876,0.05,68900.0,0.33,276.0,2700.0,23.736976285852627,3.163267819789704,8540.823113432201,16.114710020556995,4.30307318055772,7.622266265295632,1.1398053607680163,191691,414,25732,125557,184.83014900283175,105.06987831905188,0.0018524907875808,False
0.28,0.6187063992269186,3.200000000000001,8478.0,60.3876,0.1,68900.0,0.33,276.0,2700.0,25.501942590322056,3.524295801357351,9515.598663664849,17.25020688065972,4.8403715598179735,8.251735709662334,1.3160757584606224,31107,218,6896,18277,633.4882467087136,364.7573265599841,0.0018929280222627,True
0.29,0.9378014260708344,3.200000000000001,8479.0,60.3876,0.3,68900.0,0.33,276.0,2700.0,48.20563774222999,6.938737270471085,18734.59063027193,29.907381451289915,12.296198991421598,18.298256290940078,5.357461720950512,4497,108,1478,2274,202.3003188358104,116.7974102632278,0.0029912163677204,False
0.3,0.9774674382205192,3.200000000000001,8480.0,60.3876,0.2,68900.0,0.33,276.0,2700.0,51.048373943253104,7.600707423723343,20521.910044053027,31.659594669070767,13.517126491194905,19.388779274182337,5.916419067471561,10241,166,3386,5150,202.37062822331083,116.70137833404902,0.0030539476217871,False
0.31,0.6754276084936788,3.200000000000001,8481.0,60.3876,0.1,68900.0,0.33,276.0,2700.0,28.33852464440998,4.330077195388152,11691.20842754801,19.313086958511683,5.876946476634992,9.025437685898297,1.54686928124684,40099,230,7740,24473,151.4690376164967,87.425181585636,0.0019288708917436,False
0.32,0.6244695313842266,3.200000000000001,8482.0,60.3876,0.1,68900.0,0.33,276.0,2700.0,24.742761404039065,3.890212685931032,10503.574252013788,17.456114385840102,4.940379716995962,7.286647018198963,1.0501670310649298,35412,214,6804,21636,140.4411194231589,81.08054365834174,0.0017329132862991,False
0.33,0.6786922546190706,3.200000000000001,8483.0,60.3876,0.04,68900.0,0.33,276.0,2700.0,27.973051121723294,4.540287158289638,12258.775327382022,19.434278996631235,5.940194622829238,8.538772125092063,1.3999074645396004,491431,566,45812,337619,509.4884906518988,287.1375627367363,0.0018400996993282,True
0.34,0.7444167926142928,3.200000000000001,8484.0,60.3876,0.1,68900.0,0.33,276.0,2700.0,32.11767086825056,5.377685942498131,14519.752044744951,21.93112190428589,7.298960932064755,10.186548963964672,1.9212749895666248,46299,248,8638,28472,151.91241765974894,87.49480145352209,0.0019978025210068,False
0.3500000000000001,0.746622036485762,3.200000000000001,8485.0,60.3876,0.1,68900.0,0.33,276.0,2700.0,31.96814340196569,5.504627905328887,14862.495344387997,22.0167804996386,7.34741883082388,9.95136290232709,1.8427909254949932,46729,246,8596,28827,149.20496959723192,86.08812197732885,0.0019598801300472,False
0.36,1.020413808834712,3.200000000000001,8486.0,60.3876,0.1,68900.0,0.33,276.0,2700.0,52.36048403504972,9.327171028411689,25183.36177671156,33.60129925530749,14.91831986293697,18.759184779742235,5.591148834525281,78400,334,14172,48536,197.89530979176843,110.77790522112838,0.0027757411723123,False
0.37,0.8627957223679108,3.200000000000001,8487.0,60.3876,0.2,68900.0,0.33,276.0,2700.0,39.66210954912546,7.231402871466693,19524.78775296007,26.70215040821096,10.174063879248784,12.959959140914505,2.942661007782092,9789,142,2656,5359,160.7054509928732,92.74174023709148,0.0021992704176247,False
0.38,0.8921824729819681,3.200000000000001,8488.0,60.3876,0.3,68900.0,0.33,276.0,2700.0,41.53567963465788,7.776855482525942,20997.509802820045,27.941092857965195,10.97690440932271,13.59458677669268,3.200048926796768,3907,98,1292,1963,152.47053991418085,87.78873459164406,0.002216685198768,False
0.39,1.0305005216902632,3.200000000000001,8489.0,60.3876,0.3,68900.0,0.33,276.0,2700.0,52.09733147282137,10.034742214121314,27093.803978127547,34.06406495767036,15.259578263126066,18.03326651515101,5.224836049004752,4999,114,1650,2516,171.19286267351063,98.806476432072,0.0025956112231966,False
0.4,0.8388911141989712,3.200000000000001,8490.0,60.3876,0.2,68900.0,0.33,276.0,2700.0,36.95537467967301,7.2570336493814365,19593.99085332988,25.710342945729497,9.547642429911514,11.245031733943517,2.2906087805300777,9755,136,2448,5475,149.6430532469439,86.39453999530834,0.0020031045518645,False
0.4100000000000001,0.758927254580372,3.200000000000001,8491.0,60.3876,0.08,68900.0,0.33,276.0,2700.0,31.042554801012432,6.219375929355508,16792.31500925987,22.49699758354112,7.621290802235109,8.545557217471316,1.4019148728796011,91651,300,12978,59580,225.7962428077801,129.36548761574255,0.005116345139863,False
0.42,0.7528762994907908,3.200000000000001,8492.0,60.3876,0.1,68900.0,0.33,276.0,2700.0,30.345692877083263,6.2174259598413775,16787.05009157172,22.260380571370625,7.48587882367699,8.085312305712637,1.2684528638356127,49727,238,8234,31320,132.99094927908328,76.69577615754488,0.0017218022439648,False
0.43,0.8837453362243721,3.200000000000001,8493.0,60.3876,0.2,68900.0,0.33,276.0,2700.0,39.29347922993814,8.281578963030727,22360.26320018296,27.58316285520509,10.742672797808025,11.71031637473305,2.461093834777296,10406,140,2586,5861,144.79732108125262,83.59770082731525,0.0020100190975089,False
0.44,0.8415464426821953,3.200000000000001,8494.0,60.3876,0.2,68900.0,0.33,276.0,2700.0,35.91957022351994,7.723896496772098,20854.520541284663,25.81980406723804,9.616057124254215,10.099766156281902,1.8921606274821192,9675,134,2386,5466,137.62572385696856,79.43781177325887,0.0018676443846593,False
0.45,0.8526862763824712,3.200000000000001,8495.0,60.3876,0.2,68900.0,0.33,276.0,2700.0,36.415158099972416,8.002558818787962,21606.9088107275,26.28095474151144,9.906251123340263,10.13420335846098,1.903692304552301,9573,134,2360,5407,137.80872565142406,79.5608749944423,0.0018620226322133,False
0.46,1.088365799340138,3.200000000000001,8496.0,60.3876,0.3,68900.0,0.33,276.0,2700.0,54.36405762583456,12.299873212255411,33209.65767308961,36.76826286731292,17.308538620566612,17.595794758521635,5.008665408311199,5129,116,1682,2582,154.45739450169083,88.95784964397207,0.0024136415160229,False
0.4700000000000001,1.0396350227285218,3.200000000000001,8497.0,60.3876,0.3,68900.0,0.33,276.0,2700.0,50.01612937696756,11.536344020871356,31148.12885635266,34.485350734785726,15.572659021239245,15.53077864218183,4.036315000367889,4645,108,1538,2324,147.21097979416498,84.9076000096834,0.0022384881049913,False
0.4800000000000001,0.7873234529762774,3.200000000000001,8498.0,60.3876,0.05,68900.0,0.33,276.0,2700.0,30.98566624419725,7.204936555443478,19453.32869969739,23.61969672890729,8.276012247177059,7.365969515289965,1.071075691733581,391892,474,32696,272090,168.6808854992171,96.28910958342034,0.0016403002305289,False
0.49,0.8343320388658273,3.200000000000001,8499.0,60.3876,0.08,68900.0,0.33,276.0,2700.0,33.93594915715606,8.06790405410132,21783.340946073564,25.5228166189054,9.430854711374122,8.413132538250657,1.362950657272803,117172,316,14330,77809,142.92199369243346,80.87656757993075,0.0017131234354645,False
0.5,0.9338700591369689,3.200000000000001,8500.0,60.3876,0.2,68900.0,0.33,276.0,2700.0,40.82487972655044,9.944420543838458,26849.93546836384,29.735870416608325,12.17895936457001,11.08900930994211,2.2345388207315526,11271,144,2758,6384,134.9762627662622,77.78858357582159,0.0018990981691821,False
0.05,0.6293881289442588,3.200000000000001,8505.0,63.40698,0.1,68900.0,0.33,276.0,2700.0,33.500210318945044,0.8372434585858289,2260.557338181738,17.632508245208523,5.026672874605178,15.86770207373652,4.189429416019349,27961,258,9166,14206,906.3879857563204,517.230920354518,0.0095250140715075,True
0.06,0.5215959710491596,3.200000000000001,8506.0,63.40698,0.1,68900.0,0.33,276.0,2700.0,25.864610484293024,0.7754859251866687,2093.811998004005,13.90614566151952,3.329486225547253,11.958464822773506,2.554000300360584,21537,222,7070,10926,685.7349424813788,392.7974323075785,0.0067660814832589,True
0.0699999999999999,0.5499871817421127,3.200000000000001,8507.0,63.40698,0.1,68900.0,0.33,276.0,2700.0,27.405150401554614,0.9584618865342888,2587.8470936425792,14.85929834030052,3.73778118589071,12.545852061254095,2.779319299356421,22618,230,7426,11473,534.4286221538504,306.04081369235485,0.005911130072225,True
0.08,0.7057869459977015,3.200000000000001,8508.0,63.40698,0.1,68900.0,0.33,276.0,2700.0,37.95374097015199,1.5170773085136582,4096.108732986877,20.45044024548374,6.480485042893385,17.50330072466825,4.963407734379727,31746,278,10448,16068,620.0130810980775,355.37621790556614,0.0071163443377532,True
0.09,0.6326833354184407,3.200000000000001,8509.0,63.40698,0.2,68900.0,0.33,276.0,2700.0,32.363180542989284,1.4548163104048797,3928.004038093175,17.75102314943609,5.084970820531946,14.612157393553192,3.630154510127066,6827,128,2236,3467,452.50348411103965,259.4489068071934,0.0055730954479352,True
0.0999999999999999,0.5622030915626184,3.200000000000001,8510.0,63.40698,0.1,68900.0,0.33,276.0,2700.0,27.25336536686464,1.360573873240843,3673.549457750276,15.275645720420698,3.921840247435322,11.97771964644394,2.561266374194479,22784,230,7502,11525,358.49423699256687,206.04712529838503,0.0043676591305203,True
0.11,0.6129164290472193,3.200000000000001,8511.0,63.40698,0.2,68900.0,0.33,276.0,2700.0,30.33426432955859,1.6655968982444365,4497.111625259979,17.04418108696009,4.741090224511511,13.2900832425985,3.075493326267075,6274,122,2054,3187,560.8135124243216,323.7041076395528,0.0113367075351973,True
0.12,0.6964255641373838,3.200000000000001,8512.0,63.40698,0.2,68900.0,0.33,276.0,2700.0,35.86237093455539,2.1481231413363884,5799.932481608249,20.097264187144532,6.290695488735735,15.765106747410858,4.142572347399346,7343,136,2412,3719,376.95912177555806,216.75011935971185,0.004812774770947,True
0.13,0.6932798312892159,3.200000000000001,8513.0,63.40698,0.3,68900.0,0.33,276.0,2700.0,35.291603243683554,2.2893528247994768,6181.252626958587,19.97907980297109,6.227660818070124,15.312523440712468,3.938307993270647,3347,90,1094,1700,346.3925854107113,199.81902618811327,0.004444897587731,True
0.14,0.7879494695675059,3.200000000000001,8514.0,63.40698,0.3,68900.0,0.33,276.0,2700.0,41.94831928522783,2.9306353298049794,7912.715390473444,23.64467582779764,8.290806387360483,18.30364345743019,5.360171057555504,4032,102,1320,2046,359.258685574528,207.2197693537757,0.0048887274428278,True
0.15,0.7226456541642561,3.200000000000001,8515.0,63.40698,0.3,68900.0,0.33,276.0,2700.0,36.72654864830452,2.747422565152257,7418.040925911095,21.092022095426422,6.830651132129965,15.634526552878096,4.083228566977708,3514,92,1150,1783,310.46973953691526,179.16684876709212,0.0041030128206797,True
0.16,0.6696737604739753,3.200000000000001,8516.0,63.40698,0.3,68900.0,0.33,276.0,2700.0,32.61207312425491,2.6003872076009875,7021.045460522666,19.100141443274044,5.766434936514034,13.511931680980869,3.166047728913046,3235,88,1062,1636,273.90192814057315,158.08777572809197,0.0035105638272597,False
0.17,0.7969127865508867,3.200000000000001,8517.0,63.40698,0.3,68900.0,0.33,276.0,2700.0,41.54706707869126,3.521210938550709,9507.269534086914,24.00340712945142,8.504347314737968,17.543659949239842,4.983136376187259,3992,102,1306,2027,303.70434263023947,175.06134293533324,0.0041390228356023,True
0.18,0.5782436810594548,3.200000000000001,8518.0,63.40698,0.1,68900.0,0.33,276.0,2700.0,25.82820895977428,2.3123242941425284,6243.275594184826,15.828043036691035,4.171292354934294,10.000165923083244,1.8589680607917651,25379,224,7102,13746,216.2752273786049,124.837982368246,0.0026616605860153,False
0.19,0.7192648921050577,3.200000000000001,8519.0,63.40698,0.2,68900.0,0.33,276.0,2700.0,35.12440030407575,3.3224525728798846,8970.62194677569,20.96278984460824,6.759562556751847,14.16161045946751,3.4371099838719625,7269,134,2384,3687,243.3958655305788,140.5197617584219,0.0032812106355939,False
0.2,0.8553907544259733,3.200000000000001,8520.0,63.40698,0.3,68900.0,0.33,276.0,2700.0,44.9685159428746,4.480096433468315,12096.26037036445,26.3933813054902,9.977479374558358,18.5751346373844,5.497382941090043,4237,104,1392,2143,275.39618237093043,158.9723780016913,0.003909980938607,False
0.21,0.6973127998748561,3.200000000000001,8521.0,63.40698,0.1,68900.0,0.33,276.0,2700.0,32.912830911930335,3.43645105270942,9278.417842315434,20.130642373377302,6.308541305445062,12.78218853855303,2.8720902527356422,35942,252,8822,20387,219.7555598295021,126.84859059685267,0.0029032444249776,False
0.22,0.8016471612689555,3.200000000000001,8522.0,63.40698,0.3,68900.0,0.33,276.0,2700.0,40.13978385326226,4.393075104808568,11861.302782983134,24.19370195859088,8.618438679860766,15.94608189467138,4.225363575052199,3894,100,1276,1974,241.9727901958478,139.70243910421715,0.0032932792815784,False
0.23,0.6477753986081101,3.200000000000001,8523.0,63.40698,0.1,68900.0,0.33,276.0,2700.0,28.890469646834205,3.2969215041751165,8901.688061272815,18.297309232477357,5.356985476091784,10.593160414356852,2.060063971916667,32043,236,7970,18082,191.2953533077481,110.39414868542306,0.0024625322070793,False
0.24,0.7492716615583879,3.200000000000001,8524.0,63.40698,0.3,68900.0,0.33,276.0,2700.0,35.61856025333954,4.245274312505263,11462.24064376421,22.119861904528243,7.405891569032311,13.498698348811295,3.160617256527048,3280,90,1080,1654,207.31188705493517,119.46652267000742,0.002798923010358,False
0.25,0.68209271085687,3.200000000000001,8525.0,63.40698,0.3,68900.0,0.33,276.0,2700.0,30.594729945848307,3.791616319756144,10237.364063341587,19.560797463592355,6.006495065974306,11.033932482255953,2.2148787462181625,3074,86,1008,1556,182.21279265992575,105.13398485166428,0.0024174309308344,False
0.26,0.7932190525438964,3.200000000000001,8526.0,63.40698,0.3,68900.0,0.33,276.0,2700.0,38.14923913110413,4.922589998723809,13290.992996554283,23.85533132065916,8.415958695415151,14.293907810444974,3.493368696691342,3649,96,1198,1846,202.110019800113,116.4443094949281,0.0027972281831962,False
0.27,0.9604372256249604,3.200000000000001,8527.0,63.40698,0.2,68900.0,0.33,276.0,2700.0,50.774952639224615,6.813394627494914,18396.16549423627,30.90245489825864,12.984414333644104,19.872497740965976,6.171019706149191,10268,166,3398,5165,230.32531773483493,132.87448776953767,0.0034499558771513,False
0.28,0.7101953980638283,3.200000000000001,8528.0,63.40698,0.1,68900.0,0.33,276.0,2700.0,31.592746149253728,4.377008299607785,11817.922408941018,20.617520366751503,6.571007931360636,10.97522578250222,2.193999631752852,39288,248,8686,23113,177.85390344409626,102.598210594487,0.0023222619533997,False
0.29,0.6640530190388492,3.200000000000001,8529.0,63.40698,0.08,68900.0,0.33,276.0,2700.0,28.17193975278004,4.033851062000839,10891.397867402264,18.89292551458717,5.6596607055766,9.279014238192872,1.625809643575761,66471,290,12040,41113,164.4469402532615,94.91089258709977,0.0020975802768666,False
0.3,0.6185028824351575,3.200000000000001,8530.0,63.40698,0.08,68900.0,0.33,276.0,2700.0,24.921615213013094,3.6816936141873495,9940.572758305843,17.24295081032547,4.83686159144014,7.678664402687627,1.1551679772527907,59633,270,10528,37071,152.6094679582158,88.08458333559872,0.0018937737985407,False
0.31,0.6798757997748106,3.200000000000001,8531.0,63.40698,0.08,68900.0,0.33,276.0,2700.0,28.63425697488028,4.375915706611048,11814.97240784983,19.47828138600953,5.963222005526129,9.155975588870746,1.587306298915081,70077,292,12162,43688,159.12567482140395,91.80036002245036,0.0020419284742577,False
0.32,0.9093717552429386,3.200000000000001,8532.0,63.40698,0.3,68900.0,0.33,276.0,2700.0,44.890917020736666,7.113917584602644,19207.577478427134,28.675852013025278,11.46349609508234,16.21506500771139,4.349578510479696,4445,106,1468,2237,190.1439637093607,109.60349411131394,0.0027638579778326,False
0.33,0.6613111795573285,3.200000000000001,8533.0,63.40698,0.08,68900.0,0.33,276.0,2700.0,26.83291272025042,4.352164322046617,11750.843669525866,18.792132175697198,5.60799755922756,8.040780544553225,1.2558332371809433,66873,278,11118,42076,150.06183074515778,86.59857391459256,0.0018893415595447,False
0.34,0.8121533018114397,3.200000000000001,8534.0,63.40698,0.3,68900.0,0.33,276.0,2700.0,36.9126115065773,6.192825851013684,16720.629797736947,24.618000930205326,8.874847556414304,12.294610576371973,2.6820217054006195,3396,92,1118,1713,162.99938803055554,93.70405422051834,0.0022860564437124,False
0.3500000000000001,1.0381778976075426,3.200000000000001,8535.0,63.40698,0.2,68900.0,0.33,276.0,2700.0,54.20593736369038,9.396241848630703,25369.852991302894,34.418007132476674,15.522458620884146,19.787930231213707,6.126216772253443,11988,172,3610,6289,202.35741293735785,116.82875143972024,0.0030358663842692,False
0.36,0.6905959429570716,3.200000000000001,8536.0,63.40698,0.05,68900.0,0.33,276.0,2700.0,27.8988940998104,4.924084840068627,13295.029068185291,19.878443414059888,6.174174287805329,8.020450685750514,1.250089447736702,278290,452,29714,188173,188.56559827195744,107.49946922915132,0.0018536005715978,False
0.37,0.916068934258888,3.200000000000001,8537.0,63.40698,0.2,68900.0,0.33,276.0,2700.0,43.6906840009086,7.976689145046567,21537.06069162573,28.96413447614507,11.656508119958554,14.726549524763527,3.6798189749119863,11409,152,3016,6303,177.33914876558356,102.33218398866929,0.0024893619223101,False
0.38,1.0248141054354962,3.200000000000001,8538.0,63.40698,0.2,68900.0,0.33,276.0,2700.0,51.99253304087191,9.763657629707138,26361.875600209278,33.80286489554006,15.066618841687797,18.189668145331844,5.302961211980659,13563,170,3540,7525,188.60434844773064,108.77286086051038,0.0027917728158962,False
0.39,0.9224432636545192,3.200000000000001,8539.0,63.40698,0.2,68900.0,0.33,276.0,2700.0,43.50748748492305,8.359722636481134,22571.25111849906,29.239566818422244,11.8420123595538,14.267920666500803,3.4822897230726646,11649,150,2910,6556,169.27344315522893,97.65642835893053,0.0024011450380474,False
0.4,0.9052450778376652,3.200000000000001,8540.0,63.40698,0.1,68900.0,0.33,276.0,2700.0,41.86518400230186,8.238995513907199,22245.287887549435,28.49877900657013,11.345525613274493,13.366404995731733,3.106530099367294,65578,288,11134,41079,435.9531534948222,234.441006850664,0.0023060353763384,True
0.4100000000000001,0.9749340025849822,3.200000000000001,8541.0,63.40698,0.3,68900.0,0.33,276.0,2700.0,46.91573472260095,9.473377813281155,25578.12009585912,31.54650009309303,13.437062238823684,15.369234629507922,3.96368442554253,4429,106,1480,2203,164.5722368931864,94.70028601721026,0.002435628837891,False
0.42,0.8652300853327283,3.200000000000001,8542.0,63.40698,0.1,68900.0,0.33,276.0,2700.0,38.24686991666536,7.87667313815362,21267.017473014774,26.80395840254445,10.239190493874537,11.442911514120908,2.3625173557209145,61878,272,10178,39045,159.2151789002544,90.11742469182138,0.0021041274612035,False
0.43,1.0212601859732302,3.200000000000001,8543.0,63.40698,0.2,68900.0,0.33,276.0,2700.0,49.92108310191479,10.5665137955057,28529.587247865387,33.640031694969906,14.946775624307053,16.281051406944883,4.380261828801352,13706,164,3396,7736,169.7419357921632,97.98102277022522,0.0025055840463015,False
0.44,0.9335684655541564,3.200000000000001,8544.0,63.40698,0.08,68900.0,0.33,276.0,2700.0,42.707803274166665,9.217307767914402,24886.730973368885,29.72272904396193,12.169993198607306,12.98507423020473,2.952685430692904,136518,364,17984,89650,183.09645877798263,103.36049509613076,0.0022169110231529,False
0.45,0.8634474047742158,3.200000000000001,8545.0,63.40698,0.2,68900.0,0.33,276.0,2700.0,37.19032302872987,8.176970927758644,22077.821504948337,26.729389953310097,10.191474076066822,10.460933075419774,2.0145031483081777,9980,136,2484,5616,146.4498267609252,84.39937659672337,0.0019796721090592,False
0.46,1.1596253642602867,3.200000000000001,8546.0,63.40698,0.3,68900.0,0.33,276.0,2700.0,60.43177431954921,13.695448051809777,36977.7097398864,40.21403930136835,20.05064344163525,20.21773501818086,6.355195389825472,5781,124,1916,2891,171.7411909824508,98.9687236917265,0.0027449572340419,False
0.4700000000000001,1.1185349960607804,3.200000000000001,8547.0,63.40698,0.3,68900.0,0.33,276.0,2700.0,56.536480470167085,13.068626527773494,35285.29162498844,38.21152484537297,18.43952109249566,18.324955624794114,5.370894564722166,5373,118,1760,2705,173.85570239358913,100.33874061034456,0.002574043865266,False
0.4800000000000001,1.1767921151079774,3.200000000000001,8548.0,63.40698,0.2,68900.0,0.33,276.0,2700.0,61.17426964730424,14.450201372189158,39015.54370491073,41.063218054953055,20.7482660594092,20.11105159235119,6.298064687220039,16124,182,3942,9145,172.8775856202985,99.77770601201502,0.0027292938309288,False
0.49,0.9095690113525948,3.200000000000001,8549.0,63.40698,0.2,68900.0,0.33,276.0,2700.0,39.332423074304415,9.39004016380312,25353.10844226842,28.68432686076374,11.469153417933178,10.648096213540676,2.0791132541300588,11043,142,2704,6255,166.6399669830035,96.01861733089493,0.0019782069600901,False
0.5,1.1541632633227332,3.200000000000001,8550.0,63.40698,0.3,68900.0,0.33,276.0,2700.0,58.4756560583953,14.357114626799683,38764.20949235914,39.945401606342266,19.83172430426854,18.53025445205304,5.474609677468857,6070,122,1878,3141,170.04797485505824,98.14052134984648,0.0025557394277517,False
0.05,0.5749230612099713,3.200000000000001,8555.0,66.42636,0.1,68900.0,0.33,276.0,2700.0,29.729953671711943,0.7429870424050017,2006.0650144935048,15.713158510257712,4.118924261653617,14.016795161454231,3.3759372192486152,24826,242,8146,12601,837.6999962589206,478.52967226235177,0.0089225049680382,True
0.06,0.7362987056134074,3.200000000000001,8556.0,66.42636,0.2,68900.0,0.33,276.0,2700.0,40.9622411687601,1.228414845720687,3316.720083445855,21.616843051820105,7.122198968472436,19.34539811694,5.8937841227517485,8529,148,2800,4323,801.3432775776536,457.80891872209776,0.0102718386458154,True
0.0699999999999999,0.5837145458106947,3.200000000000001,8557.0,66.42636,0.2,68900.0,0.33,276.0,2700.0,29.66306677386386,1.037488959565118,2801.2201908258185,16.017924665426335,4.258404503072978,13.645142108437526,3.22091554350786,6314,124,2066,3209,567.6869809417246,325.11156665706,0.0066656528014453,True
0.08,0.4992503257799729,3.200000000000001,8558.0,66.42636,0.08,68900.0,0.33,276.0,2700.0,23.808531851379445,0.951268943762751,2568.426148159428,13.170202428890017,3.02699035958915,10.63832942248943,2.0757214158263992,30960,264,10192,15666,426.5703016797897,244.96665103632048,0.0048720761755812,True
0.09,0.6910303094543044,3.200000000000001,8559.0,66.42636,0.2,68900.0,0.33,276.0,2700.0,36.51859320565468,1.641809880224814,4432.886676606998,19.89471835376527,6.182812352114168,16.62387485188941,4.541002471889354,7448,136,2444,3776,509.44213185519897,291.5427394670001,0.0065147406354837,True
0.0999999999999999,0.527864054987494,3.200000000000001,8560.0,66.42636,0.2,68900.0,0.33,276.0,2700.0,25.018049045559845,1.248808057175602,3371.7817543741253,14.114835853753997,3.4173046418551203,10.90321319180585,2.1684965846795183,5287,112,1738,2674,357.5963499342841,206.4256092181412,0.0042381282206119,True
0.11,0.4418232544893553,3.200000000000001,8561.0,66.42636,0.05,68900.0,0.33,276.0,2700.0,19.39178067378533,1.0637602971769082,2872.1528023776523,11.336437032554514,2.3237147449257893,8.05534364123082,1.259954447748881,84597,374,20780,47989,269.4819258867397,155.49743739913384,0.0031650953128245,False
0.12,0.6396153126075097,3.200000000000001,8562.0,66.42636,0.2,68900.0,0.33,276.0,2700.0,31.84163523088548,1.9068789991161967,5148.573297613732,18.001228494259255,5.208887019320145,13.840406736626225,3.302008020203949,6908,130,2266,3503,353.3947903562041,203.51143344688023,0.0045287814622942,True
0.13,0.6887985000541275,3.200000000000001,8563.0,66.42636,0.3,68900.0,0.33,276.0,2700.0,34.97037897096239,2.2684732470725977,6124.8777670960135,19.811146837621543,6.138504413808537,15.159232133340849,3.8700311667359393,3358,90,1098,1705,358.66223488950027,206.82025505490307,0.0046154911542267,True
0.14,0.6630622913743689,3.200000000000001,8564.0,66.42636,0.3,68900.0,0.33,276.0,2700.0,32.81136035832465,2.291048204921754,6185.830153288736,18.85648336508414,5.640961015765839,13.954876993240507,3.349912810844085,3045,86,998,1542,332.46665569806834,190.6066538629113,0.0041119943599524,True
0.15,0.7944352255872255,3.200000000000001,8565.0,66.42636,0.3,68900.0,0.33,276.0,2700.0,42.07995987378324,3.1489284070631705,8502.10669907056,23.90404786227785,8.445000526411665,18.17591201150539,5.296072119348494,4011,102,1314,2034,354.8014517722283,204.7926615606769,0.0048520949024538,True
0.16,0.7822308422294346,3.200000000000001,8566.0,66.42636,0.3,68900.0,0.33,276.0,2700.0,40.79288954055766,3.2548525209052146,8788.10180644408,23.416859092162998,8.156243088960393,17.376030448394665,4.901390568055178,4086,102,1338,2073,373.1795516971288,215.43123138016412,0.0057418507348328,True
0.17,0.7159090891952968,3.200000000000001,8567.0,66.42636,0.2,68900.0,0.33,276.0,2700.0,35.555937982393864,3.0119649653654226,8132.305406486641,20.83479575934508,6.6894304062059415,14.721142223048783,3.677465440840519,7510,136,2464,3808,314.4485472327493,180.34795082514543,0.0037846730504621,True
0.18,0.4821818769284838,3.200000000000001,8568.0,66.42636,0.08,68900.0,0.33,276.0,2700.0,19.839726302963214,1.773360855029534,4788.074308579742,12.61651502641863,2.806931140178743,7.223211276544587,1.0335702851492088,34136,236,8390,19349,193.2514625076358,111.57274032014648,0.0025692532880111,False
0.19,0.7862745463512494,3.200000000000001,8569.0,66.42636,0.3,68900.0,0.33,276.0,2700.0,40.03456610644829,3.78891832410527,10230.079475084229,23.57786569429407,8.251259331638582,16.45670041215422,4.462341007533313,3986,100,1304,2024,280.903938239707,161.61132069781314,0.0038476771380711,True
0.2,0.7274024572662092,3.200000000000001,8570.0,66.42636,0.2,68900.0,0.33,276.0,2700.0,35.373774704488845,3.520622309629747,9505.680236000317,21.274341011015263,6.931415130425496,14.099433693473582,3.4107928207957485,7283,134,2396,3683,246.04997130692905,141.75116879815226,0.0033286643483317,False
0.21,0.6349077981161538,3.200000000000001,8571.0,66.42636,0.2,68900.0,0.33,276.0,2700.0,28.64327627781213,2.9881478161270145,8067.999103542939,17.831182136457397,5.124546441659018,10.812094141354738,2.136398625532004,5839,118,1924,2947,209.85152338439704,121.11691059940496,0.0027115440579718,False
0.22,0.703439415212929,3.200000000000001,8572.0,66.42636,0.1,68900.0,0.33,276.0,2700.0,33.01872699261078,3.6097588501369087,9746.348895369654,20.361668242754146,6.432581229454785,12.657058749856638,2.822822379317876,36708,256,9106,20733,222.88472347855765,128.653702862735,0.0029506744123468,False
0.23,0.8205865595850725,3.200000000000001,8573.0,66.42636,0.3,68900.0,0.33,276.0,2700.0,41.218094934228354,4.714598412224316,12729.415713005652,24.96059196805433,9.083900827238056,16.257502966174023,4.369302415013742,4227,102,1390,2136,244.9121264407265,141.2956659530729,0.0034133878711631,False
0.24,0.6861216705767367,3.200000000000001,8574.0,66.42636,0.3,68900.0,0.33,276.0,2700.0,31.181900975655044,3.712875199183123,10024.763037794432,19.711076379853463,6.085607327920006,11.470824595801576,2.3727321287368834,3101,86,1014,1574,204.38346580824853,117.86719243395562,0.0026383129143704,False
0.25,0.8213108013323933,3.200000000000001,8575.0,66.42636,0.3,68900.0,0.33,276.0,2700.0,40.57859549487555,5.039599513384547,13606.918686138277,24.99009676839067,9.101989013486998,15.58849872648488,4.062389500102451,3942,98,1306,1977,223.9662569317501,129.24317566680293,0.0031764026639539,False
0.26,0.5693965139597787,3.200000000000001,8576.0,66.42636,0.08,68900.0,0.33,276.0,2700.0,22.94628620585132,2.946206118441008,7954.756519790721,15.522569245392132,4.032611752510861,7.42371696045919,1.0864056340698531,51624,258,9706,31719,167.18386413281462,96.45708790113896,0.002030644327494,False
0.27,0.6067348405900694,3.200000000000001,8577.0,66.42636,0.08,68900.0,0.33,276.0,2700.0,25.020511092661035,3.336545018708825,9008.671550513827,16.82515020544341,4.636407585546588,8.195360887217625,1.299862566837763,55755,268,10352,34351,170.00891177515933,98.1415712022577,0.002108750375911,False
0.28,0.6293033244246637,3.200000000000001,8578.0,66.42636,0.05,68900.0,0.33,276.0,2700.0,26.185880052018963,3.6200470459949625,9774.1270241864,17.6294617805425,5.025177687393019,8.556418271476463,1.4051306413980569,217525,438,28058,143350,224.8263061545385,125.6835367172695,0.0021814528390302,False
0.29,0.9739244877229472,3.200000000000001,8579.0,66.42636,0.3,68900.0,0.33,276.0,2700.0,51.13055107635082,7.362849703918604,19879.69420058023,31.50147949467961,13.405238304770863,19.62907158167121,6.042388600852259,4948,114,1630,2497,229.36519379279383,132.33689025159296,0.0034460159470192,False
0.3,0.8349785186682632,3.200000000000001,8580.0,66.42636,0.2,68900.0,0.33,276.0,2700.0,39.90227812125148,5.928793050423101,16007.741236142372,25.54937618660998,9.44736328136528,14.352901934641498,3.51857023094218,8070,144,2674,4051,195.7723531019496,112.88777816174486,0.0027586748509926,False
0.31,0.9949874581661322,3.200000000000001,8581.0,66.42636,0.1,68900.0,0.33,276.0,2700.0,52.11484664337277,8.015407105227384,21641.599184113937,32.44611728437349,14.078681904005212,19.66872935899928,6.063274798777828,72599,332,13814,44520,232.3822712760808,129.0726194867958,0.0033657608140486,False
0.32,0.982608648553976,3.200000000000001,8582.0,66.42636,0.3,68900.0,0.33,276.0,2700.0,50.72940336378272,8.048075399490015,21729.80357862304,31.889598206625354,13.680486090129596,18.83980515715736,5.632410690639579,4804,112,1588,2416,214.72435731338268,123.92874171225851,0.0031944165786691,False
0.33,0.8555924385711644,3.200000000000001,8583.0,66.42636,0.3,68900.0,0.33,276.0,2700.0,40.440863140430615,6.597476141375962,17813.185581715097,26.4017727861704,9.982803347303086,14.039090354260214,3.3853272059271244,3719,96,1232,1865,187.09010149283137,107.88610112830592,0.0026117529567211,False
0.34,0.9960293208928788,3.200000000000001,8584.0,66.42636,0.3,68900.0,0.33,276.0,2700.0,51.09162965122826,8.603258935604345,23228.79912613173,32.49313243150672,14.11251079352755,18.598497219721537,5.509251857923205,4775,112,1578,2402,204.6832904012,118.12368931941218,0.0030820260130552,False
0.3500000000000001,1.0377047683687144,3.200000000000001,8585.0,66.42636,0.3,68900.0,0.33,276.0,2700.0,54.166389177410736,9.389320916031757,25351.166473285743,34.396152108259585,15.506179625714914,19.77023706915115,6.116858709683157,5111,116,1690,2570,208.15517451880444,120.11403343505408,0.0031639387674959,False
0.36,0.8579389538386868,3.200000000000001,8586.0,66.42636,0.2,68900.0,0.33,276.0,2700.0,39.626882348565445,7.035122724844531,18994.831357080235,26.499479484443405,10.04487011830474,13.12740286412204,3.0097473934602084,8786,140,2564,4676,180.60956947742312,104.22380480386798,0.0024478995143518,False
0.37,0.9056437258999236,3.200000000000001,8587.0,66.42636,0.2,68900.0,0.33,276.0,2700.0,42.89109236484357,7.828764692373948,21137.66466940966,28.51586605628316,11.356890002030385,14.37522630856041,3.5281253096564367,10881,150,2918,5982,183.43707270014912,105.87874856395052,0.0025695528458026,False
0.38,0.6830856728306549,3.200000000000001,8588.0,66.42636,0.1,68900.0,0.33,276.0,2700.0,26.84605420425177,4.985826650749321,13461.731957023168,19.597796746470934,6.025936561422554,7.248257457780841,1.040109910673233,40911,222,7214,25426,146.02891524435452,84.21329361522317,0.0018395874031476,False
0.39,1.0861219522542007,3.200000000000001,8589.0,66.42636,0.3,68900.0,0.33,276.0,2700.0,56.74768030528206,10.94156023645115,29542.212638418103,36.66183358302195,17.226155690257823,20.085846722260108,6.2845954538066735,5271,118,1748,2639,198.2824644790451,114.41462275727363,0.0030521328795817,False
0.4,1.0043155909406152,3.200000000000001,8590.0,66.42636,0.3,68900.0,0.33,276.0,2700.0,49.60772130578329,9.78750297460349,26426.25803142942,32.868030372153406,14.38330972472542,16.739690933629888,4.59580675012193,4893,112,1630,2442,179.4946277259872,103.5674807293441,0.0027087254088814,False
0.4100000000000001,0.7816693519708393,3.200000000000001,8591.0,66.42636,0.2,68900.0,0.33,276.0,2700.0,32.603285313150174,6.539325684343747,17656.179347728117,23.39453494559614,8.143101018459411,9.208750367554035,1.6037753341156646,8770,126,2176,4940,153.46773114806592,88.49517074742568,0.0019999930229925,False
0.42,1.0254306580693142,3.200000000000001,8592.0,66.42636,0.3,68900.0,0.33,276.0,2700.0,50.61020843989864,10.47297422803261,28277.03041568805,33.83114636741012,15.087468805086823,16.77906207248852,4.614494577054213,4853,112,1618,2420,174.79046246923852,100.55120298655416,0.0026654538258638,False
0.43,0.749091899661395,3.200000000000001,8593.0,66.42636,0.08,68900.0,0.33,276.0,2700.0,29.80808949320145,6.242220169632335,16853.994458007306,22.11286284184734,7.4019158897896915,7.695226651354112,1.159695720157356,92409,294,12530,60452,143.68550903502674,82.94269862720196,0.0018513804879631,False
0.44,0.8868480245413958,3.200000000000001,8594.0,66.42636,0.1,68900.0,0.33,276.0,2700.0,39.20816021906988,8.447386295793113,22807.942998641403,27.71458071051917,10.828458566711,11.493579508550706,2.381072270917887,67333,278,10544,42999,157.63661802498993,90.9998742659542,0.0021871007893198,False
0.45,1.1383446029943372,3.200000000000001,8595.0,66.42636,0.2,68900.0,0.33,276.0,2700.0,58.96580233150917,13.076453770883976,35306.42518138674,39.1716366378571,19.205969817433363,19.79416569365207,6.129516046549387,15552,178,3818,8807,185.91666575643933,107.27421796560034,0.0028947680481716,False
0.46,0.8890971444812066,3.200000000000001,8596.0,66.42636,0.3,68900.0,0.33,276.0,2700.0,38.75128091102884,8.708934567850086,23514.12333319523,27.809995976270265,10.890899259170425,10.941284934758578,2.1819646913203368,3798,94,1212,1938,150.76772647662133,86.56841756875377,0.0020876324851903,False
0.4700000000000001,1.004252903411298,3.200000000000001,8597.0,66.42636,0.2,68900.0,0.33,276.0,2700.0,47.19375065292422,10.873085020721245,29357.329555947363,32.865187705267005,14.38124939820841,14.328562947657218,3.508164377487166,12585,156,3104,7111,163.06785646319898,94.14292880440354,0.0023903781083583,False
0.4800000000000001,0.9695321586364564,3.200000000000001,8598.0,66.42636,0.1,68900.0,0.33,276.0,2700.0,44.1599510557099,10.366764910206504,27990.26525755756,31.305896154418072,13.267303150793488,12.854054901291825,2.900538240586984,78472,296,11480,50774,164.41450191372533,93.37017661177116,0.0022641970115292,False
0.49,0.9209592232666046,3.200000000000001,8599.0,66.42636,0.2,68900.0,0.33,276.0,2700.0,40.174200001387774,9.596275510938014,25909.94387953264,29.17535080020591,11.798667317898069,10.998849201181866,2.2023918069600548,11013,142,2696,6241,148.79261981241396,85.87367943341259,0.0020884274102565,False
0.5,0.8811490994884301,3.200000000000001,8600.0,66.42636,0.2,68900.0,0.33,276.0,2700.0,36.9624145224915,8.978804242823722,24242.77145562405,27.473382255534744,10.671202921974224,9.489032266956755,1.692398679150502,9784,132,2388,5546,142.63488669307168,82.34743387270659,0.0019554052494974,False
0.04,0.3789220640539819,3.200000000000001,8604.0,69.44574,0.1,68900.0,0.33,276.0,2700.0,17.680892264714494,0.3534838040077356,954.4062708208862,9.422983899159664,1.671339837214529,8.257908365554831,1.3178560332067932,14710,180,4812,7486,689.6007815217796,395.28722463968666,0.007008086338896,True
0.06,0.6040053027740372,3.200000000000001,8606.0,69.44574,0.2,68900.0,0.33,276.0,2700.0,31.385530296225312,0.9411135195446392,2541.006502770526,16.728740739757853,4.590614321033407,14.65678955646746,3.649500801488768,6645,126,2178,3372,689.8571667943551,394.7994970058547,0.0083928488009003,True
0.0699999999999999,0.6887255440452699,3.200000000000001,8607.0,69.44574,0.2,68900.0,0.33,276.0,2700.0,37.05930657920746,1.2963573527521393,3500.164852430776,19.80841706666609,6.137059171181783,17.250889512541367,4.840701818429644,7647,138,2508,3879,713.8567340123296,408.160771888621,0.008554952903083,True
0.08,0.3905874596112738,3.200000000000001,8608.0,69.44574,0.05,68900.0,0.33,276.0,2700.0,17.227275229998938,0.688018678907532,1857.6504330503365,9.77033429033621,1.783285336848343,7.456940939662727,1.095266657940811,56967,354,18766,28744,336.91889266781993,194.1688780103733,0.0038284100088227,True
0.09,0.6368145925276192,3.200000000000001,8609.0,69.44574,0.2,68900.0,0.33,276.0,2700.0,32.6517753010709,1.4678030745185415,3963.0683012000623,17.899992870191227,5.15861242954778,14.751782430879672,3.690809355029239,6746,128,2212,3422,524.3284239162489,301.0616459428159,0.0061519561970473,True
0.0999999999999999,0.7969420358417831,3.200000000000001,8610.0,69.44574,0.3,68900.0,0.33,276.0,2700.0,44.12127272077716,2.203969240936465,5950.716950528456,24.004581054520493,8.50504941454379,20.116691666256663,6.301080173607325,4097,104,1348,2069,739.3339688366752,426.5844927200096,0.0107037966513102,True
0.11,0.6591948645977661,3.200000000000001,8611.0,69.44574,0.1,68900.0,0.33,276.0,2700.0,33.54688687217308,1.8422911380882288,4974.186072838219,18.71446307525123,5.5683096947734265,14.832423796921852,3.726018556685197,27891,258,9186,14106,424.53320902039263,243.9685249849787,0.0053349235710856,True
0.12,0.4793650707485835,3.200000000000001,8612.0,69.44574,0.2,68900.0,0.33,276.0,2700.0,21.374169328078025,1.2788310449477476,3452.8438213589184,12.525843871226735,2.7715206110276798,8.848325456851287,1.4926895660799318,4546,102,1490,2305,287.3758703111407,165.91064504587143,0.0033519215522409,True
0.13,0.4514298794850902,3.200000000000001,8613.0,69.44574,0.08,68900.0,0.33,276.0,2700.0,19.39847657736521,1.256299591488781,3392.008897019708,11.637423573245291,2.43406351987224,7.761053004119917,1.1777639283834591,25220,236,8282,12741,250.85933932742603,144.77164033766164,0.0029168050698706,False
0.14,0.6292994921644355,3.200000000000001,8614.0,69.44574,0.3,68900.0,0.33,276.0,2700.0,30.47583909972172,2.127561716819552,5744.41663541279,17.62932411708365,5.025110126971007,12.84651498263807,2.897548410151455,3022,86,988,1534,325.44949037703987,187.8751703413349,0.0040293972390886,True
0.15,0.7085071926771238,3.200000000000001,8615.0,69.44574,0.1,68900.0,0.33,276.0,2700.0,35.70276471116122,2.670638769866523,7210.724678639612,20.55347975481017,6.536255389347095,15.149284956351057,3.865616619480572,29658,268,9816,14922,324.2981475095848,187.0137671089626,0.0043811005992344,True
0.16,0.655762024146558,3.200000000000001,8616.0,69.44574,0.2,68900.0,0.33,276.0,2700.0,31.645165965265026,2.5230346348818005,6812.193514180861,18.588716658246373,5.504281847326047,13.056449307018651,2.981247212444247,6646,126,2186,3361,286.73390556827803,165.51481061670873,0.0037505008010145,True
0.17,0.822387160560504,3.200000000000001,8617.0,69.44574,0.3,68900.0,0.33,276.0,2700.0,43.49935346857414,3.687155281690743,9955.319260565006,25.03397079663837,9.12891094425088,18.46538267193577,5.441755662560139,4310,104,1414,2183,338.8891399334706,195.36864971623424,0.0047269345134827,True
0.18,0.7885049627637206,3.200000000000001,8618.0,69.44574,0.3,68900.0,0.33,276.0,2700.0,40.554621605332215,3.637701432242749,9821.79386705542,23.66684917398429,8.303947002122001,16.88777243134793,4.666245569879253,3924,100,1286,1989,308.7165107142517,178.10169435923797,0.0042473036323572,True
0.19,0.7134462134634679,3.200000000000001,8619.0,69.44574,0.3,68900.0,0.33,276.0,2700.0,34.708684095132604,3.2829595330302763,8863.990739181747,20.74103900240041,6.638232380261924,13.967645092732198,3.3552728472316478,3132,88,1034,1575,271.37409950002416,156.41941811220687,0.0035561083734889,False
0.2,0.8471279825669453,3.200000000000001,8620.0,69.44574,0.3,68900.0,0.33,276.0,2700.0,44.32422795497766,4.415667634678623,11922.30261363228,26.05047070084525,9.76081476379578,18.273757254132413,5.345147129117156,4257,104,1396,2157,297.80184697855384,171.8448183732065,0.0042270784227159,True
0.21,0.9096057952326576,3.200000000000001,8621.0,69.44574,0.3,68900.0,0.33,276.0,2700.0,48.9029048119666,5.115408812213232,13811.603792975728,28.685907339680146,11.47020856784008,20.216997472286454,6.354799755626848,4621,110,1518,2338,300.97951680919635,173.587498384018,0.0044326527354812,True
0.22,0.7130152007601039,3.200000000000001,8622.0,69.44574,0.3,68900.0,0.33,276.0,2700.0,33.69173781275235,3.683790040352479,9946.233108951692,20.724646884249,6.629296261744199,12.96709092850335,2.94550622139172,3107,88,1024,1565,237.3448965192964,136.8680460719792,0.0031131233296139,False
0.23,0.75917270241199,3.200000000000001,8623.0,69.44574,0.2,68900.0,0.33,276.0,2700.0,36.66514570143793,4.191009250454262,11315.724976226507,22.50661501493833,7.62681382176878,14.1585306864996,3.4358045713145184,7370,136,2434,3713,236.22853653904164,136.30832883862385,0.0032373421851607,False
0.24,0.7086157980180203,3.200000000000001,8624.0,69.44574,0.1,68900.0,0.33,276.0,2700.0,32.73926173321747,3.899758490090616,10529.347923244664,20.557597448732395,6.538487830621567,12.181664284485072,2.6387293405309507,36481,254,8974,20678,218.61227660953912,126.07859434379836,0.0028876339795667,False
0.25,0.8351160005949244,3.200000000000001,8625.0,69.44574,0.2,68900.0,0.33,276.0,2700.0,41.62171285617185,5.169989183546592,13958.9707955758,25.555025761623337,9.450876247180194,16.06668709454851,4.280887063633601,8467,148,2802,4258,237.52670745275864,137.12484358394877,0.0033827100596721,False
0.26,0.8772263919145569,3.200000000000001,8626.0,69.44574,0.3,68900.0,0.33,276.0,2700.0,44.5052971258201,5.748877538036867,15521.96935269954,27.30783383184016,10.56375770276848,17.197463293979943,4.814880164731612,4243,104,1396,2143,244.8474677032472,141.27058338451943,0.0034793912624897,False
0.27,0.7208646801007299,3.200000000000001,8627.0,69.44574,0.3,68900.0,0.33,276.0,2700.0,32.643558190982496,4.365656376982236,11787.272217852038,21.023907177195195,6.793147455113315,11.6196510137873,2.4274910781310792,3279,88,1076,1659,195.5897632888804,112.9086728230568,0.0026432797091131,False
0.28,0.9318446411501816,3.200000000000001,8628.0,69.44574,0.3,68900.0,0.33,276.0,2700.0,48.09324358725484,6.687077940927943,18055.110440505447,29.64766051555636,12.11882114613768,18.445583071698483,5.431743205209737,4506,108,1486,2271,239.21896997888004,138.08946140381576,0.0038152570986925,False
0.29,0.6669149919734105,3.200000000000001,8629.0,69.44574,0.1,68900.0,0.33,276.0,2700.0,28.361902535505436,4.06139566549602,10965.768296839256,18.998336643599217,5.713882539856125,9.363565891906216,1.6524868743601049,36800,230,7646,22049,181.45120191348423,104.64437639320506,0.0023048922776535,False
0.3,0.9112001743600338,3.200000000000001,8630.0,69.44574,0.3,68900.0,0.33,276.0,2700.0,45.73771820259528,6.804109062624686,18371.094469086653,28.75444509956075,11.51599940885066,16.98327310303453,4.711890346225973,4360,106,1440,2194,222.4197464272502,128.34481537327528,0.0032141922599682,False
0.31,0.786701142918538,3.200000000000001,8631.0,69.44574,0.3,68900.0,0.33,276.0,2700.0,36.03515253199482,5.523054517963734,14912.247198502082,23.594875288981463,8.261321196163312,12.440277243013355,2.7382666781995777,3464,92,1138,1751,187.11398087309996,107.87549784608416,0.0026055275458119,False
0.32,0.93540180522364,3.200000000000001,8632.0,69.44574,0.3,68900.0,0.33,276.0,2700.0,46.93516422731837,7.44099713765572,20090.692271670443,29.802648657969826,12.224558303842404,17.132515569348552,4.7835611661866855,4351,106,1440,2185,215.88465014207225,124.5864994803548,0.0031374764178491,False
0.33,0.9352111660252778,3.200000000000001,8633.0,69.44574,0.2,68900.0,0.33,276.0,2700.0,46.56564401749487,7.608064986091941,20541.77546244824,29.7943343089234,12.218877543328103,16.77130970857147,4.610812557236162,9699,158,3136,4931,213.6704705393336,123.36267002721158,0.0030520865636776,False
0.34,0.8233509922133372,3.200000000000001,8634.0,69.44574,0.3,68900.0,0.33,276.0,2700.0,37.72748938625793,6.331355090559389,17094.65874451035,25.07328274143477,9.153058420873885,12.654206644823155,2.821703330314496,3754,96,1246,1879,178.0259356062778,102.75147250180204,0.0025410704118946,False
0.3500000000000001,0.8447665208797484,3.200000000000001,8635.0,69.44574,0.3,68900.0,0.33,276.0,2700.0,38.97682587221992,6.731147337623327,18174.097811582986,25.95278372239319,9.699412944911256,13.02404214982673,2.9682656072879308,3701,96,1224,1859,178.95317481300498,103.1684792345444,0.0025571215614056,False
0.36,0.7065696313818028,3.200000000000001,8636.0,69.44574,0.1,68900.0,0.33,276.0,2700.0,28.957617388966305,5.114655032116676,13809.568586715026,20.48006832261428,6.4965028972992265,8.477549066352026,1.38184786518255,43497,234,7966,26840,162.25697238709904,93.6412800131062,0.0020780817292886,False
0.37,0.957356882453296,3.200000000000001,8637.0,69.44574,0.3,68900.0,0.33,276.0,2700.0,46.91104478534535,8.572455890167367,23145.630903451893,30.76628554216288,12.88943395309843,16.14475924318247,4.316978062931064,4720,110,1564,2368,190.69771982859552,110.05724350296578,0.0028397451639999,False
0.38,0.7270905243718881,3.200000000000001,8638.0,69.44574,0.08,68900.0,0.33,276.0,2700.0,29.75493056930079,5.53851316010863,14953.985532293302,21.262367812848296,6.924780831139903,8.492562756452493,1.3862676710312725,84591,296,12664,54495,159.3008747279523,91.93384279293136,0.002056229921927,False
0.39,0.9405179601277566,3.200000000000001,8639.0,69.44574,0.2,68900.0,0.33,276.0,2700.0,44.9034313447835,8.631931689153921,23306.215560715587,30.02612074885612,12.377604649374296,14.87731059592738,3.745672960220373,12172,154,3026,6861,187.8924788052697,108.46705878059768,0.0026906125567,False
0.4,0.7216088351994638,3.200000000000001,8640.0,69.44574,0.08,68900.0,0.33,276.0,2700.0,28.8184555503303,5.629649823512896,15200.054523484818,21.052358347296348,6.808803088013107,7.766097203033951,1.1791532645002114,84770,290,12218,54955,165.04007215840036,93.4881740706936,0.0019630803498696,False
0.4100000000000001,0.9554909646773266,3.200000000000001,8641.0,69.44574,0.2,68900.0,0.33,276.0,2700.0,45.39091771728947,9.160790327192304,24734.13388341922,30.683916938148467,12.832103454132142,14.707000779141,3.671313126939838,12538,156,3118,7063,183.02054923420164,105.66684391517651,0.0026328699703886,False
0.42,0.791448869951132,3.200000000000001,8642.0,69.44574,0.1,68900.0,0.33,276.0,2700.0,32.98674750004911,6.772047430664208,18284.52806279336,23.784489113553867,8.373793116604851,9.202258386495243,1.6017456859406431,53934,250,8880,34030,169.9615739389936,96.77497022942468,0.002968362482784,False
0.43,1.0686778862226936,3.200000000000001,8643.0,69.44574,0.3,68900.0,0.33,276.0,2700.0,53.80607123577242,11.401786244285086,30784.822859569733,35.83874917175532,16.593814331172098,17.967322064017104,5.192028086887012,5120,116,1698,2563,187.3733957728319,108.0858725717226,0.0028564061234271,False
0.44,1.0891005644897744,3.200000000000001,8644.0,69.44574,0.3,68900.0,0.33,276.0,2700.0,55.14869099888679,11.95430306735282,32276.61828185261,36.80314146528981,17.335567471692528,18.34554953359698,5.381264404339708,5092,116,1694,2541,184.267184819432,106.09948866392644,0.0028847308145567,False
0.45,1.0480271885824428,3.200000000000001,8645.0,69.44574,0.2,68900.0,0.33,276.0,2700.0,51.39249124539341,11.372458776507942,30705.638696571445,34.87424814870549,15.863696412048096,16.518243096687918,4.491237635540154,13740,164,3384,7770,182.56412893487604,105.35693732144802,0.002726196806611,False
0.46,0.9692598315228252,3.200000000000001,8646.0,69.44574,0.1,68900.0,0.33,276.0,2700.0,44.79209490617278,10.098321786733202,27265.468824179643,31.293785829853867,13.258779355481288,13.498309076318913,3.160457568748086,77357,298,11688,49717,221.0191650669462,115.79048761818022,0.0024471560066947,False
0.4700000000000001,0.885094858672498,3.200000000000001,8647.0,69.44574,0.2,68900.0,0.33,276.0,2700.0,38.15150367706585,8.748156981394704,23620.0238497657,27.64029366595896,10.7799354397797,10.511210011106886,2.0317784583849967,10198,138,2516,5760,156.1645848675272,90.15726078118354,0.0021580801469717,False
0.4800000000000001,0.9830927643541788,3.200000000000001,8648.0,69.44574,0.3,68900.0,0.33,276.0,2700.0,45.207148316182426,10.618092252719922,28668.84908234379,31.911290431312317,13.695929599020268,13.295857884870111,3.077837346300345,4347,104,1418,2190,163.89333246910212,94.60225667544934,0.0023678269123383,False
0.49,1.1678392033026002,3.200000000000001,8649.0,69.44574,0.3,68900.0,0.33,276.0,2700.0,60.02201060277225,14.45898910827773,39039.27059234987,40.61942491083352,20.38261881313201,19.402585691938725,5.923629704854282,6112,124,1914,3147,183.9895816709653,105.94333477275664,0.0028859774016921,False
0.5,0.9091957106091488,3.200000000000001,8650.0,69.44574,0.2,68900.0,0.33,276.0,2700.0,38.999784529825504,9.488146744657223,25617.996210574503,28.66828931411163,11.458448530913808,10.331495215713876,1.9703017862565844,10939,140,2658,6222,154.66659536563432,89.29406517367391,0.0021148406235854,False
0.04,0.3656613992650731,3.200000000000001,8654.0,72.46512,0.1,68900.0,0.33,276.0,2700.0,16.912827932147934,0.3381225173564045,912.9307968622924,9.032286195743175,1.5489801458180334,7.8805417364047585,1.2108576284616288,14271,176,4672,7257,670.3878042474445,383.4463872308326,0.0070217111948339,True
0.05,0.5644069259018232,3.200000000000001,8655.0,72.46512,0.1,68900.0,0.33,276.0,2700.0,29.01916561867867,0.7252173410791652,1958.086820913746,15.351157001055428,3.9555884247862143,13.668008617623244,3.230371083707049,24274,238,7948,12346,908.4856157901936,518.9744787652354,0.0095185459888555,True
0.06,0.7070287768672323,3.200000000000001,8656.0,72.46512,0.2,68900.0,0.33,276.0,2700.0,38.76760539704436,1.1625757725692163,3138.954585936884,20.49745615961342,6.505910219781542,18.270149237430942,5.343334447212326,8206,144,2690,4165,847.2412660179788,484.5751178500324,0.0106455300418705,True
0.0699999999999999,0.6664405524345306,3.200000000000001,8657.0,72.46512,0.2,68900.0,0.33,276.0,2700.0,35.44337430574945,1.239799723181106,3347.459252588986,18.9808480274768,5.704873126648601,16.462526278272655,4.465073403467495,7241,134,2378,3668,701.1611149321304,401.56651415156966,0.0085713568233636,True
0.08,0.7279489489872407,3.200000000000001,8658.0,72.46512,0.2,68900.0,0.33,276.0,2700.0,39.59894789777265,1.5828855856184847,4273.7910811699085,21.29532338474392,6.94304711466335,18.303624513028733,5.360161529044865,8244,144,2698,4191,673.8530794643252,385.96979394136486,0.0084627450279571,True
0.09,0.578323888137801,3.200000000000001,8659.0,72.46512,0.1,68900.0,0.33,276.0,2700.0,28.64573524482493,1.2875312719874803,3476.334434366197,15.83082141387109,4.172561987443883,12.814913830953843,2.885030715456403,23636,236,7766,11981,479.2515712332144,275.3990553861417,0.0056927649026731,True
0.0999999999999999,0.4719841005960026,3.200000000000001,8660.0,72.46512,0.2,68900.0,0.33,276.0,2700.0,21.507221214368958,1.0732666656160517,2897.8199971633394,12.289201116478848,2.679941900001521,9.218020097890106,1.6066752343854696,4353,100,1430,2202,353.12790400686714,203.8582863336738,0.0040510907041156,True
0.11,0.7755553031404728,3.200000000000001,8661.0,72.46512,0.3,68900.0,0.33,276.0,2700.0,42.10019236264407,2.312722940064133,6244.351938173159,23.1519609440002,8.000807722763733,18.948231418643868,5.6880847826996,4031,102,1318,2048,510.8099457674549,294.8910472680985,0.0068443241264936,True
0.12,0.4467728163451474,3.200000000000001,8662.0,72.46512,0.08,68900.0,0.33,276.0,2700.0,19.403223113718223,1.160574272086158,3133.5505346326267,11.491222802287904,2.38020794815732,7.912000311430319,1.2196336760711617,24987,236,8268,12577,272.8256371161247,157.41009029717532,0.0032273026988215,False
0.13,0.4343550541947557,3.200000000000001,8663.0,72.46512,0.2,68900.0,0.33,276.0,2700.0,18.387521708286208,1.1905875249986462,3214.5863174963447,11.104052222945198,2.2399205830729243,7.28346948534101,1.049333058074278,3917,94,1276,1997,257.77459012711483,148.79096139886522,0.0029135528368769,False
0.14,0.7120992766304388,3.200000000000001,8664.0,72.46512,0.3,68900.0,0.33,276.0,2700.0,36.30550947635872,2.535638643184144,6846.224336597189,20.689828294376596,6.6103300047867375,15.61568118198213,4.074691361602593,3309,90,1084,1677,379.89050849391833,218.54235772789724,0.0049076899927867,True
0.15,0.8194839512812637,3.200000000000001,8665.0,72.46512,0.3,68900.0,0.33,276.0,2700.0,44.00882917609004,3.2935936047361527,8892.702732787613,24.915698249004528,9.056403824166722,19.09313092708551,5.76281021943057,4463,106,1464,2261,399.47143872387386,230.4357969593984,0.005508868825647,True
0.16,0.6330144265980135,3.200000000000001,8666.0,72.46512,0.3,68900.0,0.33,276.0,2700.0,30.0850985920351,2.3982292450234053,6475.218961563194,17.762946213010395,5.0908500014596925,12.322152379024704,2.692620756436287,2971,84,964,1519,306.18874541916745,176.77697877269634,0.0037452715104335,True
0.17,0.5985851326729201,3.200000000000001,8667.0,72.46512,0.3,68900.0,0.33,276.0,2700.0,27.46332296191129,2.3240926886244018,6275.050259285885,16.537851074771257,4.500459361374991,10.925471887140034,2.176366672750589,2779,80,914,1402,270.7812304286271,155.5870834070274,0.0033167722121396,False
0.18,0.7805780010747606,3.200000000000001,8668.0,72.46512,0.3,68900.0,0.33,276.0,2700.0,39.95911773522522,3.584106083933116,9677.086426619411,23.35116687401351,8.117593039397482,16.60795086121171,4.533486955464367,3975,100,1300,2019,322.1877567582616,185.8385851709768,0.004370940540808,True
0.19,0.740084270382164,3.200000000000001,8669.0,72.46512,0.2,68900.0,0.33,276.0,2700.0,36.62578164888088,3.4650838006363367,9355.72626171811,21.763189081455,7.204307815509155,14.862592567425883,3.739224014872818,7648,138,2524,3856,284.6430328715024,164.1473385379988,0.0038893837897676,True
0.2,0.5812480490931253,3.200000000000001,8670.0,72.46512,0.2,68900.0,0.33,276.0,2700.0,25.42419465340385,2.525664304521241,6819.2936222073495,15.932224893467705,4.219002064993351,9.491969759936149,1.6933377604721105,5184,110,1704,2622,221.47664701702072,127.86769811623368,0.0027782882941526,False
0.21,0.8292846741452307,3.200000000000001,8671.0,72.46512,0.3,68900.0,0.33,276.0,2700.0,42.58664506211796,4.452201538479116,12020.944153893612,25.31581501984928,9.302554422795415,17.27083004226868,4.850352884316299,4213,102,1382,2134,290.4349541778315,167.46561312803084,0.0041003254624106,True
0.23,0.5933611301771158,3.200000000000001,8673.0,72.46512,0.05,68900.0,0.33,276.0,2700.0,25.31953226400329,2.88626370514956,7792.912003903811,16.35456887238488,4.414544618012014,8.964963391618408,1.5282809128624546,180741,432,27280,116331,237.9065807726848,132.7057287995785,0.0025548135048853,False
0.24,0.8357414322466594,3.200000000000001,8674.0,72.46512,0.3,68900.0,0.33,276.0,2700.0,42.0187285911396,5.013294513041264,13535.895185211411,25.58073275792606,9.46686720762461,16.437995833213538,4.453572694583346,4200,102,1376,2130,259.76967040686026,149.97333709730782,0.0036694624167936,False
0.25,0.924033674269245,3.200000000000001,8675.0,72.46512,0.3,68900.0,0.33,276.0,2700.0,48.56986918291734,6.038508724389772,16303.973555852386,29.308447035385623,11.888570042480586,19.261422147531714,5.850061318090813,4633,110,1520,2347,272.407861637412,157.24032996698463,0.0040228910369164,False
0.26,0.6162712513723049,3.200000000000001,8676.0,72.46512,0.08,68900.0,0.33,276.0,2700.0,25.921751773964147,3.333016642295676,8999.144934198324,17.163453813370456,4.798470414057415,8.75829796059369,1.465453771761739,57963,274,10868,35641,192.76014107270865,111.24100285698955,0.0024097219560562,False
0.27,0.8139764223044643,3.200000000000001,8677.0,72.46512,0.3,68900.0,0.33,276.0,2700.0,39.3477256142411,5.270718979122142,14230.941243629784,24.691911587316305,8.919796499733012,14.655814026924794,3.64907752061087,3952,98,1306,1987,230.6902228423885,133.1315577344709,0.0031954836691645,False
0.28,0.8427042841947279,3.200000000000001,8678.0,72.46512,0.3,68900.0,0.33,276.0,2700.0,41.16039713052916,5.716479436986296,15434.494479863,25.86758947377804,9.645980025962295,15.29280765675112,3.929500588976001,3888,98,1288,1950,228.87718618766596,131.77590568375098,0.0032314559758607,False
0.29,0.9533181722920993,3.200000000000001,8679.0,72.46512,0.3,68900.0,0.33,276.0,2700.0,49.45400513734244,7.119750542762375,19223.326465458413,30.588112012132296,12.765537776650838,18.86589312521014,5.645787233888463,4479,108,1474,2262,246.94679079763625,142.49015499366485,0.003665374306265,False
0.3,0.6891008325586221,3.200000000000001,8680.0,72.46512,0.1,68900.0,0.33,276.0,2700.0,29.54833866719066,4.375702132313981,11814.395757247748,19.822460539173896,6.14449567764085,9.725878128016763,1.7687935453268695,41336,238,8136,25126,188.4457635272625,108.74161911550696,0.0024296253110601,False
0.31,0.7915764960002809,3.200000000000001,8681.0,72.46512,0.1,68900.0,0.33,276.0,2700.0,36.38660542323226,5.5775297161056105,15059.330233485149,23.789594037647408,8.376828962737736,12.597011385584851,2.799299246632126,51105,268,9814,31248,213.8689445254032,119.63450121547146,0.0027706940769334,False
0.32,1.005543767357693,3.200000000000001,8682.0,72.46512,0.3,68900.0,0.33,276.0,2700.0,52.61323964235336,8.34948920406132,22543.620850965563,32.92374393086168,14.423711673663677,19.68949571149168,6.074222469602358,5146,116,1706,2581,238.80325658592588,137.85590591306536,0.0035858246075403,False
0.33,0.6900274714170351,3.200000000000001,8683.0,72.46512,0.1,68900.0,0.33,276.0,2700.0,28.724782977049323,4.664322914418368,12593.671868929594,19.85715096093571,6.162880010925811,8.867632016113614,1.4985570965074428,41573,232,7828,25537,176.7112644175853,101.95897750165396,0.0022572929840158,False
0.34,0.8547949932701895,3.200000000000001,8684.0,72.46512,0.3,68900.0,0.33,276.0,2700.0,40.04942959566471,6.726084926158546,18160.42930062807,26.36859941623693,9.961762605693112,13.680830179427783,3.2356776795345663,3750,96,1240,1884,197.26231689895317,113.86584401051638,0.0027746263276769,False
0.3500000000000001,0.9818863512597495,3.200000000000001,8685.0,72.46512,0.3,68900.0,0.33,276.0,2700.0,49.57957842945132,8.586629035138875,23183.898394874963,31.85724451350553,13.657464004912711,17.722333915945782,5.070834969773838,4818,112,1590,2427,214.64492009816587,123.77597952511417,0.0032195461050087,False
0.36,0.9994244668122884,3.200000000000001,8686.0,72.46512,0.3,68900.0,0.33,276.0,2700.0,50.64085512058148,9.017637823807416,24347.622124280024,32.64653125178346,14.22309004323454,17.99432386879802,5.205452219427125,4782,112,1576,2412,212.92587141422865,122.91535220639936,0.0032124937721521,False
0.37,0.8736562696479866,3.200000000000001,8687.0,72.46512,0.3,68900.0,0.33,276.0,2700.0,40.471818414901925,7.381199011635329,19929.23733141539,27.15750157611187,10.466533844724104,13.314316838790056,3.0853348330887758,3811,98,1264,1909,183.2236970505759,105.733862462861,0.0026521558539991,False
0.38,0.9091995389068744,3.200000000000001,8688.0,72.46512,0.2,68900.0,0.33,276.0,2700.0,42.827880954497004,8.022373733295913,21660.409079898964,28.6684537656141,11.458558281975366,14.159427188882905,3.436184548679453,11186,150,2926,6197,196.75286787132208,113.57140774582912,0.0027509046747012,False
0.39,0.9007669703145582,3.200000000000001,8689.0,72.46512,0.3,68900.0,0.33,276.0,2700.0,41.85504104459298,8.037495580616762,21701.238067665257,28.307110587351552,11.218334360580636,13.547930457241428,3.1808387799638744,3844,98,1274,1927,181.86632698704167,104.95104497023944,0.0026322525411145,False
0.4,0.9840826199731492,3.200000000000001,8690.0,72.46512,0.2,68900.0,0.33,276.0,2700.0,47.9863888562623,9.463236484699298,25550.738508688104,31.955662142670217,13.727539127924896,16.030726713592085,4.2643026432256,12769,158,3130,7232,199.46426258916452,115.03114193661985,0.0029069962542636,False
0.4100000000000001,0.90462964431697,3.200000000000001,8691.0,72.46512,0.2,68900.0,0.33,276.0,2700.0,41.49199611503144,8.361511398729405,22576.080776569397,28.472407834370053,11.327994624714847,13.01958828066138,2.966483225985444,11358,146,2830,6393,184.52584354169983,106.5329284633112,0.0025711732481265,False
0.42,1.0229060001597048,3.200000000000001,8692.0,72.46512,0.3,68900.0,0.33,276.0,2700.0,50.40536539774892,10.429957189180747,28160.884410788018,33.715400015809,15.00220287749334,16.68996538193992,4.572245688312593,4876,112,1626,2431,192.29417188351184,110.85249265176026,0.002898518660048,False
0.43,1.00166043505762,3.200000000000001,8693.0,72.46512,0.3,68900.0,0.33,276.0,2700.0,48.3482648746007,10.228357876633169,27616.56626690955,32.747714555712335,14.296199748348126,15.600550318888368,4.067841871714959,4371,106,1458,2176,182.8513454230885,105.41092483847848,0.0027651343248466,False
0.44,0.7981074309147922,3.200000000000001,8694.0,72.46512,0.1,68900.0,0.33,276.0,2700.0,32.863072066510135,7.051466902229967,19038.96063602091,24.051371871497235,8.533051496613197,8.8117001950129,1.4815845943832304,56685,250,8988,36071,160.56797123245013,92.62285059233314,0.0021214853509318,False
0.45,0.8276545856403021,3.200000000000001,8695.0,72.46512,0.08,68900.0,0.33,276.0,2700.0,34.63454819174744,7.6019215894375956,20525.188291481507,25.24909891106262,9.26134178939145,9.38544928068482,1.6594201999538545,112673,320,14554,74218,182.3505294107752,102.53672381195528,0.0021727096204701,False
0.46,1.0893613864617064,3.200000000000001,8696.0,72.46512,0.3,68900.0,0.33,276.0,2700.0,54.44707324306626,12.318966804218691,33261.210371390465,36.815525697633085,17.34516815462556,17.63154754543318,5.02620135040687,5195,116,1702,2618,190.3482349997804,109.79528036319756,0.0029004788143909,False
0.4700000000000001,1.0416660829245523,3.200000000000001,8697.0,72.46512,0.3,68900.0,0.33,276.0,2700.0,50.180053807498695,11.574866262046248,31252.13890752487,34.57930878597811,15.642796244143598,15.600745021520588,4.067929982097351,4613,108,1532,2303,177.7522923734399,102.4904867320065,0.0026917573653257,False
0.4800000000000001,0.9167792861398356,3.200000000000001,8698.0,72.46512,0.1,68900.0,0.33,276.0,2700.0,40.17411030831144,9.410163130830698,25407.440453242885,28.99477795027172,11.67709373043786,11.179332358039716,2.2669305996071607,72546,280,10692,46860,166.05624115026566,95.8417887052225,0.0023162318712918,False
0.49,0.8985349563847298,3.200000000000001,8699.0,72.46512,0.08,68900.0,0.33,276.0,2700.0,38.52318601370279,9.191777083955966,24817.798126681108,28.2117658986515,11.15525892406205,10.311420115051291,1.963481840106084,133641,342,16238,88834,183.9543835471933,103.635172850498,0.0022302559179679,False
0.5,0.8296899896005281,3.200000000000001,8700.0,72.46512,0.05,68900.0,0.33,276.0,2700.0,33.327132457035994,8.069983726459851,21788.9560614416,25.33241409963879,9.312818677678743,7.994718357397204,1.242834951218894,438496,498,35480,305296,204.70601486132497,116.40667158112302,0.0020159400422111,False
0.04,0.3983626864916498,3.200000000000001,8704.0,75.4845,0.1,68900.0,0.33,276.0,2700.0,18.82288055567048,0.37632356982686,1016.073638532522,10.003749967298688,1.8601583481163075,8.819130588371792,1.4838347782894474,15902,188,5214,8075,777.0553808047841,444.0024579426503,0.0080710880000724,True
0.05,0.5287096646786779,3.200000000000001,8705.0,75.4845,0.1,68900.0,0.33,276.0,2700.0,26.647840630733988,0.6659342163805474,1798.022384227478,14.1430652563607,3.429252218104342,12.504775374373288,2.763318001723795,22197,228,7284,11265,917.196512611222,524.0578628875076,0.0091611043183839,True
0.06,0.5090856937652772,3.200000000000001,8706.0,75.4845,0.1,68900.0,0.33,276.0,2700.0,25.056343023400125,0.7512379013599839,2028.3423336719568,13.492579404222983,3.1581075023624026,11.56376361917714,2.406869601002419,20819,218,6824,10577,691.8475981348422,396.2512712871272,0.0073941148991801,True
0.0699999999999999,0.6494179375378097,3.200000000000001,8707.0,75.4845,0.2,68900.0,0.33,276.0,2700.0,34.225844967753545,1.197186196351253,3232.402730148382,18.357109484345603,5.387088621654497,15.868735483407942,4.189902425303244,7220,134,2378,3647,752.5281488624387,431.04691944518,0.0086420056790933,True
0.08,0.5341551276706666,3.200000000000001,8708.0,75.4845,0.1,68900.0,0.33,276.0,2700.0,26.04851534841379,1.0408682836440757,2810.344365839004,14.325284311549462,3.506763551920121,11.723231036864329,2.465895268276045,21753,224,7132,11049,521.9752771491386,299.3892570925967,0.0060037709470371,True
0.09,0.5478279726957218,3.200000000000001,8709.0,75.4845,0.1,68900.0,0.33,276.0,2700.0,26.625267323975237,1.1966102155492369,3230.84758198294,14.78609738563599,3.705775903656567,11.839169938339245,2.50916568810733,22155,226,7284,11223,472.5524002127384,271.2472726147041,0.0055524727925999,True
0.0999999999999999,0.7539534683396953,3.200000000000001,8710.0,75.4845,0.3,68900.0,0.33,276.0,2700.0,40.825022544052345,2.039156732100226,5505.72317667061,22.30243493901693,7.509879659402985,18.52258760503541,5.470722927302759,3807,98,1246,1932,577.4715381854234,332.157967890598,0.0075207107054333,True
0.11,0.4429909159982427,3.200000000000001,8711.0,75.4845,0.08,68900.0,0.33,276.0,2700.0,19.46147323987893,1.067593388312058,2882.502148442556,11.372897375001322,2.336973149431532,8.088575864877612,1.2693797611194737,25023,236,8274,12606,305.3787572452619,176.07838775535492,0.0035983187885536,True
0.12,0.7683832201901355,3.200000000000001,8712.0,75.4845,0.3,68900.0,0.33,276.0,2700.0,41.188037446123566,2.4676631320304816,6662.690456482301,22.868607031868564,7.8357768299622945,18.319430414255,5.368113697931813,4032,102,1316,2052,489.0036547955365,282.29402580423624,0.0064989709824864,True
0.13,0.4584507174473333,3.200000000000001,8713.0,75.4845,0.2,68900.0,0.33,276.0,2700.0,19.818413419186108,1.2835954862071384,3465.7078127592736,11.85886143289714,2.5165445999314966,7.959551986288968,1.2329491137243582,4120,98,1354,2083,278.4438195862843,160.75959446099242,0.0032257685982886,True
0.14,0.4534195330728456,3.200000000000001,8714.0,75.4845,0.05,68900.0,0.33,276.0,2700.0,19.23614250086908,1.3407829548998689,3620.113978229646,11.70005163271568,2.4572802490121166,7.536090868153403,1.1164972941122475,94191,372,20608,55615,258.20341057735857,147.60816092071562,0.0029985046418426,False
0.15,0.5199634859097533,3.200000000000001,8715.0,75.4845,0.2,68900.0,0.33,276.0,2700.0,23.010509468623283,1.7187196266761695,4640.542992025657,13.851955619104617,3.306828890739712,9.158553849518668,1.5881092640635426,4901,106,1610,2480,271.226236092218,156.53494286904717,0.0032771435864375,False
0.16,0.5995895447579866,3.200000000000001,8716.0,75.4845,0.2,68900.0,0.33,276.0,2700.0,27.839953823991507,2.21861766357992,5990.267691665784,16.573169116517732,4.517087913667257,11.266784707473777,2.2984702500873366,5704,116,1872,2890,289.24342805603203,166.78403291793714,0.0036580591853692,True
0.17,0.7351138106480446,3.200000000000001,8717.0,75.4845,0.3,68900.0,0.33,276.0,2700.0,36.94651351126155,3.1301638853191696,8451.442490361758,21.571110243823444,7.0966123777444325,15.375403267438106,3.966448492425263,3510,92,1150,1779,332.4444726268615,191.928992019502,0.0044469335768919,True
0.18,0.5284400036923977,3.200000000000001,8718.0,75.4845,0.2,68900.0,0.33,276.0,2700.0,22.66555157447825,2.0276851294658846,5474.749849557888,14.134061079847587,3.4254395992569147,8.531490494630667,1.39775446979103,4609,104,1516,2329,231.48278631116312,133.54402796526898,0.0028461896168943,False
0.19,0.5606585568133299,3.200000000000001,8719.0,75.4845,0.1,68900.0,0.33,276.0,2700.0,24.401795221005443,2.303805089988199,6220.273742968138,15.22279716477146,3.8982873027346927,9.178998056233985,1.5944822127464937,26320,214,6668,14766,238.57859273329413,137.6980287630032,0.0029222003479558,False
0.2,0.8006171039468624,3.200000000000001,8720.0,75.4845,0.3,68900.0,0.33,276.0,2700.0,40.761578902929045,4.059402729473759,10960.38736957915,24.15225158715305,8.593539130428065,16.609327315776,4.5341364009543055,3922,100,1286,1987,309.86317464051257,178.7592561047025,0.0042701583480876,True
0.21,0.7062366244163831,3.200000000000001,8721.0,75.4845,0.3,68900.0,0.33,276.0,2700.0,33.53936866001812,3.5022375162586385,9456.041293898325,20.46746066558333,6.489684991191671,13.071907994434785,2.987447474933033,3120,88,1026,1575,267.52380466460585,154.45431598886665,0.0034857000785007,False
0.22,0.5972548139355188,3.200000000000001,8722.0,75.4845,0.08,68900.0,0.33,276.0,2700.0,25.864731211168355,2.8228193141782376,7621.612148281241,16.491112240331148,4.478489841918373,9.373618970837208,1.6556705277401351,47450,274,10826,27623,223.69250456001788,129.08590621893944,0.0027761791673632,False
0.23,0.7082926651450696,3.200000000000001,8723.0,75.4845,0.1,68900.0,0.33,276.0,2700.0,33.03672321350773,3.773740664342449,10189.099793724612,20.545346967784507,6.531846974434712,12.49137624572322,2.758106310092263,36948,256,9102,20933,245.33194278127536,141.6064273356254,0.0032566271978564,False
0.24,0.738592418800207,3.200000000000001,8724.0,75.4845,0.1,68900.0,0.33,276.0,2700.0,34.85419739371565,4.153550769350484,11214.587077246306,21.705472637345476,7.171883426589361,13.14872475637018,3.0183326572388776,38782,262,9504,22014,245.4184266484813,141.60754986069867,0.0032965556237809,False
0.25,0.9004703200539557,3.200000000000001,8725.0,75.4845,0.3,68900.0,0.33,276.0,2700.0,46.6898908266586,5.803511429857435,15669.480860615076,28.294431396759567,11.209938929545263,18.39545942989903,5.406427499687828,4343,106,1424,2201,277.36744895919475,159.9745700694396,0.0040505629553775,True
0.26,0.922442489625471,3.200000000000001,8726.0,75.4845,0.3,68900.0,0.33,276.0,2700.0,48.07323091838001,6.212708931069681,16774.31411388814,29.23953331092845,11.841989727292752,18.83369760745156,5.629280796223071,4508,108,1482,2279,275.59877021302725,159.093243480566,0.0040379204089756,False
0.27,0.8581416796835541,3.200000000000001,8727.0,75.4845,0.3,68900.0,0.33,276.0,2700.0,42.68005864973264,5.72058393891351,15445.576635066476,26.507927293038215,10.050243103948889,16.17213135669442,4.329659165035377,4122,102,1354,2085,252.23904150519456,145.63027571165597,0.003555374938853,False
0.28,0.9278301614013946,3.200000000000001,8728.0,75.4845,0.1,68900.0,0.33,276.0,2700.0,47.77243067740505,6.6421641335489765,17933.843160582237,29.473128777334274,12.000151675965595,18.299301900070773,5.357987542416619,59568,316,12932,35250,379.8721488050947,219.1316555071569,0.0061032904836083,True
0.29,0.8637949791388673,3.200000000000001,8729.0,75.4845,0.3,68900.0,0.33,276.0,2700.0,42.41811547588378,6.099546541850889,16468.7756629974,26.743922510517105,10.20076705228159,15.67419296536668,4.101220510430701,4145,102,1368,2087,236.25188253697215,136.2749116993252,0.0033583155440758,False
0.3,0.9207151582538752,3.200000000000001,8730.0,75.4845,0.3,68900.0,0.33,276.0,2700.0,46.48667700633136,6.916452883185091,18674.422784599745,29.164795145628684,11.791547923696776,17.32188186070267,4.875095040511686,4394,106,1450,2213,243.8731769441599,140.57935481094896,0.0035407540366875,False
0.31,0.6402507741090322,3.200000000000001,8731.0,75.4845,0.08,68900.0,0.33,276.0,2700.0,26.034869724397957,3.9730106827862905,10727.128843522984,18.02422550575128,5.220333413328646,8.010644218646672,1.2473227305423555,62872,274,10932,39198,184.84870826522103,105.35138276672348,0.0022800557999692,False
0.32,0.9240773981991336,3.200000000000001,8732.0,75.4845,0.3,68900.0,0.33,276.0,2700.0,46.04162640426743,7.298031085967564,19704.68393211242,29.31034160383385,11.88985156438272,16.731284800433574,4.591820478415157,4382,106,1448,2204,229.5394182014431,132.27708370314016,0.0033583316215975,False
0.33,0.9966961168732636,3.200000000000001,8733.0,75.4845,0.3,68900.0,0.33,276.0,2700.0,51.51350446302693,8.424461959604747,22746.047290932816,32.52323661594472,14.134187119676657,18.99026784708221,5.709725160071908,4771,112,1576,2401,237.7251013833909,136.79854879446188,0.003598546509311,False
0.34,0.9851255384898224,3.200000000000001,8734.0,75.4845,0.3,68900.0,0.33,276.0,2700.0,50.20341728069796,8.452262832614183,22821.109648058293,32.00243911617802,13.760890669596156,18.200978164519935,5.308627836981973,4805,112,1588,2417,229.39546976348817,132.42452004212967,0.0034539373509016,False
0.3500000000000001,0.8385058999444646,3.200000000000001,8735.0,75.4845,0.1,68900.0,0.33,276.0,2700.0,38.51528552996091,6.650377777728059,17956.01999986576,25.69447790223165,9.537741495160738,12.820807627729264,2.887363717432679,56120,276,10312,34650,202.32087834011264,116.74953295433356,0.0027949946509587,False
0.36,0.8977402276830155,3.200000000000001,8736.0,75.4845,0.2,68900.0,0.33,276.0,2700.0,42.62350551683628,7.574514895133283,20451.190216859864,28.177847789477347,11.132851702875053,14.445657727358936,3.55833680774177,10417,150,2948,5609,213.0617247553557,122.96882550586776,0.0029524303961562,False
0.37,0.9894349501281074,3.200000000000001,8737.0,75.4845,0.3,68900.0,0.33,276.0,2700.0,49.472205410698834,9.046270605857767,24424.93063581597,32.19601466302747,13.899219283919289,17.276190747671365,4.852948678061519,4644,110,1542,2325,217.81127632083707,125.64536749070076,0.003218536654107,False
0.38,0.8884004012483122,3.200000000000001,8738.0,75.4845,0.2,68900.0,0.33,276.0,2700.0,41.25046273965671,7.7226642724762575,20851.193535685896,27.78042418272885,10.871533135349049,13.47003855692785,3.148868862872791,10279,142,2660,5717,203.09039720739477,116.67109961115344,0.0027895284641301,False
0.39,1.0602570083833605,3.200000000000001,8739.0,75.4845,0.3,68900.0,0.33,276.0,2700.0,54.56584286461812,10.516101935521672,28393.475225908514,35.444153759155746,16.293683273000376,19.121689105462373,5.777581337478704,5330,118,1766,2675,217.90336990204767,125.703201070659,0.0033627264973578,False
0.4,0.8943351102618387,3.200000000000001,8740.0,75.4845,0.2,68900.0,0.33,276.0,2700.0,41.04270693793917,8.074500101034669,21801.15027279361,28.0327009960094,11.037150026103726,13.010005941929773,2.9626499250690568,11392,146,2860,6396,193.2142693644852,111.54713787494182,0.002700324542848,False
0.4100000000000001,0.9899215406501308,3.200000000000001,8741.0,75.4845,0.2,68900.0,0.33,276.0,2700.0,48.10409913342494,9.71699251750007,26235.879797250192,32.21790127125364,13.914890884168006,15.8861978621713,4.197898366667936,13267,160,3280,7493,204.09926887382767,117.82578019761092,0.002988494589194,False
0.42,0.8518285985832614,3.200000000000001,8742.0,75.4845,0.1,68900.0,0.33,276.0,2700.0,37.271093913465485,7.671760177481649,20713.75247920045,26.24533902024808,9.88372580664448,11.025754893217409,2.2119656291628305,61025,270,10076,38463,180.10378765864922,103.94005880359448,0.0024610834991192,False
0.43,0.8820664779518004,3.200000000000001,8743.0,75.4845,0.2,68900.0,0.33,276.0,2700.0,39.169604674614334,8.254945933635625,22288.354020816187,27.512153800780304,10.696424193645944,11.65745087383403,2.441478260010319,10431,140,2586,5880,183.04380210202692,105.63712889724567,0.0025053417038797,False
0.44,0.8668441650512493,3.200000000000001,8744.0,75.4845,0.3,68900.0,0.33,276.0,2700.0,37.74329615576534,8.125116201866126,21937.81374503854,26.871543277555787,10.282508754389069,10.871752878209556,2.1573925525229427,3737,94,1210,1890,160.9046856412749,92.39983736078788,0.0023854331681041,False
0.45,0.8044745546468413,3.200000000000001,8745.0,75.4845,0.08,68900.0,0.33,276.0,2700.0,33.01374173869421,7.237240137500615,19540.54837125166,24.30761569739372,8.68700478470159,8.706126041300486,1.4497646472009755,107032,310,13870,70453,194.2965804702376,110.94734572410478,0.0021944798506918,False
0.46,1.0551547868651894,3.200000000000001,8746.0,75.4845,0.2,68900.0,0.33,276.0,2700.0,51.62335624310085,11.669511894226666,31507.682114412,35.20593490597644,16.113447349863225,16.417421337124402,4.443935455636559,13878,166,3416,7854,197.1498265266877,113.81135094764434,0.0033126778916793,False
0.4700000000000001,1.0219846124286025,3.200000000000001,8747.0,75.4845,0.2,68900.0,0.33,276.0,2700.0,48.60031671070907,11.20362804430068,30249.795719611837,33.67319765091415,14.971157365578954,14.927119059794926,3.767529321278275,13349,162,3324,7515,188.58158360539312,108.70957963301426,0.0027729206987152,False
0.4800000000000001,0.7900413956892298,3.200000000000001,8748.0,75.4845,0.05,68900.0,0.33,276.0,2700.0,31.16992148609374,7.249157813498629,19572.7260964463,23.728218594066515,8.340356665838533,7.441702892027227,1.091198852339904,393633,476,32978,273202,220.9631615212821,124.44959422414158,0.0020562502827582,False
0.49,0.9728394263415056,3.200000000000001,8749.0,75.4845,0.3,68900.0,0.33,276.0,2700.0,44.09082818547724,10.555849416040465,28500.793423309253,31.45311836335088,13.371083505986498,12.637709822126354,2.815234089946033,4535,104,1412,2339,164.52490656982698,94.77221238837232,0.0025174706387211,False
0.5,0.9363934698629516,3.200000000000001,8750.0,75.4845,0.2,68900.0,0.33,276.0,2700.0,41.0132545191259,9.991514241982328,26977.088453352284,29.84591287009353,12.254133986426533,11.16734164903237,2.262619744444205,11237,144,2754,6364,170.6465048597201,98.46478987715729,0.0023834536815108,False
0.06,0.4107916087322016,3.200000000000001,8756.0,78.50388,0.08,68900.0,0.33,276.0,2700.0,18.97946261879783,0.5689314892218186,1536.1150208989102,10.38002720781817,1.9868285176243892,8.599435410979659,1.417897028402571,24777,234,8146,12552,552.6022990546109,317.16364436449413,0.0059716300083288,True
0.0699999999999999,0.4936040681769776,3.200000000000001,8757.0,78.50388,0.2,68900.0,0.33,276.0,2700.0,23.75821151557501,0.8308190255250049,2243.211368917513,12.986231720209153,2.9531477539977686,10.771979795365857,2.122328728472764,5035,108,1646,2560,558.8801586964206,322.6441755631365,0.0064339262248636,True
0.08,0.4995910448677822,3.200000000000001,8758.0,78.50388,0.2,68900.0,0.33,276.0,2700.0,23.830101205556478,0.9521317179298304,2570.7556384105424,13.18132963416515,3.03147959448976,10.648771571391324,2.079347876559929,5090,108,1664,2588,496.1466272625618,286.4417948555964,0.0057678175635589,True
0.0999999999999999,0.4315132994579377,3.200000000000001,8760.0,78.50388,0.05,68900.0,0.33,276.0,2700.0,19.062522647707983,0.951031737283005,2567.7856906641136,11.01599472453227,2.2084907570409404,8.046527923175717,1.2574590197579354,83346,372,20458,47285,338.9357965723609,195.6047943824404,0.0039667995977147,True
0.11,0.5717686541678135,3.200000000000001,8761.0,78.50388,0.1,68900.0,0.33,276.0,2700.0,27.568221691124407,1.5134645531305615,4086.3542934525167,15.604281166943007,4.069530351260855,11.963940524181398,2.5560657981302928,22827,230,7512,11553,406.4530954899533,233.78385238764093,0.0050558844006111,True
0.12,0.7163950983146607,3.200000000000001,8762.0,78.50388,0.3,68900.0,0.33,276.0,2700.0,37.314246194357125,2.2352356569244938,6035.136273696133,20.85331516514153,6.699560807004686,16.46093102921559,4.464325150080192,3577,94,1170,1816,474.93864549538176,274.113023312475,0.0061753641217262,True
0.13,0.7193109811367804,3.200000000000001,8763.0,78.50388,0.3,68900.0,0.33,276.0,2700.0,37.17749260231058,2.41193563311023,6512.226209397622,20.964549702229917,6.760528751992853,16.212942900080666,4.348593118882622,3807,96,1242,1938,442.5272031732356,255.4924327484327,0.0057673503676353,True
0.14,0.4796994031309647,3.200000000000001,8764.0,78.50388,0.08,68900.0,0.33,276.0,2700.0,20.816762077120565,1.4514263252374746,3918.8510781411815,12.536595383000074,2.775710203461484,8.28016669412049,1.3242838782240092,28989,244,8778,15204,281.5684581873171,162.32260980459995,0.0033108566557965,True
0.15,0.6229136808439338,3.200000000000001,8765.0,78.50388,0.3,68900.0,0.33,276.0,2700.0,29.71937328577912,2.221884412962856,5999.08791499971,17.400444073337045,4.913263927228148,12.318929212442072,2.6913795142652925,2993,84,974,1526,342.59365253406224,197.7952686238997,0.0042240823396445,True
0.16,0.5808021985875966,3.200000000000001,8766.0,78.50388,0.1,68900.0,0.33,276.0,2700.0,26.60266377624728,2.1196344597600976,5723.013041352264,15.916749891871309,4.211902124424758,10.685913884375973,2.0922676646646603,21882,226,7224,11016,290.81225120653335,167.89950570320957,0.0036618157795667,True
0.17,0.6257491394928973,3.200000000000001,8767.0,78.50388,0.3,68900.0,0.33,276.0,2700.0,29.275452773801074,2.478123722635033,6690.93405111459,17.50194598681819,4.9627460213658585,11.773506786982884,2.4846222987308253,2948,84,964,1496,302.6482140700348,174.73373669475015,0.003791505518376,True
0.18,0.8097571912460411,3.200000000000001,8768.0,78.50388,0.3,68900.0,0.33,276.0,2700.0,42.16675618740474,3.7827935446292633,10213.54257049901,24.520987873328718,8.815976360104107,17.64576831407603,5.033182815474844,4025,102,1320,2039,357.481989231722,206.3419399184352,0.0049672364809646,True
0.19,0.7522487777931073,3.200000000000001,8769.0,78.50388,0.3,68900.0,0.33,276.0,2700.0,37.51310443478178,3.5493794652969544,9583.324556301775,22.23589457901421,7.47191763513305,15.277209855767566,3.922538169836096,3465,92,1136,1755,318.62808276794914,183.59458710150915,0.004298279158973,True
0.2,0.5508399758034068,3.200000000000001,8770.0,78.50388,0.08,68900.0,0.33,276.0,2700.0,23.48907616468396,2.3321524556492474,6296.811630252968,14.88824182538231,3.750465447387464,8.60083433930165,1.4183129917382162,40426,260,9826,23013,233.71915102943305,134.90614924643145,0.0028572478776639,False
0.21,0.5127099183650068,3.200000000000001,8771.0,78.50388,0.05,68900.0,0.33,276.0,2700.0,20.849826736156583,2.1698356142531625,5858.556158483539,13.611984758128832,3.207223916761128,7.237841978027751,1.037388302507965,138543,390,22618,87594,230.3031204137775,130.4939378354434,0.00254526129398,False
0.22,0.7537461388043852,3.200000000000001,8772.0,78.50388,0.2,68900.0,0.33,276.0,2700.0,36.605910819159234,4.004349071057231,10811.742491854522,22.294338201298128,7.505256545295894,14.311572617861106,3.500907474238663,7455,136,2464,3753,275.45105218166475,158.73576882160123,0.0037727616518897,False
0.23,0.6940414416833112,3.200000000000001,8773.0,78.50388,0.3,68900.0,0.33,276.0,2700.0,32.043749898331896,3.6595487330973535,9880.781579362854,20.00767049437907,6.242887979471152,12.036079403952826,2.5833392463737983,3134,86,1022,1595,249.26696215918204,143.90714309703017,0.0032784637274121,False
0.24,0.6671398867387928,3.200000000000001,8774.0,78.50388,0.3,68900.0,0.33,276.0,2700.0,29.887500855215237,3.5575471847299074,9605.37739877075,19.00662860828207,5.71815609870447,10.880872246933162,2.1606089139745626,2841,82,932,1437,232.5481408999053,133.88946750978616,0.0030215038613033,False
0.25,0.857891713987098,3.200000000000001,8775.0,78.50388,0.2,68900.0,0.33,276.0,2700.0,43.3635794978501,5.387722513756368,14546.850787142192,26.497511096335582,10.043618333320117,16.866068401514518,4.655895819563747,8492,150,2802,4283,275.3051853238493,158.80141923720225,0.0039563922686306,False
0.26,0.9250147297127758,3.200000000000001,8776.0,78.50388,0.3,68900.0,0.33,276.0,2700.0,48.279291882038734,6.23949685634537,16846.641512132497,29.35096796054186,11.917344109701023,18.92832392149688,5.677847253355654,4477,108,1474,2260,287.0645231912876,165.71444260668417,0.0042147938469625,True
0.27,0.6304064371372455,3.200000000000001,8777.0,78.50388,0.1,68900.0,0.33,276.0,2700.0,26.54778587094736,3.5427271137774907,9565.363207199223,17.669103429502844,5.044646832590629,8.878682441444518,1.501919718813138,30817,222,7218,17782,206.7941262542774,119.39121187843136,0.002592870684759,False
0.28,0.6647863964580559,3.200000000000001,8778.0,78.50388,0.1,68900.0,0.33,276.0,2700.0,28.51709093534531,3.946416569660605,10655.324738083633,18.919917383643572,5.673526247319272,9.597173551701731,1.7271096776586663,35751,234,7858,21070,210.43319649721712,121.39526586044592,0.002670407913755,False
0.29,0.9704632535029284,3.200000000000001,8779.0,78.50388,0.3,68900.0,0.33,276.0,2700.0,50.84745089746071,7.321800177979536,19768.860480544747,31.34731581115691,13.296471191117456,19.5001350863038,5.974671013137919,4951,114,1630,2500,271.3584730422892,156.59896702316863,0.0040537073205428,False
0.3,0.7679853793316851,3.200000000000001,8780.0,78.50388,0.2,68900.0,0.33,276.0,2700.0,35.01449616161796,5.195625756478076,14028.189542490803,22.852927021536363,7.826681882915438,12.161569140081593,2.631056126437363,7202,134,2382,3617,212.48287717027156,122.62648093789156,0.0029450020342838,False
0.31,0.9303369747248166,3.200000000000001,8781.0,78.50388,0.3,68900.0,0.33,276.0,2700.0,46.89044644646404,7.205625074706529,19455.18770170763,29.582066385969597,12.07417181799871,17.308380060494446,4.868546743292181,4381,106,1450,2200,246.3254876874129,142.07705903407623,0.0036240290751102,False
0.32,0.7458792974477564,3.200000000000001,8782.0,78.50388,0.1,68900.0,0.33,276.0,2700.0,32.82993042421704,5.184159729159509,13997.231268730677,21.987916533227317,7.3310768285110735,10.842013890989726,2.1469170993515645,46520,250,8780,28564,206.88248676563043,119.41943228532932,0.0027300229051566,False
0.33,0.9237989590574788,3.200000000000001,8783.0,78.50388,0.2,68900.0,0.33,276.0,2700.0,45.66818119395779,7.45998362020834,20141.95577456252,29.29827758980079,11.881692097617004,16.369903604157003,4.421708477408665,9731,156,3120,4961,239.6976551644248,138.38825986854175,0.0034028269562824,False
0.34,0.9343931363001908,3.200000000000001,8784.0,78.50388,0.1,68900.0,0.33,276.0,2700.0,46.14939000274533,7.76307819536215,20960.31112747781,29.75866794005728,12.19451948144567,16.390722062688052,4.431441286083521,66932,308,12364,41290,239.99050030711632,134.87739768543358,0.0033923031108403,False
0.3500000000000001,0.7429885488103276,3.200000000000001,8785.0,78.50388,0.2,68900.0,0.33,276.0,2700.0,31.71796351804173,5.4608464256422,14744.28534923394,21.875709644213348,7.267677520301418,9.842253873828383,1.806831094659218,7221,126,2128,3827,197.7089805590264,114.14712941528464,0.0025203977987879,False
0.36,0.7313703408388639,3.200000000000001,8786.0,78.50388,0.1,68900.0,0.33,276.0,2700.0,30.626803652471715,5.415108559547655,14620.79311077867,21.42685722072012,7.016131691085236,9.1999464317516,1.6010231315375805,45633,240,8270,28220,186.92625321808367,107.91598807086956,0.0024351064656577,False
0.37,0.7718845512660234,3.200000000000001,8787.0,78.50388,0.2,68900.0,0.33,276.0,2700.0,33.11675359726772,6.020512020372954,16255.382455006977,23.00677574873289,7.9160891917366225,10.109977848534824,1.8955771713636684,8302,130,2258,4537,194.8865247006837,112.50036518174473,0.0025242141655884,False
0.38,0.8565132930427608,3.200000000000001,8788.0,78.50388,0.2,68900.0,0.33,276.0,2700.0,38.87434995413317,7.271202843226789,19632.24767671233,26.440099806545252,10.007133182999617,12.434250147587916,2.7359303397728265,9517,138,2486,5278,205.52754074698683,118.53361434018925,0.0027814396768472,False
0.39,1.0173652785521985,3.200000000000001,8789.0,78.50388,0.2,68900.0,0.33,276.0,2700.0,51.02182961115031,9.825019351095452,26527.552247957723,33.4619397168156,14.816097764849609,17.55988989433471,4.991078413754156,13190,162,3294,7425,226.2163369434073,130.5816898761635,0.0033439241530897,False
0.4,0.87007930875034,3.200000000000001,8790.0,78.50388,0.2,68900.0,0.33,276.0,2700.0,39.2355560861088,7.713069930668591,20825.2888128052,27.00720261355748,10.369661426116142,12.228353472551312,2.656591495447551,10436,140,2580,5896,195.8318464135702,113.00805673592956,0.0027174017439584,False
0.4100000000000001,1.0773813843087716,3.200000000000001,8791.0,78.50388,0.3,68900.0,0.33,276.0,2700.0,55.2639949941837,11.184771168955624,30198.882156180185,36.24846085344127,16.907518397584877,19.01553414074243,5.7227472286292524,5122,116,1702,2561,221.043634769022,127.2642251508476,0.003417679225209,False
0.42,0.7868537282989769,3.200000000000001,8792.0,78.50388,0.1,68900.0,0.33,276.0,2700.0,32.668195253735334,6.705151458938312,18103.90893913344,23.600960404125864,8.264921893427259,9.06723484960947,1.5597704344889465,53715,250,8884,33855,177.7806915404206,102.59015731792591,0.0023455612063322,False
0.43,1.007538161433447,3.200000000000001,8793.0,78.50388,0.1,68900.0,0.33,276.0,2700.0,48.817906824302405,10.329330895819036,27889.1934187114,33.01429605640683,14.48946487520773,15.803610767895576,4.160133979388693,81062,318,12946,51491,221.27424813140817,124.37360683491092,0.0030604306051771,False
0.44,0.8769343149296283,3.200000000000001,8794.0,78.50388,0.08,68900.0,0.33,276.0,2700.0,38.4796744172892,8.287119419400607,22375.22243238164,27.295522896004627,10.555783510921218,11.184151521284576,2.268664091520611,122524,342,16170,80447,241.7566957856901,137.54281764796966,0.0025534721372654,False
0.45,0.8080447549079166,3.200000000000001,8795.0,78.50388,0.2,68900.0,0.33,276.0,2700.0,33.26161961087574,7.293012658741459,19691.134178601944,24.45174364032616,8.77404502811075,8.80987597054958,1.4810323693692895,8953,128,2226,5042,171.69680888626027,98.68601085394874,0.0022799750414592,False
0.46,1.1252964875318217,3.200000000000001,8796.0,78.50388,0.3,68900.0,0.33,276.0,2700.0,57.47682443812104,13.015809579080493,35142.68586351733,38.538125242291656,18.69899149731475,18.938699195829383,5.68318191823426,5272,118,1748,2638,205.5202989807132,118.54623792176244,0.0032743714364584,False
0.4700000000000001,0.990228229270502,3.200000000000001,8797.0,78.50388,0.3,68900.0,0.33,276.0,2700.0,46.09243821126,10.614276596929768,28658.546811710374,32.23169903552518,13.92477386360891,13.860739175734814,3.3104972666791426,4289,104,1418,2144,193.818892648728,111.82409050584612,0.0027491877462948,False
0.4800000000000001,1.041332131855245,3.200000000000001,8798.0,78.50388,0.3,68900.0,0.33,276.0,2700.0,49.80969005450098,11.722702269915676,31651.29612877233,34.56385288912625,15.631251027834516,15.24583716537473,3.9085487579188394,4661,108,1538,2334,196.4351987191723,113.35234354375572,0.0028673750874119,False
0.49,1.031305602780425,3.200000000000001,8799.0,78.50388,0.2,68900.0,0.33,276.0,2700.0,48.6668004849716,11.676962629416572,31527.799099424745,34.10111125745068,15.287017509222355,14.565689227520911,3.610054879805784,13359,160,3274,7572,191.88109197013245,110.7543721364578,0.0028214816267366,False
0.5,1.158818757851697,3.200000000000001,8800.0,78.50388,0.2,68900.0,0.33,276.0,2700.0,58.87499317777112,14.456948906642298,39033.76204793421,40.17432150085146,20.01822255923584,18.70067167691965,5.56127365259354,16128,180,3934,9161,206.11763142511708,118.7898067493908,0.0032012190546342,False
0.08,0.6237311161549477,3.200000000000001,8808.0,81.52326,0.2,68900.0,0.33,276.0,2700.0,32.077214242186145,1.2820162393950176,3461.4438463665474,17.429685363990988,4.927499614928795,14.647528878195155,3.6454833755337774,6800,128,2228,3452,687.1035182107578,394.02188725536695,0.0078514035074628,True
0.09,0.728122361460195,3.200000000000001,8809.0,81.52326,0.2,68900.0,0.33,276.0,2700.0,39.24922239233403,1.7646881936253818,4764.658122788531,21.30198306961673,6.9467405667791535,17.9472393227173,5.182052373153772,8249,144,2690,4208,677.6509180464575,388.40084853812925,0.0085437215365058,True
0.0999999999999999,0.763139256694186,3.200000000000001,8810.0,81.52326,0.3,68900.0,0.33,276.0,2700.0,41.52156076472284,2.073983643133741,5599.7558364611,22.66224725143692,7.716396063083082,18.859313513285915,5.642412419949341,3812,98,1250,1931,631.3682073741213,362.636337383738,0.0082471730620366,True
0.11,0.6769792290286076,3.200000000000001,8811.0,81.52326,0.2,68900.0,0.33,276.0,2700.0,34.81010142397077,1.9117679384371111,5161.7734337802,19.370653691753752,5.906957711991644,15.43944773221702,3.995189773554532,7176,134,2358,3633,509.8482705143536,293.14694591369096,0.0064746234287281,True
0.12,0.7657288201854238,3.200000000000001,8812.0,81.52326,0.3,68900.0,0.33,276.0,2700.0,40.98695895346111,2.455598422470733,6630.115740670978,22.76406504463117,7.775213186645232,18.22289390882994,5.319614764174499,3964,100,1298,2011,526.7948821330699,304.14299157494816,0.0069891415127136,True
0.13,0.6658892513987114,3.200000000000001,8813.0,81.52326,0.3,68900.0,0.33,276.0,2700.0,33.34400223858338,2.1627587594679625,5839.448650563499,18.96053327724898,5.69441456559268,14.383468961334398,3.531655806124718,3180,88,1044,1608,433.63597660662464,249.9252495160637,0.0054308395932593,True
0.14,0.6989761597180479,3.200000000000001,8814.0,81.52326,0.3,68900.0,0.33,276.0,2700.0,35.35857165881975,2.4693529959564176,6667.253089082327,20.193271992503973,6.342077885744646,15.165299666315777,3.8727248897882287,3312,90,1088,1674,419.6606238081593,242.17550787252765,0.0053912973277751,True
0.15,0.6401467692348457,3.200000000000001,8815.0,81.52326,0.3,68900.0,0.33,276.0,2700.0,30.89443978733536,2.310014400579581,6237.0388815648685,18.020460930447705,5.218459001792058,12.873978856887655,2.9084446012124774,2978,86,976,1508,366.2824112375966,211.37678477055812,0.004533559962986,True
0.16,0.5323882027694069,3.200000000000001,8816.0,81.52326,0.2,68900.0,0.33,276.0,2700.0,23.496001877772457,1.8711015078823925,5051.97407128246,14.266076828334478,3.481504169494086,9.22992504943798,1.6104026616116935,4750,106,1566,2395,281.5141145115401,162.2934826972901,0.0034361495961422,True
0.17,0.8597449629726119,3.200000000000001,8817.0,81.52326,0.3,68900.0,0.33,276.0,2700.0,46.42134670843711,3.9355247070791,10625.91670911357,26.574774254946117,10.092796399482287,19.846572453491,6.157271692403187,4388,106,1432,2234,411.6765382775768,237.0305044823327,0.0058750749112739,True
0.18,0.5296380855306676,3.200000000000001,8818.0,81.52326,0.2,68900.0,0.33,276.0,2700.0,22.740169184081456,2.034400714330172,5492.881928691463,14.174079881922273,3.442397330435868,8.566089302159183,1.407996616105696,4528,104,1496,2278,250.04097036165876,144.35223086960968,0.0030820155799157,False
0.19,0.5341482513577857,3.200000000000001,8819.0,81.52326,0.1,68900.0,0.33,276.0,2700.0,22.73290093970368,2.1452601332645336,5792.2023598142405,14.325053742664274,3.506665047575787,8.407847197039402,1.3614049143112532,24452,206,6228,13682,247.7793599150633,142.98149360689982,0.002991235122438,False
0.2,0.5148244550362666,3.200000000000001,8820.0,81.52326,0.08,68900.0,0.33,276.0,2700.0,21.25723374022576,2.108968213203317,5694.214175648956,13.681803736787243,3.236080755294443,7.575430003438516,1.1271125420911257,37399,248,9124,21263,230.54061103387835,132.9889330677327,0.0027556709760963,False
0.21,0.6916392494687107,3.200000000000001,8821.0,81.52326,0.3,68900.0,0.33,276.0,2700.0,32.51657493088654,3.394844174699825,9166.079271689528,19.91754223606381,6.194933990909813,12.599032694822736,2.800089816209988,3177,88,1046,1602,279.1374961744807,161.15455181482724,0.0036709141494708,True
0.22,0.7773576118406547,3.200000000000001,8822.0,81.52326,0.3,68900.0,0.33,276.0,2700.0,38.33342103979878,4.19437519532758,11324.813027384464,23.22336962622133,8.04259904138242,15.110051413577448,3.84822384605484,3654,96,1204,1842,295.80653659753733,170.6864431329566,0.0040725783825508,True
0.23,0.76852588406383,3.200000000000001,8823.0,81.52326,0.3,68900.0,0.33,276.0,2700.0,37.34631087858963,4.269343245826961,11527.226763732791,22.874230779338127,7.839039755174181,14.4720800992515,3.56969650934722,3639,96,1196,1839,282.5707799361219,162.6508710574995,0.0038576158460963,True
0.24,0.614994157319904,3.200000000000001,8824.0,81.52326,0.2,68900.0,0.33,276.0,2700.0,26.424812125014785,3.142024537106294,8483.466250186993,17.11801642834219,4.776580087543209,9.30679569667259,1.6345555504369154,5283,112,1750,2652,223.69809516514127,128.75641846726543,0.0028605360969247,False
0.25,0.5538002383134291,3.200000000000001,8825.0,81.52326,0.05,68900.0,0.33,276.0,2700.0,22.25692795900944,2.749391071401286,7423.355892783472,14.988853780919577,3.794687416072109,7.268074178089863,1.0452963446708226,167815,402,23978,108980,219.17377663764887,122.83988831989014,0.002498777493301,False
0.26,0.8961958040404041,3.200000000000001,8826.0,81.52326,0.3,68900.0,0.33,276.0,2700.0,45.98963151366802,5.941841008457188,16042.970722834409,28.111978958172767,11.089384040956658,17.877652555495256,5.1475430324994695,4362,106,1430,2211,289.20283347712035,166.6644202760366,0.0041955247010446,True
0.27,0.7493471014472557,3.200000000000001,8827.0,81.52326,0.1,68900.0,0.33,276.0,2700.0,34.64806550372122,4.636264864201966,12517.915133345308,22.12279941247595,7.407560399757896,12.525266091245271,2.7712955355559306,40415,262,9392,23391,244.13687052915,140.9506471400553,0.0032753247315931,False
0.28,0.9420510828537848,3.200000000000001,8828.0,81.52326,0.3,68900.0,0.33,276.0,2700.0,48.91252848990749,6.801777827299321,18364.80013370817,30.093215187031053,12.423689801925548,18.81931330287644,5.621911974626227,4492,108,1478,2269,282.67347095558915,163.12587992048776,0.0041902281945591,True
0.29,0.7031980083352625,3.200000000000001,8829.0,81.52326,0.08,68900.0,0.33,276.0,2700.0,30.805875231613623,4.415771706431713,11922.583607365625,20.352547282530185,6.42766688366095,10.45332794908344,2.011895177229237,72452,304,13032,44908,220.85005729757987,127.34425092485804,0.0028744755433972,False
0.3,0.9037297957170578,3.200000000000001,8830.0,81.52326,0.3,68900.0,0.33,276.0,2700.0,45.15288669511535,6.716384336502688,18134.23770855725,28.43386668182361,11.302391110516078,16.71902001329174,4.586006774013391,4277,104,1406,2162,255.3081333425141,147.25497051818118,0.0037323492284763,False
0.31,0.6124586283821046,3.200000000000001,8831.0,81.52326,0.05,68900.0,0.33,276.0,2700.0,24.25880549711325,3.697720727557156,9983.84596440432,17.02792700706334,4.733291107838808,7.230878490049914,1.0355703802816518,218052,418,26056,145304,232.70849865438947,130.34894193924816,0.0023531324992043,False
0.32,0.6296878256968199,3.200000000000001,8832.0,81.52326,0.05,68900.0,0.33,276.0,2700.0,25.07511624434201,3.94338946037944,10647.151543024487,17.643275812489662,5.031958893511887,7.431840431852343,1.0885694331324474,230320,426,26908,153946,235.74383558701317,133.90409864178525,0.0023648377859149,False
0.33,0.9071504219651778,3.200000000000001,8833.0,81.52326,0.3,68900.0,0.33,276.0,2700.0,44.37067148955624,7.245894518982071,19563.91520125159,28.580482880794705,11.399903417007398,15.790188608761532,4.154008898025326,4233,104,1390,2142,238.77625597194867,137.8405831887806,0.0034477782197832,False
0.34,0.6735449709151639,3.200000000000001,8834.0,81.52326,0.08,68900.0,0.33,276.0,2700.0,27.3476769256217,4.566786972251231,12330.324825078324,19.24332039659221,5.840652619920591,8.104356529029484,1.2738656476693595,70828,282,11468,44870,195.6400764536211,111.76609009997613,0.0024203786746326,False
0.3500000000000001,0.9382980668799084,3.200000000000001,8835.0,81.52326,0.3,68900.0,0.33,276.0,2700.0,46.106663362663184,7.978868898450951,21542.946025817568,29.929075692525057,12.311057604409047,16.177587670138127,4.332188705958096,4401,106,1450,2220,233.05678294850105,134.5051685339089,0.0034176830679113,False
0.36,0.6673518737708841,3.200000000000001,8836.0,81.52326,0.04,68900.0,0.33,276.0,2700.0,26.381206301467596,4.650901036366912,12557.432798190664,19.01444582321588,5.722186086047018,7.366760478251717,1.0712850496801058,500310,548,43480,346152,244.04703773360987,136.5215570973725,0.0023006504058266,False
0.37,1.0671212424060257,3.200000000000001,8837.0,81.52326,0.3,68900.0,0.33,276.0,2700.0,55.88910607368581,10.233397228510354,27630.17251697796,35.76567184847626,16.53808304945847,20.12343422520955,6.304685820948118,5241,118,1740,2625,246.3466714339649,142.15919395087374,0.00383288181047,False
0.38,0.7229393380692681,3.200000000000001,8838.0,81.52326,0.05,68900.0,0.33,276.0,2700.0,29.476364508400096,5.485585608537385,14811.08114305094,21.1032619510821,6.836847169973217,8.373102557317996,1.351261561435832,306032,466,31182,208149,241.5567184151995,135.8730363569695,0.0024021202629431,False
0.39,0.8688460803247724,3.200000000000001,8839.0,81.52326,0.2,68900.0,0.33,276.0,2700.0,39.46461826402821,7.571363138406637,20442.68047369792,26.955458600827956,10.336387286179871,12.509159663200258,2.765024147773236,10609,142,2658,5962,208.43388832348825,120.33823525914036,0.0028750784305303,False
0.4,1.0714299955168392,3.200000000000001,8840.0,81.52326,0.3,68900.0,0.33,276.0,2700.0,55.13314729148695,10.892588171744215,29409.988063709385,35.968097157591984,16.692624432098064,19.165050133894965,5.800036260353847,5241,118,1742,2622,233.6712193965324,134.7977146038699,0.0036010212294397,False
0.4100000000000001,0.9668186940203332,3.200000000000001,8841.0,81.52326,0.3,68900.0,0.33,276.0,2700.0,46.27698259873007,9.342433627887637,25224.57079529661,31.18531224137756,13.182519351236907,15.091670357352516,3.840085723349272,4460,106,1486,2225,207.75371807759467,119.85740300556785,0.0030985361424164,False
0.42,0.8751298620284463,3.200000000000001,8842.0,81.52326,0.2,68900.0,0.33,276.0,2700.0,38.9734803703112,8.029261333419239,21679.005600231943,27.219513419809637,10.506598615506933,11.753966950501567,2.477337282087692,10487,140,2584,5921,197.843169355147,113.99632408259674,0.0027321477437017,False
0.43,0.7914146798756739,3.200000000000001,8843.0,81.52326,0.1,68900.0,0.33,276.0,2700.0,32.691221415000875,6.862093532819218,18527.65253861189,23.783121611636208,8.372979946504909,8.908099803364667,1.5108864136856912,54860,248,8796,34822,182.66929200676424,105.44522141793072,0.0024073508678529,False
0.44,0.9264530465753502,3.200000000000001,8844.0,81.52326,0.1,68900.0,0.33,276.0,2700.0,42.16773287568957,9.098492280249443,24565.9291566735,29.41335124825917,11.95960495908696,12.7543816274304,2.8611126788375145,71705,290,11302,45708,209.425695528056,117.495226764145,0.0028233794467648,False
0.45,0.935690241719266,3.200000000000001,8845.0,81.52326,0.1,68900.0,0.33,276.0,2700.0,42.54495584088511,9.381763310493549,25330.760938332576,29.8152299778656,12.233156289787338,12.72972586301951,2.8513929792937915,72733,290,11202,46602,209.4555631101977,118.1276733780861,0.0028059729346231,False
0.46,0.9497350681752668,3.200000000000001,8846.0,81.52326,0.2,68900.0,0.33,276.0,2700.0,43.2910129959865,9.753072947390349,26333.296957953942,30.430381385064496,12.65622006555026,12.860631610922002,2.903147118159911,11664,148,2890,6577,195.6271812888869,112.9310686406032,0.0027913450012241,False
0.4700000000000001,0.9274724302087896,3.200000000000001,8847.0,81.52326,0.2,68900.0,0.33,276.0,2700.0,41.285527751025775,9.48465263877518,25608.562124692984,29.457595869679757,11.989610996856989,11.82793188134602,2.5049583580818098,11338,146,2816,6398,188.47326145593212,108.7933398617833,0.0026691545225345,False
0.4800000000000001,1.148043367482379,3.200000000000001,8848.0,81.52326,0.3,68900.0,0.33,276.0,2700.0,58.68525601123979,13.852838099533685,37402.66286874095,39.64530287658709,19.588181373675237,19.0399531346527,5.735343274141549,5890,122,1882,3003,210.7344475739747,121.39804255623037,0.003373977796305,False
0.49,1.17237596312863,3.200000000000001,8849.0,81.52326,0.3,68900.0,0.33,276.0,2700.0,60.41540831330878,14.55537154735912,39299.50317786962,40.84405896272924,20.56740874802788,19.57134935057954,6.012037200668761,6080,124,1916,3120,217.4409855246223,125.4288804175718,0.0034008253278343,False
0.5,1.143087664548191,3.200000000000001,8850.0,81.52326,0.2,68900.0,0.33,276.0,2700.0,57.52999675350572,14.12069980057718,38125.88946155839,39.40298191440904,19.392311720137613,18.12701483909668,5.271611919560433,15405,176,3748,8759,211.6284173205159,122.08439417089176,0.0032657886917119,False
0.0699999999999999,0.6907049217271952,3.200000000000001,8857.0,84.54263999999999,0.2,68900.0,0.33,276.0,2700.0,37.20404256086624,1.3014231121102011,3513.8424026975435,19.88252620904307,6.176340838586844,17.321516351823163,4.874917726476642,7614,138,2498,3861,852.9094483973788,487.90730977332095,0.0104531015966396,True
0.08,0.5056929105653021,3.200000000000001,8858.0,84.54263999999999,0.2,68900.0,0.33,276.0,2700.0,24.21737019625964,0.9676224775579584,2612.580689406488,13.38109839398026,3.112519302879427,10.83627180227938,2.1448968253214686,5014,108,1644,2542,535.3889932700472,308.57980581537896,0.0063009459240505,True
0.09,0.5085295711381528,3.200000000000001,8859.0,84.54263999999999,0.2,68900.0,0.33,276.0,2700.0,24.090536140925572,1.082547312312022,2922.8777432424595,13.474286349044002,3.1506090606082564,10.616249791881572,2.0680617482962345,5026,108,1644,2554,483.8961571016725,279.33819736129044,0.0056901414327866,True
0.0999999999999999,0.4033002781676266,3.200000000000001,8860.0,84.54263999999999,0.05,68900.0,0.33,276.0,2700.0,17.406975068857882,0.8682543583404787,2344.2867675192924,10.152767406938692,1.909920422200004,7.254207661919189,1.0416660638595254,76071,354,18652,43181,344.4260964610355,198.82335564939,0.0039588671759285,True
0.11,0.7560233313170884,3.200000000000001,8861.0,84.54263999999999,0.3,68900.0,0.33,276.0,2700.0,40.61692360318644,2.231143158293976,6024.086527393734,22.383327504627584,7.55612634347927,18.23359609855885,5.324983185185294,3843,98,1254,1956,585.7461092694152,337.45976327730614,0.0077314991161504,True
0.12,0.5554747664775859,3.200000000000001,8862.0,84.54263999999999,0.2,68900.0,0.33,276.0,2700.0,26.1846688601709,1.5674610168733163,4232.144745557954,15.04586435453838,3.819834396948144,11.13880450563252,2.252373380074828,5524,114,1804,2812,393.5438101503151,227.1898386638389,0.0048543427890393,True
0.13,0.6606658019041272,3.200000000000001,8863.0,84.54263999999999,0.2,68900.0,0.33,276.0,2700.0,32.97687159731099,2.138895267785239,5775.017223020145,18.768434782322306,5.595877184512417,14.208436814988689,3.4569819167271776,6832,130,2246,3457,426.9320754393243,245.67258029534307,0.0055747177497294,True
0.14,0.7002266612075496,3.200000000000001,8864.0,84.54263999999999,0.3,68900.0,0.33,276.0,2700.0,35.448432201430634,2.475643233939163,6684.23673163574,20.24040226093333,6.367359066589112,15.208029940497308,3.8917158326499495,3281,90,1080,1655,433.3522119413552,250.0828376178397,0.0056020096656872,True
0.15,0.4976789619525155,3.200000000000001,8865.0,84.54263999999999,0.1,68900.0,0.33,276.0,2700.0,21.628454065781472,1.615065471463036,4360.676772950198,13.118922579632027,3.006335477668426,8.509531486149443,1.39127000620539,17838,200,5894,8987,287.91947621542647,166.03915792160538,0.0034952553028271,True
0.16,0.763651669563089,3.200000000000001,8866.0,84.54263999999999,0.3,68900.0,0.33,276.0,2700.0,39.39864502209533,3.1433129594282265,8486.944990456212,22.682381189822472,7.728013648375763,16.71626383227286,4.584700688947536,3733,96,1222,1894,410.3471624462729,236.79538504726375,0.0055345775531795,True
0.0699999999999999,0.6700975514132785,3.200000000000001,8907.0,87.56201999999999,0.2,68900.0,0.33,276.0,2700.0,35.70683899530699,1.249020987315623,3372.3566657521824,19.1157972365708,5.774532720629368,16.591041758736193,4.525511733313745,7481,136,2462,3782,847.9268090176932,485.0429213923,0.0104237578928615,True
0.08,0.7287380196230909,3.200000000000001,8908.0,87.56201999999999,0.2,68900.0,0.33,276.0,2700.0,39.6579800895078,1.5852468732878875,4280.166557877296,21.32563274093557,6.95986258610969,18.33234734857223,5.374615712821802,8210,144,2694,4163,816.6031486340547,467.6796861816628,0.0102406320053212,True
0.09,0.6263618371250306,3.200000000000001,8909.0,87.56201999999999,0.2,68900.0,0.33,276.0,2700.0,31.923244113933432,1.4350191710973592,3874.55176196287,17.523905488772783,4.973476149015407,14.399338625160649,3.538456977918048,6517,126,2140,3301,616.145287361804,353.41570116970496,0.0075914184134538,True
0.0999999999999999,0.5003620558437565,3.200000000000001,8910.0,87.56201999999999,0.1,68900.0,0.33,276.0,2700.0,23.27053757065433,1.1614324834303231,3135.8677052618723,13.206520084913636,3.0416522544127123,10.064017485740695,1.880219770982389,19292,210,6342,9773,429.2671385770473,247.5150922079084,0.0052434722070264,True
0.11,0.5745483592527625,3.200000000000001,8911.0,87.56201999999999,0.1,68900.0,0.33,276.0,2700.0,27.75239903844089,1.523594307232964,4113.704629529003,15.70021222907382,4.113038936014523,12.052186809367068,2.589444628781559,23280,234,7676,11760,452.4244772997543,260.4337916010274,0.0056707903772796,True
0.12,0.463160888764022,3.200000000000001,8912.0,87.56201999999999,0.2,68900.0,0.33,276.0,2700.0,20.3875822765505,1.2196358218560912,3293.016719011446,12.0081150147045,2.5727531550101133,8.379467261845999,1.353117333154022,4096,98,1346,2071,350.5682035711909,202.39503366437032,0.0040657396032348,True
0.13,0.6511313558230405,3.200000000000001,8913.0,87.56201999999999,0.3,68900.0,0.33,276.0,2700.0,32.310278540416554,2.095566719087117,5658.030141535217,18.41956251407762,5.418595522255169,13.890716026338936,3.3230288031680515,3028,86,996,1528,462.02502928375134,264.980678358474,0.005677270501638,True
0.14,0.802099696375131,3.200000000000001,8914.0,87.56201999999999,0.3,68900.0,0.33,276.0,2700.0,43.03302043579344,3.0065644103445752,8117.723907930353,24.21192078228831,8.629391301479934,18.82109965350513,5.622826891135359,3980,102,1312,2006,503.82341642442657,290.56799153636035,0.0069078426731967,True
0.15,0.7825508554159517,3.200000000000001,8915.0,87.56201999999999,0.3,68900.0,0.33,276.0,2700.0,41.17583908705634,3.08111934805863,8319.022239758302,23.42958595890081,8.16373882897068,17.74625312815553,5.082619480912049,4052,102,1328,2054,463.9243894313535,267.74336919231274,0.0062743422974153,True
0.16,0.4990973382043021,3.200000000000001,8916.0,87.56201999999999,0.1,68900.0,0.33,276.0,2700.0,21.4281329490226,1.7056719935824038,4605.31438267249,13.165207109207945,3.024975864366884,8.262925839814656,1.3193038707844795,17827,200,5838,9016,288.9637328712108,166.82991476936132,0.0034309929090368,True
0.17,0.6452819106672993,3.200000000000001,8917.0,87.56201999999999,0.3,68900.0,0.33,276.0,2700.0,30.601421553979566,2.5908310689502,6995.24388616554,18.20665790399694,5.31147440763837,12.394763649982623,2.72064333868817,2973,84,968,1515,350.6161371139792,202.4282847345781,0.0043894897018604,True
0.19,0.5214196248776175,3.200000000000001,8919.0,87.56201999999999,0.2,68900.0,0.33,276.0,2700.0,21.94415276893574,2.0703290570415804,5589.888454012267,13.900288656105612,3.3270344464406554,8.043864112830128,1.256705389399075,4627,104,1528,2329,254.11820867597365,146.71521573169508,0.0031063887441946,False
0.2,0.6904148957851036,3.200000000000001,8920.0,87.56201999999999,0.3,68900.0,0.33,276.0,2700.0,32.75433504238968,3.2586783434198248,8798.431527233526,19.87166129882708,6.170575965795908,12.882673743562597,2.911897622376083,3170,88,1044,1598,315.13471851316586,181.7745553230421,0.0041091752239984,True
0.21,0.6949315601879775,3.200000000000001,8921.0,87.56201999999999,0.3,68900.0,0.33,276.0,2700.0,32.74632170875843,3.418967586376366,9231.212483216188,20.041103828301694,6.26071205555099,12.705217880456736,2.8417444691746243,3115,88,1022,1576,304.45586665884287,175.75400423265373,0.0039675728783129,True
0.22,0.80598421402946,3.200000000000001,8922.0,87.56201999999999,0.3,68900.0,0.33,276.0,2700.0,40.46544172230277,4.428897470402964,11958.023170088003,24.368521115830863,8.723746970820669,16.0969206064719,4.294849500417705,3911,100,1282,1982,332.2782124725249,191.80355173843645,0.0045792666084789,True
0.23,0.8224897099066539,3.200000000000001,8923.0,87.56201999999999,0.3,68900.0,0.33,276.0,2700.0,41.36221454395419,4.731172167343916,12774.164851828573,25.038152382141657,9.131478375994796,16.32406216181253,4.40030620865088,4232,102,1394,2135,321.26000866977745,185.38079105675413,0.004515833518782,True
0.24,0.8295238357434555,3.200000000000001,8924.0,87.56201999999999,0.3,68900.0,0.33,276.0,2700.0,41.54598477593407,4.956565255216607,13382.72618908484,25.32560902104575,9.308610164721768,16.220375754888323,4.352044909505159,4167,102,1372,2103,311.3098545977341,179.73481240406903,0.0043880841718591,True
0.25,0.7638548370896652,3.200000000000001,8925.0,87.56201999999999,0.3,68900.0,0.33,276.0,2700.0,36.34014034691853,4.509792619889925,12176.440073702795,22.690365959242296,7.732622782764317,13.649774387676228,3.2228301628743923,3310,90,1094,1663,279.9564608881307,161.5996362654087,0.0038189860215402,True
0.26,0.8940472267174191,3.200000000000001,8926.0,87.56201999999999,0.3,68900.0,0.33,276.0,2700.0,45.82059952356679,5.919866849744024,15983.640494308866,28.020443010199248,11.029081637267511,17.800156513367543,5.109214787523489,4375,106,1434,2218,309.6655921364669,178.71137356521243,0.0044906637879844,True
0.27,0.7591683907831677,3.200000000000001,8927.0,87.56201999999999,0.2,68900.0,0.33,276.0,2700.0,35.34871309636476,4.730852289208838,12773.301180863862,22.50644605845832,7.62671678196202,12.842267037906446,2.895864492753182,7161,132,2364,3609,257.9687671818457,148.93010133076848,0.0035462367650598,False
0.28,0.9737934791011078,3.200000000000001,8928.0,87.56201999999999,0.3,68900.0,0.33,276.0,2700.0,51.49399930783896,7.163183741809721,19340.596102886248,31.495638876317667,13.401111721946757,19.99836043152129,6.237927980137034,4958,114,1632,2504,315.34309872305465,182.05882831545287,0.004689154057855,True
0.29,0.9031698886430716,3.200000000000001,8929.0,87.56201999999999,0.3,68900.0,0.33,276.0,2700.0,45.46307809816504,6.541066122081654,17660.878529620466,28.40989573632136,11.286477498538748,17.053182361843685,4.745411376457094,4255,104,1400,2149,283.7667800343692,163.82106239359624,0.0041285752216463,True
0.3,0.7233778423073953,3.200000000000001,8930.0,87.56201999999999,0.1,68900.0,0.33,276.0,2700.0,31.885071819815103,4.726212105207651,12760.772684060656,21.12004839790265,6.846104720064151,10.765023421912456,2.1198926148565,43751,248,8638,26572,235.5695040908853,135.86434492272028,0.003098660966685,False
0.31,0.9752468357832288,3.200000000000001,8931.0,87.56201999999999,0.3,68900.0,0.33,276.0,2700.0,50.49732719153935,7.764691590193205,20964.667293521656,31.560456485580065,13.446933214288627,18.936870705959286,5.682241624095422,4818,112,1590,2427,287.4592248999716,165.88567439136182,0.0042908930443005,True
0.33,0.6726922371770077,3.200000000000001,8933.0,87.56201999999999,0.05,68900.0,0.33,276.0,2700.0,27.577754504035493,4.4750632163711535,12082.670684202114,19.211749201640377,5.824256653594483,8.366005302395116,1.3491934372233292,258956,452,29548,173692,276.7744942335841,157.04413502355996,0.0026596603498328,True
0.34,0.6946285264714658,3.200000000000001,8934.0,87.56201999999999,0.08,68900.0,0.33,276.0,2700.0,28.740313330557115,4.803535161089915,12969.54493494277,20.02971948187576,6.254640650353716,8.710593848681352,1.4511054892638011,74097,288,12024,46891,209.37615854296808,120.86393858434889,0.0026860064085005,False
0.3500000000000001,0.8409499530575106,3.200000000000001,8935.0,87.56201999999999,0.3,68900.0,0.33,276.0,2700.0,38.69522956582857,6.681867984004888,18041.0435568132,25.795199427192365,9.6006632176674,12.900030138636204,2.9187952336625136,3720,96,1234,1863,224.43368658146431,129.44532803363717,0.0032063376958123,False
0.36,0.924588659930988,3.200000000000001,8936.0,87.56201999999999,0.3,68900.0,0.33,276.0,2700.0,44.6898875735379,7.946463665339559,21455.45189641681,29.332498263843444,11.904842484038628,15.357389309694458,3.958378818699069,4149,102,1376,2079,240.3060557749386,138.64593269863138,0.0035210631312531,False
0.37,0.9353780167158924,3.200000000000001,8937.0,87.56201999999999,0.3,68900.0,0.33,276.0,2700.0,45.18607992408548,8.253337390834202,22284.010955252343,29.80161111969328,12.22384935564472,15.3844688043922,3.970511964810516,4127,102,1368,2069,237.0774169624762,136.68753856720278,0.0034856813362952,False
0.38,0.7810862610720535,3.200000000000001,8938.0,87.56201999999999,0.08,68900.0,0.33,276.0,2700.0,33.45723255292888,6.241950536997964,16853.266449894505,23.3713603714708,8.129466634908145,10.085872181458084,1.88751609791018,94739,316,14112,61089,215.50194603532705,124.41305689128625,0.0028212746171828,False
0.39,0.8091753487447886,3.200000000000001,8939.0,87.56201999999999,0.1,68900.0,0.33,276.0,2700.0,35.133484134146954,6.726791983080133,18162.33835431636,24.49745217002098,8.801715854636575,10.636031964125973,2.0749238715564413,54213,260,9388,33805,211.6865394926473,122.20493949732918,0.0028555182127078,False
0.4,0.9784559081087352,3.200000000000001,8940.0,87.56201999999999,0.2,68900.0,0.33,276.0,2700.0,47.53915944040053,9.373790601526942,25309.234624122742,31.703764496087963,13.548442875447606,15.835394944312569,4.174652273920664,12836,158,3146,7273,238.61246486070985,137.75008517162803,0.0034820140630779,False
0.05,0.4891872432127409,3.200000000000001,8955.0,90.5814,0.1,68900.0,0.33,276.0,2700.0,24.09713119241861,0.6021664804226643,1625.8494971411935,12.84287786741712,2.8961066064458705,11.254253325001493,2.293940126023206,19675,212,6450,9994,939.3314978357026,536.8286175513672,0.0100152018823085,True
0.0699999999999999,0.3804145188332502,3.200000000000001,8957.0,90.5814,0.05,68900.0,0.33,276.0,2700.0,16.91934681702733,0.5914587610758354,1596.9386549047556,9.46723264306452,1.6854362272320065,7.452114173962808,1.0939774661561712,54330,346,17970,27369,500.70980317994577,287.98148706612847,0.0054746804822772,True
0.08,0.3825711794805599,3.200000000000001,8958.0,90.5814,0.1,68900.0,0.33,276.0,2700.0,16.765270049939573,0.6695384717051631,1807.7538736039403,9.531272856540852,1.7059228708074197,7.2339971933987215,1.0363843991022563,14046,176,4616,7116,429.5984037764488,247.6942512208564,0.0048779137943926,True
0.09,0.4212327841235332,3.200000000000001,8959.0,90.5814,0.05,68900.0,0.33,276.0,2700.0,18.73767909342452,0.8416687451743327,2272.5056119706983,10.699127485177122,2.096871709246864,8.038551608247396,1.2552029640725308,71042,368,20206,38273,427.7114345571906,246.44938337191863,0.0048905119264736,True
0.0999999999999999,0.682568813489639,3.200000000000001,8960.0,90.5814,0.2,68900.0,0.33,276.0,2700.0,35.55663123994185,1.775737166894692,4794.490350615668,19.57853468405928,6.015812235288439,15.978096555882573,4.240075068393747,7447,136,2444,3775,628.370744692417,360.7944109156013,0.007935111850209,True
0.11,0.5944924973333041,3.200000000000001,8961.0,90.5814,0.2,68900.0,0.33,276.0,2700.0,29.08524555832394,1.5969008658265296,4311.63233773163,16.394204286392785,4.433070058157687,12.691041271931155,2.836169192331157,6111,120,2002,3102,487.714190544156,280.83164981890474,0.0061208889293741,True
0.12,0.6477489762282571,3.200000000000001,8962.0,90.5814,0.2,68900.0,0.33,276.0,2700.0,32.407343334050395,1.9408214853060903,5240.2180103264445,18.29634782162301,5.356502030338375,14.110995512427383,3.4156805450322847,6904,130,2270,3493,485.7939108055271,279.7885463175641,0.0062754754516504,True
0.13,0.510124323383903,3.200000000000001,8963.0,90.5814,0.1,68900.0,0.33,276.0,2700.0,22.985389279531464,1.4894489171295846,4021.512076249879,13.526764821883122,3.1721390456099656,9.458624457648344,1.682690128480381,19150,208,6330,9649,357.6615448505205,206.4601558258812,0.0043697740880181,True
0.14,0.5575653447543154,3.200000000000001,8964.0,90.5814,0.2,68900.0,0.33,276.0,2700.0,25.70387063433608,1.793523924242559,4842.514595454909,15.11713858090234,3.8513634371607286,10.586732053433735,2.0578395129181697,5469,114,1786,2784,368.28593733411407,212.5706507584031,0.0045428128248786,True
0.15,0.7505359471049657,3.200000000000001,8965.0,90.5814,0.3,68900.0,0.33,276.0,2700.0,38.775580606582224,2.901099962023091,7832.969897462345,22.16911003821068,7.433888518349839,16.60647056837154,4.532788556326748,3748,96,1224,1906,462.6270314061339,267.08230827137027,0.0061461007459087,True
0.16,0.7061074301906645,3.200000000000001,8966.0,90.5814,0.3,68900.0,0.33,276.0,2700.0,35.190421993657374,2.806655117153004,7577.96881631311,20.46257011741531,6.487041029378678,14.727851876242063,3.680385912225674,3299,90,1078,1676,415.37908363165513,239.80767998818547,0.0053620064037351,True
0.17,0.6757147964238279,3.200000000000001,8967.0,90.5814,0.1,68900.0,0.33,276.0,2700.0,32.7055539642472,2.769682323822959,7478.142274321989,19.32373736574854,5.882494491387992,13.381816598498665,3.112812167565033,27839,252,8866,14274,368.5490541723616,212.6641157787896,0.0048045865026751,True
0.19,0.7422442983661464,3.200000000000001,8969.0,90.5814,0.2,68900.0,0.33,276.0,2700.0,36.78279871730475,3.480000422136638,9396.001139768923,21.846854920981944,7.251407252115631,14.935943796322809,3.771406829978993,7594,138,2506,3829,356.7189002153726,205.75408944648385,0.004879199690229,True
0.2,0.8017280677035272,3.200000000000001,8970.0,90.5814,0.3,68900.0,0.33,276.0,2700.0,40.84540907762304,4.067785746943156,10983.02151674652,24.19695883096112,8.620396237775182,16.64845024666192,4.552610490832026,3916,100,1284,1984,372.18113291572826,214.7152357252069,0.005133114792194,True
0.21,0.8849996187205735,3.200000000000001,8971.0,90.5814,0.3,68900.0,0.33,276.0,2700.0,46.93347900803598,4.908619102800521,13253.271577561409,27.636260267689668,10.777303171611912,19.297218740346317,5.868684068811391,4545,108,1484,2313,383.61058131055984,221.45427320747825,0.005577080136752,True
0.22,0.8502090380038376,3.200000000000001,8972.0,90.5814,0.3,68900.0,0.33,276.0,2700.0,43.84014336875559,4.800114651512836,12960.309559084655,26.178135955309003,9.841274318788203,17.662007413446588,5.041159667275368,4260,104,1394,2163,360.22526329442024,207.88737427930528,0.0050811845046673,True
0.23,0.7249281993174375,3.200000000000001,8973.0,90.5814,0.1,68900.0,0.33,276.0,2700.0,34.20874025746359,3.908522624397496,10553.01108587324,21.17943659595136,6.878894363800191,13.029303661512229,2.9703717394026943,37704,260,9304,21340,299.3825172640847,172.76614342840534,0.0040131543206922,True
0.24,0.5735356811731132,3.200000000000001,8974.0,90.5814,0.08,68900.0,0.33,276.0,2700.0,23.769332842601525,2.823367023216699,7623.090962685087,15.66524096880745,4.097157384733712,8.104091873794076,1.2737903615170127,51292,264,10108,31150,241.8655826050233,139.57969482455294,0.0029713751846667,False
0.25,0.6358730869654846,3.200000000000001,8975.0,90.5814,0.2,68900.0,0.33,276.0,2700.0,27.495551916316945,3.404219066064721,9191.391478374748,17.86600521795781,5.141775488228082,9.629546698359135,1.7375564221633608,5536,116,1828,2788,244.65455299765543,141.17146272281255,0.0031913595199455,False
0.26,0.9151097345504896,3.200000000000001,8976.0,90.5814,0.3,68900.0,0.33,276.0,2700.0,47.48763271463711,6.136581164583155,16568.769144374517,28.922776218403936,11.62874556787776,18.564856496233173,5.492164403294606,4507,108,1484,2275,328.2900945666323,189.50820092587568,0.0047949791422361,True
0.27,0.7281374752691198,3.200000000000001,8977.0,90.5814,0.3,68900.0,0.33,276.0,2700.0,33.1515188752284,4.434231069355431,11972.423887259663,21.302563531979988,6.947062525267473,11.84895534324841,2.5128314559120417,3233,88,1064,1631,259.0945369614207,149.57485604285836,0.0034884337288603,False
0.28,0.936653456992951,3.200000000000001,8978.0,90.5814,0.3,68900.0,0.33,276.0,2700.0,48.47860139948784,6.741028034640562,18200.77569352952,29.857259643059862,12.261895014626509,18.62134175642798,5.520866979985945,4493,108,1480,2267,312.9284244441083,180.59675251961488,0.0046221288831314,True
0.29,0.6640551532899458,3.200000000000001,8979.0,90.5814,0.08,68900.0,0.33,276.0,2700.0,28.1720812597958,4.033871580518122,10891.453267398929,18.893004045834225,5.659701027907401,9.279077213961571,1.625829447389279,66461,290,12040,41105,248.9170828413952,143.46034453934442,0.0029965461131948,False
0.3,0.6657195290243212,3.200000000000001,8980.0,90.5814,0.08,68900.0,0.33,276.0,2700.0,27.98826998198816,4.141691829533607,11182.567939740738,18.954280758874997,5.691197069471533,9.033989223113164,1.5495052399379263,67677,288,11944,42047,229.88489629001444,132.654713692159,0.0029259740804402,False
0.31,0.7517314876342986,3.200000000000001,8981.0,90.5814,0.3,68900.0,0.33,276.0,2700.0,33.549290335980714,5.137745877581618,13871.913869470369,22.21571727992129,7.460420444744057,11.333573056059423,2.322674567162439,3202,88,1054,1615,236.1212263392057,135.72972079752898,0.0032204884167936,False
0.32,0.6585317514487078,3.200000000000001,8982.0,90.5814,0.05,68900.0,0.33,276.0,2700.0,26.936887757274494,4.2412729024487,11451.43683661149,18.69014987646681,5.555907950042255,8.24673788080769,1.3146350475935549,246451,444,28726,164796,273.35268501200056,153.80938348714173,0.0027538924182011,False
0.33,0.6527596783093708,3.200000000000001,8983.0,90.5814,0.05,68900.0,0.33,276.0,2700.0,26.27753731722321,4.2605273805471295,11503.42392747725,18.47898223396656,5.4486368782759005,7.798555083256648,1.188109497728771,246830,440,28388,165348,269.6197315940807,153.18753447205026,0.0026654622862953,False
0.34,0.7669618511623173,3.200000000000001,8984.0,90.5814,0.3,68900.0,0.33,276.0,2700.0,33.68798700343335,5.644639685479101,15240.527150793572,22.812605222697965,7.803311905851631,10.875381780735385,2.15867222037253,3297,90,1096,1647,219.78410758922055,126.8732157602476,0.0030535795244886,False
0.3500000000000001,0.6831140277457215,3.200000000000001,8985.0,90.5814,0.05,68900.0,0.33,276.0,2700.0,27.69093534088897,4.756116494640463,12841.514535529252,19.59885365791769,6.026492270269063,8.09208168297128,1.2703757756286,268917,450,29378,181280,281.6281184950821,158.13919406675515,0.0026739812067458,True
0.36,0.836818532302178,3.200000000000001,8986.0,90.5814,0.1,68900.0,0.33,276.0,2700.0,38.06907172677583,6.754716812922394,18237.735394890464,25.62502763750725,9.494444068689866,12.44404408926858,2.7397272557674723,56806,274,10296,35148,242.87690765751836,137.84424047019843,0.0032711948743674,False
0.37,0.8146009410644912,3.200000000000001,8987.0,90.5814,0.3,68900.0,0.33,276.0,2700.0,36.140476010530286,6.579900666826536,17765.731800431648,24.71724925000473,8.935224973152973,11.423226760525552,2.355324306326437,3711,94,1232,1857,212.35468616320904,122.396219558809,0.0030597313672839,False
0.38,0.9924764485969172,3.200000000000001,8988.0,90.5814,0.3,68900.0,0.33,276.0,2700.0,49.36147706512052,9.263756994314376,25012.143884648813,32.33291745502361,13.997351549106812,17.028559610096906,4.733594554792438,4673,110,1552,2339,254.8827940479802,146.3442529961927,0.003787972449808,False
0.39,0.8880779254742577,3.200000000000001,8989.0,90.5814,0.2,68900.0,0.33,276.0,2700.0,40.89867797819925,7.851004782669987,21197.712913208965,27.766741510474567,10.86257682779256,13.131936467724683,3.011572045122572,10817,142,2676,6107,238.90573445762996,137.8746647233877,0.0032801300059715,False
0.4,0.9041195406580772,3.200000000000001,8990.0,90.5814,0.1,68900.0,0.33,276.0,2700.0,41.78005559348832,8.221969832144511,22199.31854679018,28.4505572352278,11.313476318614322,13.329498358260524,3.091506486469811,65484,288,11110,41023,242.2174430642228,135.24808444023873,0.0032889061608176,False
0.4100000000000001,0.9105478852904036,3.200000000000001,8991.0,90.5814,0.1,68900.0,0.33,276.0,2700.0,41.93899108591071,8.453145367759662,22823.49249295109,28.726397351687165,11.497252346809889,13.212593734223542,3.044106979050227,68078,290,11336,42826,229.7507549730425,132.61776671081108,0.0032518334976758,False
0.42,0.7353298809919658,3.200000000000001,8992.0,90.5814,0.05,68900.0,0.33,276.0,2700.0,29.169041712516684,5.970329215282397,16119.888881262472,21.579447174006763,7.101274155614137,7.589594538509921,1.13094494033174,335493,462,31226,230494,262.6565799832549,147.699556194341,0.0025224791016242,False
0.43,1.0960984584407798,3.200000000000001,8993.0,90.5814,0.3,68900.0,0.33,276.0,2700.0,56.10424617934829,11.895893857153917,32118.91341431557,37.13600478491188,17.594275906106585,18.968241394436404,5.69838204895267,5114,116,1696,2560,246.73086082681812,142.20105281087586,0.003869282129729,False
0.44,1.059352747151742,3.200000000000001,8994.0,90.5814,0.3,68900.0,0.33,276.0,2700.0,52.67514508509644,11.410122966318944,30807.33200906115,35.40188678543393,16.2616516106099,17.27325829966251,4.851528644290955,5096,114,1692,2546,234.8567691685654,135.48535158211743,0.0036357734279754,False
0.45,0.8139033340141741,3.200000000000001,8995.0,90.5814,0.1,68900.0,0.33,276.0,2700.0,33.66976721451032,7.384845869559248,19939.08384780997,24.688946926488704,8.917991918472913,8.980820288021619,1.5331460489136646,58415,252,9150,37274,208.99287748397077,118.03522268145908,0.0026638883099568,False
0.46,1.1002983440338243,3.200000000000001,8996.0,90.5814,0.3,68900.0,0.33,276.0,2700.0,55.36231587378978,12.529472609285106,33829.576045069785,37.33636842962744,17.75066347462151,18.025947444162348,5.221190865336405,5452,118,1784,2748,397.7928819353484,225.35799398055968,0.0036151409076666,True
0.4700000000000001,0.958874144813467,3.200000000000001,8997.0,90.5814,0.2,68900.0,0.33,276.0,2700.0,43.66606215247234,10.044078223115235,27119.011202411137,30.83332769471804,12.936165333065691,12.832734457754302,2.8920871099504577,11988,150,2972,6760,215.10691225129816,124.1696222775015,0.0030877163356226,False
0.4800000000000001,0.8746841493785429,3.200000000000001,8998.0,90.5814,0.2,68900.0,0.33,276.0,2700.0,37.093880461528464,8.670907967602968,23411.45151252801,27.20075114387019,10.494470715528818,9.893129317658277,1.82356274792585,10003,136,2446,5672,200.26404344786445,115.57582877175314,0.0027311425872548,False
0.49,0.8862636620624738,3.200000000000001,8999.0,90.5814,0.1,68900.0,0.33,276.0,2700.0,37.6303975106125,8.9730439006986,24227.21853188622,27.68981088724417,10.812270443320315,9.940586623368326,1.8392265426217165,68131,268,10004,44033,386.1612428184242,221.9405766223604,0.0027452425459152,True
0.5,0.987185220220436,3.200000000000001,9000.0,90.5814,0.1,68900.0,0.33,276.0,2700.0,44.87296131878849,10.956440941897975,29582.390543124537,32.0949002494969,13.826900710732035,12.778061069291589,2.87045976883406,82929,300,11946,53782,244.26877433959916,137.37162956067613,0.0030537906222739,False
0.01,0.559714803090829,3.6000000000000005,9001.0,3.01938,0.05,68900.0,0.33,276.0,2700.0,32.828893227085,0.1641423717403198,443.18440369886366,16.59725146708084,4.277616045888949,16.231641760004155,4.113473674148629,107105,498,35454,53918,188.63596622167336,107.3404056839783,0.0020103423841617,False
0.02,0.5972829949932037,3.6000000000000005,9002.0,3.01938,0.1,68900.0,0.33,276.0,2700.0,35.2388855779712,0.3523721006188897,951.4046716710023,17.993237775455974,4.92725606458078,17.24564780251523,4.57488396396189,29080,262,9628,14632,91.34102962608532,52.149460958957945,0.0011082296409358,False
0.03,0.6612928607280872,3.6000000000000005,9003.0,3.01938,0.1,68900.0,0.33,276.0,2700.0,39.74106189653557,0.5960593797802672,1609.3603254067216,20.45346962325518,6.157191066798008,19.28759227328039,5.561131687017741,32528,278,10694,16481,73.18847504080406,41.671485559865786,0.0008499823443702,False
0.04,0.5269778892336742,3.6000000000000005,9004.0,3.01938,0.1,68900.0,0.33,276.0,2700.0,29.40497500267773,0.5879654587670055,1587.5067386709147,15.409711725431633,3.753784927909757,13.995263277246098,3.165819469142752,24553,236,8066,12448,44.78596230785104,25.58587939993966,0.0004902786778344,False
0.05,0.6861041701351158,3.6000000000000005,9005.0,3.01938,0.2,68900.0,0.33,276.0,2700.0,40.90783982935268,1.022434196346018,2760.5723301342487,21.43479059315332,6.676810369657865,19.473049236199365,5.654376173311847,8355,142,2754,4218,39.92318272657157,23.02957481242374,0.0005482831165963,False
0.06,0.7578226983071485,3.6000000000000005,9006.0,3.01938,0.2,68900.0,0.33,276.0,2700.0,46.2620061020951,1.3874077937207463,3746.001043046015,24.358352450331196,8.318146182914818,21.903653651763907,6.930738389194072,9399,152,3076,4779,37.84041873711673,21.609096981236195,0.0005235269198816,False
0.0699999999999999,0.5617034974759659,3.6000000000000005,9007.0,3.01938,0.2,68900.0,0.33,276.0,2700.0,30.830531452657635,1.078350223322896,2911.545602971819,16.670259669754795,4.310695485718744,14.16027178290284,3.2323452623958486,6513,122,2136,3303,24.727804820042238,14.17530316887436,0.0003144978603738,False
0.08,0.6958044526153253,3.6000000000000005,9008.0,3.01938,0.2,68900.0,0.33,276.0,2700.0,40.517183153949205,1.6196149958655477,4372.960488836979,21.82265680537736,6.886613187562275,18.694526348571845,5.266998191696727,8320,142,2740,4204,26.47065726902972,15.128302294562754,0.0003604555402271,False
0.09,0.4980903221009781,3.6000000000000005,9009.0,3.01938,0.2,68900.0,0.33,276.0,2700.0,25.707738632352093,1.1553214244261976,3119.367845950733,14.384178417776162,3.323498915471133,11.32356021457593,2.1681774910449354,5325,110,1734,2718,16.956672580790812,9.789920418821223,0.0002163417182595,False
0.0999999999999999,0.6220811188803033,3.6000000000000005,9010.0,3.01938,0.2,68900.0,0.33,276.0,2700.0,34.16853524376943,1.7063323670860753,4607.097391132404,18.934139313309757,5.3850889619749855,15.23439593045968,3.6787565948889114,7181,130,2350,3650,18.80685807495558,10.795977726388475,0.0002557707561932,False
0.11,0.515815555828312,3.6000000000000005,9011.0,3.01938,0.2,68900.0,0.33,276.0,2700.0,26.259793297931807,1.441500991504965,3892.0526770634056,15.010953036321515,3.5840050395546803,11.24884026161029,2.142504048049715,5612,114,1838,2849,14.549589184427784,8.392512860288916,0.0001874784582923,False
0.12,0.6223082410204461,3.6000000000000005,9012.0,3.01938,0.2,68900.0,0.33,276.0,2700.0,33.47543886179572,2.004907216970778,5413.2494858211,18.942828307989195,5.389390310924685,14.532610553806528,3.384483093953907,6900,126,2264,3498,15.59987431433993,8.989508089031258,0.0002162335566115,False
0.13,0.7239422410446372,3.6000000000000005,9013.0,3.01938,0.2,68900.0,0.33,276.0,2700.0,40.828789338331305,2.6492699209515798,7153.028786569264,22.96112664492071,7.516624841201496,17.867662693410594,4.867354920249917,8405,142,2752,4271,16.478819160342024,9.50764636288021,0.0002416954248212,False
0.14,0.7274337736700781,3.6000000000000005,9014.0,3.01938,0.1,68900.0,0.33,276.0,2700.0,40.72760613995006,2.845185409635548,7682.000606015979,23.103783670991188,7.597043320682467,17.623822468958874,4.751857911046919,33196,282,10984,16712,15.89883010274341,9.152087500014586,0.0002270550687087,False
0.15,0.6189836227023805,3.6000000000000005,9015.0,3.01938,0.3,68900.0,0.33,276.0,2700.0,32.18784607634115,2.407019872255012,6498.9536550885305,18.81576804276204,5.326623927341862,13.372078033579111,2.9196040550868503,3054,84,1002,1545,13.16184597794195,7.59896544019456,0.0001751073631811,False
0.16,0.8111327007654188,3.6000000000000005,9016.0,3.01938,0.2,68900.0,0.33,276.0,2700.0,46.67134683800728,3.725129104701176,10057.848582693176,26.61526030524666,9.676530582865173,20.05608653276062,5.951401478163996,9736,156,3198,4933,15.00824647541871,8.664824045140964,0.0002300571804003,False
0.17,0.6869987344583337,3.6000000000000005,9017.0,3.01938,0.2,68900.0,0.33,276.0,2700.0,36.523532856289634,3.094210529646563,8354.36843004572,21.47046079726013,6.6960011217448265,15.0530720590295,3.601790592098264,7710,136,2532,3906,12.308818926638525,7.10514010820302,0.0001770485814123,False
0.18,0.5282207813982086,3.6000000000000005,9018.0,3.01938,0.08,68900.0,0.33,276.0,2700.0,24.85464392255856,2.224703440793112,6006.699290141402,15.45430605579898,3.7729652468216974,9.40033786675958,1.548261806028585,42938,266,10626,24281,9.428584625802957,5.441106293567054,0.000125117113629,False
0.19,0.6874832941106369,3.6000000000000005,9019.0,3.01938,0.1,68900.0,0.33,276.0,2700.0,35.85264410859461,3.39163573430917,9157.41648263476,21.489790714108743,6.706409523774142,14.362853394485867,3.3147737894649723,38508,262,9772,21592,11.257524898537008,6.493038984228869,0.0001609125111641,False
0.2,0.7643754969879712,3.6000000000000005,9020.0,3.01938,0.1,68900.0,0.33,276.0,2700.0,41.4004281255716,4.123287651738012,11132.876659692633,24.631918517820427,8.478657285097846,16.768509607751167,4.3553696333598335,45629,284,11232,25853,11.750883219793858,6.779706299654473,0.0001747115145586,False
0.21,0.6711365914308527,3.6000000000000005,9021.0,3.01938,0.2,68900.0,0.33,276.0,2700.0,33.943815466734435,3.5447044309638507,9570.701963602396,20.84095104699783,6.360434647365775,13.102864419736605,2.815730216401924,7152,130,2360,3606,9.982061974764411,5.757710952090628,0.0001425760515708,False
0.22,0.5953286345595062,3.6000000000000005,9022.0,3.01938,0.2,68900.0,0.33,276.0,2700.0,28.179719811356648,3.0774680601989526,8309.163762537171,17.919741575481286,4.892162627265033,10.259978235875362,1.81469456706608,5659,114,1870,2848,8.667899893745194,4.9950970140587705,0.0001196469665423,False
0.23,0.738829140909264,3.6000000000000005,9023.0,3.01938,0.1,68900.0,0.33,276.0,2700.0,38.33447384172229,4.382981986587248,11834.051363785573,23.57150732051521,7.862981262447411,14.762966521207083,3.4799992758601626,42157,270,10392,23869,10.135111519555032,5.849329746307281,0.000148216935,False
0.24,0.7503697634783763,3.6000000000000005,9024.0,3.01938,0.1,68900.0,0.33,276.0,2700.0,38.86606555665592,4.634974948903226,12514.43236203871,24.04851924829879,8.137760419940399,14.81754630835713,3.502785471037173,43550,276,10702,24693,9.93954506692008,5.735587101372473,0.0001454820387718,False
0.25,0.7170356207728152,3.6000000000000005,9025.0,3.01938,0.2,68900.0,0.33,276.0,2700.0,35.984940607925914,4.465392652515843,12056.560161792777,22.67983844907712,7.359013123839583,13.305102158848792,2.8936204713237403,7331,132,2424,3689,9.042156803305836,5.213175754136041,0.0001324713134605,False
0.26,0.6988837078759988,3.6000000000000005,9026.0,3.01938,0.3,68900.0,0.33,276.0,2700.0,34.2941116563544,4.421423427006382,11937.843252917231,21.946275464443787,6.954000983885357,12.347836191910616,2.532577556878975,3212,88,1054,1625,8.649859979352424,4.988106976786049,0.0001242275385886,False
0.27,0.7986353022051018,3.6000000000000005,9027.0,3.01938,0.1,68900.0,0.33,276.0,2700.0,41.54895414960505,5.567884831396276,15033.289044769945,26.07976666736782,9.347259293815467,15.469187482237231,3.7793744624191934,49097,286,11406,28422,9.512256977896667,5.486748900565304,0.0001415157323156,False
0.28,0.7295008516062194,3.6000000000000005,9028.0,3.01938,0.3,68900.0,0.33,276.0,2700.0,35.89490239360042,4.979310173816327,13444.137469304082,23.18838472167267,7.644888062134586,12.706517671927749,2.66557788831826,3538,90,1164,1786,8.306142590100361,4.795064636381066,0.0001225585962758,False
0.29,0.6237890073776511,3.6000000000000005,9029.0,3.01938,0.05,68900.0,0.33,276.0,2700.0,27.949722585074507,4.001629572683531,10804.399846245537,18.999509655593723,5.417482172909524,8.950212929480784,1.4158526002259926,240950,448,30028,159612,9.279834319128272,5.261187732435816,0.0001146341146935,False
0.3,0.8169876176661302,3.6000000000000005,9030.0,3.01938,0.3,68900.0,0.33,276.0,2700.0,41.92016060615616,6.23147542315881,16824.983642528787,26.867484448589387,9.83309867558355,15.052676157566772,3.60162325242474,3947,98,1306,1982,12.35220668753029,7.116528890111176,0.0002148448109543,False
0.31,0.9287865995732278,3.6000000000000005,9031.0,3.01938,0.2,68900.0,0.33,276.0,2700.0,50.65721596211138,7.789474349631757,21031.580744005743,31.848969030327016,13.112391876408974,18.808246931784364,5.322917526777218,10277,162,3396,5165,9.4002428377088,5.422891767821011,0.0001496083331014,False
0.32,0.952915687267938,3.6000000000000005,9032.0,3.01938,0.1,68900.0,0.33,276.0,2700.0,52.31539740480486,8.301834446053542,22414.953004344563,32.965316604825325,13.89431724477105,19.350080799979537,5.5924827987175085,74372,322,13908,45792,9.847570938800086,5.522159429484518,0.000151541201771,False
0.33,0.7029948748435051,3.6000000000000005,9033.0,3.01938,0.1,68900.0,0.33,276.0,2700.0,32.29693618335694,5.253728193459197,14185.066122339833,22.111692349493207,7.044565669320914,10.185243833863732,1.790837475861717,47010,246,8878,28835,7.455937657399272,4.302971243643745,0.0001043393036674,False
0.34,1.0108508741423805,3.6000000000000005,9034.0,3.01938,0.2,68900.0,0.33,276.0,2700.0,56.535140468831344,9.528655774596864,25727.370591411534,35.705470505809124,15.88313741358952,20.82966996302222,6.354481638992656,11939,172,3726,6184,9.66091568837437,5.563379493176711,0.0001535694038996,False
0.3500000000000001,1.0369063815998654,3.6000000000000005,9035.0,3.01938,0.3,68900.0,0.33,276.0,2700.0,58.432092710559495,10.13581903433276,27366.711392698453,36.96531535792572,16.8298374677405,21.466777352633777,6.69401843340774,5479,118,1808,2761,9.38039462666049,5.415073695525317,0.0001542870497714,False
0.36,0.7542035655640713,3.6000000000000005,9036.0,3.01938,0.1,68900.0,0.33,276.0,2700.0,35.0771675854507,6.216174067483876,16783.669982206466,24.207723604444983,8.23026274417088,10.86944398100572,2.0140886766870034,52633,256,9558,32554,7.349519839568731,4.242344495715675,0.0001051389087415,False
0.37,0.8493276482232703,3.6000000000000005,9037.0,3.01938,0.2,68900.0,0.33,276.0,2700.0,42.00550629535195,7.664931269518584,20695.314427700177,28.27618391392509,10.724701795303416,13.729322381426854,3.059770525784831,10687,144,2812,5909,7.95490597843986,4.588127747482701,0.0001167384677993,False
0.38,0.7813049049144334,3.6000000000000005,9038.0,3.01938,0.2,68900.0,0.33,276.0,2700.0,36.4447447562988,6.809577855638258,18385.860210223294,25.343682629132648,8.90167579208058,11.101062127166148,2.092097936442322,9547,134,2476,5305,7.317504519235961,4.215471653074511,0.0001044513051967,False
0.39,1.029004250368447,3.6000000000000005,9039.0,3.01938,0.2,68900.0,0.33,276.0,2700.0,56.16654303989738,10.82823846970113,29236.24386819305,36.58142614218024,16.539250499706096,19.58511689771715,5.711012030004966,15459,174,3836,8723,8.716017340246948,5.030935786183845,0.0001404252176619,False
0.4,0.9723925475220636,3.6000000000000005,9040.0,3.01938,0.2,68900.0,0.33,276.0,2700.0,50.94147360128216,10.05425343370327,27146.48427099883,33.8770986265829,14.545241960567571,17.064374974699263,4.490988526864301,13509,160,3322,7648,8.179219033068618,4.713523633132311,0.0001283577974471,False
0.4100000000000001,0.9163212365183062,3.6000000000000005,9041.0,3.01938,0.1,68900.0,0.33,276.0,2700.0,45.952229738769326,9.275859291595673,25044.820087308315,31.27798340250404,12.71894574280074,14.674246336265284,3.443086451205067,73786,298,12396,46328,7.685556970134954,4.433474405632927,0.0001177485411,False
0.42,0.751168428746221,3.6000000000000005,9042.0,3.01938,0.2,68900.0,0.33,276.0,2700.0,32.95069357055024,6.764476105469449,18264.085484767515,24.08165455447737,8.15698036794923,8.869039016072861,1.39250426247978,8888,124,2224,4994,6.592416879632276,3.8060741634638906,9.259435266697048e-05,False
0.43,0.9266281194119704,3.6000000000000005,9043.0,3.01938,0.2,68900.0,0.33,276.0,2700.0,46.08264524264683,9.741249655763095,26301.37407056036,31.74981860497643,13.043753536775652,14.332826637670395,3.302503881012557,12484,152,3092,7050,7.489566315241736,4.317426277542467,0.0001144370528926,False
0.44,0.9247647703304276,3.6000000000000005,9044.0,3.01938,0.3,68900.0,0.33,276.0,2700.0,45.58249798239608,9.849740603724872,26594.29963005716,31.664319286447256,12.984672212527313,13.91817869594882,3.1349316088024377,4180,102,1388,2092,6.809052010595117,3.929975934133604,0.0001107101896232,False
0.45,0.9384036283495618,3.6000000000000005,9045.0,3.01938,0.2,68900.0,0.33,276.0,2700.0,46.33714120728224,10.235005017932917,27634.51354841888,32.2921531786177,13.420813522558896,14.04498802866454,3.18580850462598,12402,152,3078,6995,7.356435788262599,4.247103179125187,0.0001119826727578,False
0.46,1.1126825792558803,3.6000000000000005,9046.0,3.01938,0.3,68900.0,0.33,276.0,2700.0,60.84277701597005,13.789978671986576,37232.94241436376,40.72623949818294,19.772511485313807,20.11653751778711,5.98253281332723,5639,120,1860,2831,7.833092561902419,4.512534451070939,0.0001332139619832,False
0.4700000000000001,0.8787634576052699,3.6000000000000005,9047.0,3.01938,0.2,68900.0,0.33,276.0,2700.0,40.92692520639161,9.400381040786256,25381.02881012289,29.581229365306815,11.576188271745863,11.34569584108479,2.175807230959606,10792,140,2658,6099,6.797835568569274,3.924713433079394,0.000100642170665,False
0.4800000000000001,1.1529292990741469,3.6000000000000005,9048.0,3.01938,0.2,68900.0,0.33,276.0,2700.0,63.69422386028378,15.054990383304244,40648.474034921455,42.78244383564403,21.45285023866362,20.911780024639747,6.397859855359375,17488,186,4310,9899,8.179264569463962,4.722071562576689,0.0001356975220775,False
0.49,1.0066333660118545,3.6000000000000005,9049.0,3.01938,0.1,68900.0,0.33,276.0,2700.0,50.54321038292135,12.136683054414275,32769.04424691855,35.503148535680815,15.732976105822177,15.04006184724053,3.5962930514078995,93630,316,13656,60596,7.904537489315361,4.496206215969919,0.0001151410861793,False
0.5,0.9349142073308178,3.6000000000000005,9050.0,3.01938,0.2,68900.0,0.33,276.0,2700.0,44.34554178013276,10.82458605723404,29226.382354531903,32.13108055070755,13.308413718609003,12.214461229425204,2.4838276613749635,12009,148,2916,6827,6.789475807279272,3.91891781776738,0.0001026600288377,False
0.01,0.5526733893968103,3.6000000000000005,9051.0,6.03876,0.05,68900.0,0.33,276.0,2700.0,32.315257506648564,0.1615741931381397,436.2503214729773,16.33954875672134,4.161655959025587,15.975708749927223,4.000081765887447,105438,494,34904,53076,361.07832537335247,205.1410391679277,0.003959491677592,True
0.02,0.680425363515405,3.6000000000000005,9052.0,6.03876,0.1,68900.0,0.33,276.0,2700.0,41.62825961154423,0.4162658409546273,1123.9177705774937,21.208820748574603,6.55572834202692,20.419438862969628,6.139462501072293,34119,286,11298,17166,203.6862326684212,116.16695251943412,0.0026085916333108,False
0.03,0.3734441624093707,3.6000000000000005,9053.0,6.03876,0.1,68900.0,0.33,276.0,2700.0,19.45039707514136,0.2916994074593569,787.5884001402636,10.199620809840072,1.7954168087799092,9.250776265301283,1.5037174013205523,16164,188,5300,8208,732.4211254974012,385.3862289866315,0.0008616300885428,True
0.04,0.3502413254030651,3.6000000000000005,9054.0,6.03876,0.05,68900.0,0.33,276.0,2700.0,17.690778685348537,0.3536815324204198,954.9401375351335,9.463776080278883,1.5673196749230838,8.227002605069652,1.213638142502664,57528,354,18936,29118,58.7947939066802,33.64981583141336,0.0006123399907928,False
0.05,0.451563706752178,3.6000000000000005,9055.0,6.03876,0.1,68900.0,0.33,276.0,2700.0,23.88606347019517,0.5968897873670841,1611.602425891127,12.77653629422789,2.691861794437624,11.109527175967282,2.09497200707054,19998,212,6562,10149,57.24850452865869,32.77192998421084,0.0006642575470465,False
0.06,0.562949708978261,3.6000000000000005,9056.0,6.03876,0.1,68900.0,0.33,276.0,2700.0,31.27128430418807,0.9376861397835232,2531.7525774155124,16.716060778979568,4.331498689946471,14.555223525208504,3.3938125501629477,25664,242,8426,13019,62.67206516977414,35.83185670915778,0.000726897523853,False
0.0699999999999999,0.6332187392613245,3.6000000000000005,9057.0,6.03876,0.2,68900.0,0.33,276.0,2700.0,36.08771082516034,1.2623515013604905,3408.3490536733243,19.36175744830568,5.59834864853346,16.725953376854665,4.335997147172969,7522,132,2470,3811,55.56529023865463,31.80701052858054,0.0007271482277053,False
0.08,0.7017248259701037,3.6000000000000005,9058.0,6.03876,0.2,68900.0,0.33,276.0,2700.0,40.98105658232328,1.6381699330005044,4423.058819101362,22.06054532802451,7.016515223262559,18.920511254298766,5.378345290262054,8596,144,2820,4360,53.80561896692674,30.767546222677502,0.0007284532610341,False
0.09,0.4203076865236211,3.6000000000000005,9059.0,6.03876,0.08,68900.0,0.33,276.0,2700.0,20.56950740973645,0.924101019408492,2495.072752402928,11.727092718125933,2.30898278520897,8.842414691610518,1.3848817658004782,26583,242,8766,13428,27.824878525208334,16.045658332470154,0.0003561896149588,False
0.0999999999999999,0.6942440509692536,3.6000000000000005,9060.0,6.03876,0.3,68900.0,0.33,276.0,2700.0,39.6391003210819,1.9798606209517104,5345.6236765696185,21.76010446689086,6.852609889304813,17.87899585419104,4.872749268353102,3846,96,1260,1950,42.84308996487269,24.73334891023262,0.0005856703549133,False
0.11,0.804886175909759,3.6000000000000005,9061.0,6.03876,0.3,68900.0,0.33,276.0,2700.0,48.13295412012087,2.6445248367253096,7140.217059158336,26.34711598743929,9.511115693376343,21.785838132681576,6.866590856651033,4391,106,1442,2222,43.61257874451386,25.114817882200686,0.00064515193652,False
0.12,0.5493821510681273,3.6000000000000005,9062.0,6.03876,0.2,68900.0,0.33,276.0,2700.0,28.2487678955146,1.6913069589939371,4566.52878928363,16.219522871993014,4.108076201448564,12.029245023521582,2.416769242454627,6056,118,1982,3077,27.97960189957588,16.145475773628807,0.0003728777272452,False
0.13,0.5398438791197617,3.6000000000000005,9063.0,6.03876,0.2,68900.0,0.33,276.0,2700.0,27.254464633925064,1.7669388151649088,4770.7348009452535,15.87321602080948,3.9550233833568185,11.381248613115584,2.188084568191909,5629,114,1848,2851,25.459291508676653,14.675017643188571,0.0003397259218569,False
0.14,0.6592320098589388,3.6000000000000005,9064.0,6.03876,0.3,68900.0,0.33,276.0,2700.0,35.50532460365497,2.479625702094878,6694.989395656171,20.3726560931591,6.115122806796204,15.132668510495868,3.635497104701325,3192,88,1046,1617,29.78693822195765,17.12271353129499,0.0004026496973765,False
0.15,0.5269869255824274,3.6000000000000005,9065.0,6.03876,0.08,68900.0,0.33,276.0,2700.0,25.72320097792661,1.9221714898739195,5189.863022659582,15.410035804858827,3.753924176903341,10.313165173067778,1.831752687029421,42853,272,11024,23927,22.002784942949592,12.694877045872328,0.0002916685653251,False
0.16,0.7736271945178363,3.6000000000000005,9066.0,6.03876,0.2,68900.0,0.33,276.0,2700.0,43.6316359738674,3.4819522355699912,9401.271036038976,25.019995578522916,8.708337872068636,18.611640395344484,5.2263856364986445,9251,150,3040,4685,35.92745742250118,20.60761699986342,0.000472295440069,False
0.17,0.7472664867129895,3.6000000000000005,9067.0,6.03876,0.3,68900.0,0.33,276.0,2700.0,41.16495645532068,3.488731535564058,9419.575146022957,23.919921571633196,8.063330808599705,17.245034883687484,4.574599273035647,4097,98,1340,2081,27.042904896999797,15.607887238099735,0.0003927172654594,False
0.18,0.6809406285629174,3.6000000000000005,9068.0,6.03876,0.2,68900.0,0.33,276.0,2700.0,35.7137247588749,3.2020207160615843,8645.455933366278,21.22929062989236,6.566661779478284,14.484434128982542,3.364641063416699,7430,132,2446,3755,43.02932183337501,23.46305129231313,0.0003325072429005,False
0.19,0.5118169859719919,3.6000000000000005,9069.0,6.03876,0.08,68900.0,0.33,276.0,2700.0,23.44965117434355,2.213351405555324,5976.048794999374,14.868871539803193,3.5242668905211327,8.580779634540358,1.310915484965809,40950,260,10110,23165,17.641216980625963,10.180404732423824,0.0002313415715227,False
0.2,0.5931145884058296,3.6000000000000005,9070.0,6.03876,0.1,68900.0,0.33,276.0,2700.0,28.670633390769883,2.850308178257846,7695.832081296184,17.836595540620564,4.852579559665305,10.834037850149318,2.002271381407459,32012,232,7864,18150,19.155619797765908,11.04578410271376,0.0002598066173277,False
0.21,0.8100461421249416,3.6000000000000005,9071.0,6.03876,0.2,68900.0,0.33,276.0,2700.0,44.66586042065969,4.670519151126007,12610.401708040215,26.56854719209863,9.647636922767006,18.09731322856106,4.977117771641,9130,150,3012,4606,23.54575637737004,13.583440640248469,0.0003579037018474,False
0.22,0.5335706266464577,3.6000000000000005,9072.0,6.03876,0.05,68900.0,0.33,276.0,2700.0,23.975107155056985,2.614960668005987,7060.393803616164,15.646698963846676,3.856157708094081,8.32840819121031,1.2411970400880945,164909,414,25776,105307,17.42791314935899,9.781678703011911,0.0002149920084422,False
0.23,0.922038234248684,3.6000000000000005,9073.0,6.03876,0.3,68900.0,0.33,276.0,2700.0,53.21115366085492,6.093800165787496,16453.26044762624,31.539370104451013,12.898508685166949,21.671783556403906,6.804708519379451,4960,112,1626,2515,24.606322421558986,14.197017408061557,0.0003881318902041,False
0.24,0.8855725161734114,3.6000000000000005,9074.0,6.03876,0.1,68900.0,0.33,276.0,2700.0,49.72592790887641,5.938158431169689,16033.02776415816,29.886212320036407,11.778646257232207,19.83971558884,5.84048782606252,54800,316,13396,31140,22.830679162974757,13.173759085631138,0.0003561061273314,False
0.25,0.7642884075121332,3.6000000000000005,9075.0,6.03876,0.3,68900.0,0.33,276.0,2700.0,39.584916959617296,4.915389696477206,13271.552180488456,24.62827563260475,8.476512262855731,14.956641327012544,3.561122566378525,3616,92,1186,1831,19.225925730374676,11.097181114832342,0.0002854763641424,False
0.26,0.7739579468120148,3.6000000000000005,9076.0,6.03876,0.1,68900.0,0.33,276.0,2700.0,39.97880582585524,5.16043366904142,13933.170906411831,25.033909333809984,8.716615593934039,14.944896492045256,3.556181924892619,45892,280,10926,26341,19.12728244690305,11.037160980847483,0.0002819240343636,False
0.27,0.6463251571921829,3.6000000000000005,9077.0,6.03876,0.1,68900.0,0.33,276.0,2700.0,30.160890413076977,4.030496226964986,10882.33981280546,19.86895865185282,5.855431013686871,10.291931761224156,1.8249347867218848,34735,236,8174,20008,16.1915779910811,9.339162070711236,0.0002229791163643,False
0.28,0.7856746163918559,3.6000000000000005,9078.0,6.03876,0.2,68900.0,0.33,276.0,2700.0,40.179965226339775,5.5792189703998405,15063.89122007957,25.528568235230395,9.012824146572855,14.65139699110938,3.4336051761730166,8155,140,2700,4099,17.820866907499774,10.281027468405298,0.0002672679113871,False
0.29,0.5909161062981132,3.6000000000000005,9079.0,6.03876,0.08,68900.0,0.33,276.0,2700.0,25.69860904922767,3.6752181099857446,9923.08889696151,17.75415590081126,4.813456766798209,7.944453148416411,1.1382386568124647,60012,268,10880,37116,14.421351659735544,8.321442457227242,0.0001925891187376,False
0.3,0.8192480991797149,3.6000000000000005,9080.0,6.03876,0.3,68900.0,0.33,276.0,2700.0,42.09833673370704,6.258201842291447,16897.144974186907,26.96509432690481,9.89394242596742,15.133242406802225,3.635740583675972,3962,98,1310,1991,17.435258245184112,10.058457766432916,0.0002643744653788,False
0.31,0.9425876927097409,3.6000000000000005,9081.0,6.03876,0.3,68900.0,0.33,276.0,2700.0,51.8231399044844,7.970192560699689,21519.51991388916,32.48569419339698,13.556330710408073,19.33744571108742,5.586138149708382,4777,110,1572,2413,19.252845150988435,11.094041879568806,0.0003053683120981,False
0.32,0.9690756109487066,3.6000000000000005,9082.0,6.03876,0.3,68900.0,0.33,276.0,2700.0,53.69709296948728,8.522905736402711,23011.84548828732,33.72114729598968,14.43313248990141,19.9759456734976,5.9102267534987,5097,114,1682,2568,19.249639714122363,11.092756366244632,0.0003068445174937,False
0.33,0.699383104026422,3.6000000000000005,9083.0,6.03876,0.08,68900.0,0.33,276.0,2700.0,32.03619980261571,5.210706690636891,14068.908064719606,21.966346498404267,6.964965880806103,10.069853304211446,1.7542591901692122,80319,304,13274,50638,14.86250301869016,8.575029540803651,0.0002075720599542,False
0.34,0.8189014168222861,3.6000000000000005,9084.0,6.03876,0.3,68900.0,0.33,276.0,2700.0,40.6646646997288,6.830674893849436,18442.82221339348,26.95011589448865,9.88459669996428,13.714548805240142,3.053921806114845,3974,98,1314,1997,15.719167614001332,9.074586111707728,0.0002376795010043,False
0.3500000000000001,0.7711131012741497,3.6000000000000005,9085.0,6.03876,0.08,68900.0,0.33,276.0,2700.0,36.66815201490149,6.327129412592658,17083.249414000176,24.914325106513992,8.645568136218959,11.753826908387502,2.3184387236263007,97162,330,15396,61854,16.173250844264427,9.07991982277739,0.000220176374486,False
0.36,1.0277740445606105,3.6000000000000005,9086.0,6.03876,0.2,68900.0,0.33,276.0,2700.0,57.23011969599862,10.203705447382491,27550.004707932727,36.52180334987752,16.494284494859073,20.7083163461211,6.290579047476582,13594,174,3840,7332,18.8236186017852,10.865725127922431,0.0002997441098158,False
0.37,0.686402056875359,3.6000000000000005,9087.0,6.03876,0.05,68900.0,0.33,276.0,2700.0,29.861534977985965,5.418296575805808,14629.400754675682,21.44666641076868,6.683197278324441,8.414868567217287,1.2649007025186323,305860,462,32034,207303,16.462675845356976,9.32671465412338,0.0001870370075267,False
0.01,0.6650498096270058,3.6000000000000005,9101.0,9.05814,0.08,68900.0,0.33,276.0,2700.0,40.81005281952592,0.2040481697025463,550.9300581968753,20.601068050609307,6.23431085579085,20.208984768916608,6.030262686088304,50876,354,16942,25457,591.8901295684333,341.5671556505365,0.0074929669601264,True
0.02,0.5157535136126619,3.6000000000000005,9102.0,9.05814,0.1,68900.0,0.33,276.0,2700.0,29.310882046835605,0.2930920653075399,791.3485763303579,15.008745416307692,3.5830737952526057,14.302136630527912,3.2899817299450658,24283,236,8036,12223,235.10129275328893,134.0067407120929,0.0027793356836891,False
0.03,0.7021299333337482,3.6000000000000005,9103.0,9.05814,0.1,68900.0,0.33,276.0,2700.0,42.95704279312518,0.6442990932291127,1739.6075517186043,22.076855285225044,7.0254554161235925,20.88018750790014,6.38115632289448,35900,294,11816,18170,239.46208774751275,136.56925688977856,0.0027490008886441,False
0.04,0.396803835854521,3.6000000000000005,9104.0,9.05814,0.05,68900.0,0.33,276.0,2700.0,20.62463205504065,0.4123585998142565,1113.3682194984924,10.954107635647652,2.042462206314876,9.670524419392995,1.6301036065006194,67017,384,22046,33942,100.12725609124114,57.24718092358829,0.0010572200069671,False
0.05,0.5273923517113887,3.6000000000000005,9105.0,9.05814,0.1,68900.0,0.33,276.0,2700.0,29.086858017859058,0.7269096510586727,1962.6560578584165,15.424578110846925,3.760174755842699,13.662279907012133,3.033265104784026,24338,234,7978,12365,105.58895452007924,60.400580811747325,0.0011948732060434,False
0.06,0.3821561128920142,3.6000000000000005,9106.0,9.05814,0.05,68900.0,0.33,276.0,2700.0,19.07059664781417,0.5716655100923076,1543.4968772492305,10.479401790805271,1.885492734386442,8.591194857008903,1.3138272242941345,62507,370,20630,31556,61.18898703402606,35.191742299157106,0.0006960529042696,False
0.0699999999999999,0.7599050858524584,3.6000000000000005,9107.0,9.05814,0.2,68900.0,0.33,276.0,2700.0,46.03165952493632,1.610389705852653,4348.052205802163,24.445170929006704,8.36896008862875,21.58648859592962,6.758570382776097,9374,152,3068,4766,98.8797884670826,56.50991654738888,0.0013657146713527,False
0.08,0.4332229604101011,3.6000000000000005,9108.0,9.05814,0.05,68900.0,0.33,276.0,2700.0,21.71533245644733,0.867540967965469,2342.360613506766,12.157755748824634,2.4632179530488503,9.5575767076227,1.5956769850833812,70628,396,23306,35609,288.5007410819251,163.38181791755932,0.0006156700593826,True
0.09,0.5706383402534595,3.6000000000000005,9109.0,9.05814,0.2,68900.0,0.33,276.0,2700.0,30.77427953949593,1.3833157652476722,3734.952566168715,16.999498746857803,4.461110990730517,13.774780792638126,3.077795225482845,6520,122,2138,3307,57.69362182964846,33.14642191079257,0.0007620913335474,False
0.0999999999999999,0.5072134262215048,3.6000000000000005,9110.0,9.05814,0.1,68900.0,0.33,276.0,2700.0,26.00053166350189,1.2979321880727002,3504.4169077962906,14.705790523419306,3.4561927329005626,11.294741140082582,2.1582605448278622,21417,218,7034,10860,45.4329574401778,26.135292831799315,0.0006015271481352,False
0.11,0.4941595193496964,3.6000000000000005,9111.0,9.05814,0.2,68900.0,0.33,276.0,2700.0,24.79026284959009,1.3606768168461727,3673.827405484666,14.24625265630354,3.267228754057413,10.54401019328655,1.9065519372112405,5232,110,1708,2664,41.85454771784802,24.13707883122504,0.0005352524772609,False
0.12,0.6882582936478189,3.6000000000000005,9112.0,9.05814,0.3,68900.0,0.33,276.0,2700.0,38.4323196602296,2.30232006487684,6216.264175167467,21.520719043608395,6.723076085377333,16.911600616621207,4.420756020500493,3597,92,1180,1821,53.53655063054151,30.90714505948388,0.0007336599962309,False
0.13,0.7266263937572123,3.6000000000000005,9113.0,9.05814,0.3,68900.0,0.33,276.0,2700.0,41.03930325899651,2.66295332579482,7189.9739796460135,23.07076851276365,7.578403118825385,17.968534746232862,4.9154497930305645,4149,98,1354,2112,51.213097031312834,29.567198115373248,0.0007289141122673,False
0.14,0.6568835041265777,3.6000000000000005,9114.0,9.05814,0.3,68900.0,0.33,276.0,2700.0,35.32966121026033,2.4673292645572493,6661.789014304573,20.280692689382587,6.067385522597449,15.048968520877748,3.6000562580402,3189,88,1044,1617,43.984345774559145,25.394072504604537,0.0006014413520815,False
0.15,0.4976604590823708,3.6000000000000005,9115.0,9.05814,0.2,68900.0,0.33,276.0,2700.0,23.751840104000227,1.7743194243294371,4790.662445689481,14.36907628086824,3.317318935207721,9.382763823131986,1.5429995108782837,4769,104,1568,2411,31.227301198178264,18.011535504441856,0.0004089800127594,False
0.16,0.72385543659623,3.6000000000000005,9116.0,9.05814,0.3,68900.0,0.33,276.0,2700.0,39.70695671564571,3.1679778949122563,8553.540316263092,22.957583892424697,7.5146318670329855,16.749372823221012,4.346653972120729,3847,94,1260,1951,42.17936486170553,24.348758142053093,0.0005989589382659,False
0.17,0.7511238972015744,3.6000000000000005,9117.0,9.05814,0.3,68900.0,0.33,276.0,2700.0,41.46824545520565,3.514511100553337,9489.17997149401,24.07980659204253,8.155908015821382,17.388438863163117,4.641396915268045,4065,98,1324,2073,40.7522899586798,23.52605186267147,0.0005929791155622,False
0.18,0.6755363952442899,3.6000000000000005,9118.0,9.05814,0.1,68900.0,0.33,276.0,2700.0,35.309450132106946,3.1656359996524683,8547.217199061664,21.014929228730075,6.452513299806645,14.29452090337687,3.2868773001541767,34399,260,9648,18603,34.9528996429479,20.16165963903327,0.0004955991450224,False
0.19,0.6719901869376008,3.6000000000000005,9119.0,9.05814,0.1,68900.0,0.33,276.0,2700.0,34.69637789415967,3.28179044393786,8860.834198632223,20.874666102817454,6.37823877774332,13.821711791342214,3.09644833380546,37313,258,9436,20943,33.02506829620085,19.059694252933056,0.0004701807233018,False
0.2,0.5707873479066968,3.6000000000000005,9120.0,9.05814,0.2,68900.0,0.33,276.0,2700.0,27.119684308090445,2.6952132699899023,7277.075828972736,17.005006523499237,4.463644456488504,10.114677784591208,1.768431186498602,5588,112,1844,2816,27.2462449028248,15.718824030055623,0.0003715437672352,False
0.21,0.8074003041417133,3.6000000000000005,9121.0,9.05814,0.2,68900.0,0.33,276.0,2700.0,44.45257433675079,4.648124112315572,12549.935103252044,26.45492194820079,9.577491207232589,17.997652388549994,4.9293670949170165,9087,150,3006,4572,35.09307660019659,20.247525098041283,0.0005347178779401,False
0.22,0.5936322439634174,3.6000000000000005,9122.0,9.05814,0.2,68900.0,0.33,276.0,2700.0,28.06166531417268,3.064482065508713,8274.101576873525,17.85602448284312,4.861817800934788,10.20564083132956,1.797335735426075,5700,114,1880,2874,26.150068496643357,15.07976004705846,0.0003578481938504,False
0.23,0.8028256669733129,3.6000000000000005,9123.0,9.05814,0.3,68900.0,0.33,276.0,2700.0,43.33928472968825,4.958535238703332,13388.045144498998,26.258879699345226,9.456918149586867,17.08040503034303,4.498382910883537,3881,98,1276,1961,32.88655686533947,18.97594645827676,0.000488785908834,False
0.24,0.5994491514349356,3.6000000000000005,9124.0,9.05814,0.2,68900.0,0.33,276.0,2700.0,27.828980737474804,3.310524770601498,8938.416880624045,18.074810996080128,4.966320561386693,9.754169741394676,1.655795790785195,5616,114,1860,2820,23.958736238318803,13.82478790810463,0.0003368265491391,False
0.25,0.6848413450284725,3.6000000000000005,9125.0,9.05814,0.1,68900.0,0.33,276.0,2700.0,33.59648721391454,4.166835978264424,11250.457141313946,21.38447045190536,6.649773754927878,12.212016762009185,2.482937776663454,37875,252,9228,21533,26.8733933196745,15.507503388653085,0.0003796543285932,False
0.26,0.6005951587439958,3.6000000000000005,9126.0,9.05814,0.04,68900.0,0.33,276.0,2700.0,27.279858685777832,3.509570540831457,9475.840460244935,18.118015091915023,4.987059179850637,9.161843593862804,1.4774886390191797,395294,554,45370,264903,30.1518805464568,16.938255447355257,0.0003197581806138,False
0.27,0.7489048856727529,3.6000000000000005,9127.0,9.05814,0.1,68900.0,0.33,276.0,2700.0,37.70245456963686,5.048607388100573,13631.239947871549,23.98778554924671,8.102576768142947,13.714669020390154,3.053969380042375,44733,270,10330,25948,27.14496953984236,15.66767008381658,0.0003941040962925,False
0.28,0.763650681109137,3.6000000000000005,9128.0,9.05814,0.2,68900.0,0.33,276.0,2700.0,38.48102655938951,5.341367557026801,14421.692403972362,24.601605840473454,8.46081466578244,13.879420718916052,3.1194471087556392,7757,136,2564,3905,51.18377703816184,28.681938768867752,0.0032048029417895,False
0.29,0.8523823596978404,3.6000000000000005,9129.0,9.05814,0.3,68900.0,0.33,276.0,2700.0,45.10580734477205,6.489261862839674,17521.007029667122,28.410602783160435,10.811282624494169,16.695204561611618,4.322020761654493,4112,100,1354,2075,27.84308811323758,16.043961531041155,0.0004285484104535,False
0.3,0.6272618661626403,3.6000000000000005,9130.0,9.05814,0.05,68900.0,0.33,276.0,2700.0,27.881012714641603,4.125603239431625,11139.128746465389,19.132661270287908,5.483695907580538,8.748351444353695,1.3580926681489132,246376,448,29904,163852,26.252643425937134,14.742160474433458,0.0002994000245433,False
0.31,0.7752537055450972,3.6000000000000005,9131.0,9.05814,0.1,68900.0,0.33,276.0,2700.0,38.33236466536783,5.879122398636619,15873.630476318873,25.088444495121006,8.749088828225771,13.24392017024682,2.8699664295891525,54552,272,10460,33360,25.076302099268812,14.465925427788305,0.0003659325205429,False
0.32,0.6441379294707641,3.6000000000000005,9132.0,9.05814,0.05,68900.0,0.33,276.0,2700.0,28.436133639816067,4.481152243655348,12099.11105786944,19.784015684906866,5.812065993248794,8.652117954909201,1.3309137495934458,262616,452,30718,175549,26.11417563806248,14.793905071407522,0.0002929873934774,False
0.33,0.6739735777211867,3.6000000000000005,9133.0,9.05814,0.05,68900.0,0.33,276.0,2700.0,30.220400808340894,4.911099856581545,13259.969612770172,20.953076178120185,6.419719140671242,9.267324630220712,1.508619284089697,282559,468,32422,189326,27.07634584245642,15.411832120069592,0.0002998165233566,False
0.34,0.8070377671982396,3.6000000000000005,9134.0,9.05814,0.2,68900.0,0.33,276.0,2700.0,39.74454244580177,6.67425411068184,18020.486098840967,26.43936654140015,9.567903140494266,13.30517590440162,2.893649029812426,8679,140,2698,4492,24.61658100891274,14.212277189129113,0.0003530877122469,False
0.3500000000000001,0.7767010775350418,3.6000000000000005,9135.0,9.05814,0.2,68900.0,0.33,276.0,2700.0,37.089168519710384,6.400807300934134,17282.17971252216,25.14941056215615,8.78544525399899,11.939757957554235,2.384637953064856,8572,136,2534,4541,23.22702431951499,13.410125433283008,0.0003314667872449,False
0.36,0.6613465151187505,3.6000000000000005,9136.0,9.05814,0.05,68900.0,0.33,276.0,2700.0,28.413021245038596,5.016627726209639,13544.894860766024,20.455575034620104,6.15828854172963,7.957446210418489,1.141660815519991,282763,450,30356,191117,26.086300021154937,14.868270076832738,0.0002757358003938,False
0.37,0.9296572685903076,3.6000000000000005,9137.0,9.05814,0.1,68900.0,0.33,276.0,2700.0,48.484137373303305,8.863478018939588,23931.390651136888,31.88899661181268,13.140139210974713,16.59514076149063,4.276661192035123,73827,310,13156,45809,26.742844659535603,15.098310554976315,0.0003904043821372,False
0.38,1.0585414598130185,3.6000000000000005,9138.0,9.05814,0.3,68900.0,0.33,276.0,2700.0,59.15842384407672,11.125176882316048,30037.977582253327,38.02438794576901,17.641020306143076,21.1340358983077,6.515843423827029,5687,120,1888,2849,26.63471708412832,15.350835440408172,0.0004421487788479,False
0.39,0.8179762364691664,3.6000000000000005,9139.0,9.05814,0.2,68900.0,0.33,276.0,2700.0,38.89245503248434,7.459791308255587,20141.436532290085,26.910158207732223,9.859681467916351,11.98229682475212,2.399890159660764,10363,138,2602,5818,22.389055128523275,12.925531214073498,0.0003229269434339,False
0.4,0.7882732549648048,3.6000000000000005,9140.0,9.05814,0.2,68900.0,0.33,276.0,2700.0,36.3157374410776,7.129106201661886,19248.586744487093,25.6387460394692,9.0793067880951,10.676991401608396,1.9502005864332137,9810,134,2434,5537,21.171859698268836,12.220988133577702,0.0003037803239037,False
0.4100000000000001,0.9843631753649618,3.6000000000000005,9141.0,9.05814,0.2,68900.0,0.33,276.0,2700.0,51.57956479144748,10.429462977394683,28159.550038965644,34.442217419398425,14.95415092139703,17.137347372049057,4.524687944002347,13697,162,3368,7753,24.27713816584377,14.001135922417372,0.0003827549203352,False
0.42,1.0957595481578244,3.6000000000000005,9142.0,9.05814,0.3,68900.0,0.33,276.0,2700.0,60.89756602627896,12.633319321172433,34109.96216716557,39.87379986345781,19.090523149634755,21.023766162821147,6.4572038284623225,5605,120,1858,2812,25.54748606809172,14.72016524238737,0.0004235149111769,False
0.43,0.9619137078678952,3.6000000000000005,9143.0,9.05814,0.2,68900.0,0.33,276.0,2700.0,48.97239691859851,10.36254626609265,27978.874918450158,33.38536150916213,14.192828103210646,15.587035409436382,3.830281837117996,13098,158,3248,7390,23.127075348206365,13.351315370461515,0.000358841017083,False
0.44,0.9401291334316756,3.6000000000000005,9144.0,9.05814,0.1,68900.0,0.33,276.0,2700.0,46.82778612583234,10.123703995280875,27334.000787258363,32.371916041798315,13.476602601834042,14.455870084034023,3.3528986065531665,80200,302,12670,51079,23.22107251267684,13.174209844528535,0.0003440882780501,False
0.45,0.9463957471174632,3.6000000000000005,9145.0,9.05814,0.1,68900.0,0.33,276.0,2700.0,46.98689547307688,10.38119972773672,28029.239264889144,32.66222467840917,13.680374004558963,14.32467079466771,3.299174276822246,81726,302,12652,52308,25.175600631395213,14.1467677894307,0.0003405706357668,False
0.46,1.1428065999497885,3.6000000000000005,9146.0,9.05814,0.2,68900.0,0.33,276.0,2700.0,63.564919057806,14.416071341608845,38923.39262234388,42.26144333898068,21.02241556998537,21.30347571882532,6.606344228376527,16689,182,4068,9475,24.950712228167,14.395913961891877,0.0004173021437221,False
0.4700000000000001,0.9941088325328932,3.6000000000000005,9147.0,9.05814,0.2,68900.0,0.33,276.0,2700.0,50.21187729080085,11.582344780622437,31272.33090768057,34.90495759060803,15.29206587938613,15.306919700192822,3.709721098763694,13623,160,3350,7710,22.005622363237315,12.698121978628809,0.0003465345687232,False
0.4800000000000001,1.05377055429552,3.6000000000000005,9148.0,9.05814,0.3,68900.0,0.33,276.0,2700.0,54.905225570254274,12.945630793697164,34953.20314298234,37.7898332330887,17.46016929051651,17.115392337165574,4.514538496819348,5268,114,1732,2646,21.539236904967176,12.387599331070454,0.0003604004218139,False
0.49,1.1527707625205783,3.6000000000000005,9149.0,9.05814,0.2,68900.0,0.33,276.0,2700.0,63.28575364122535,15.258606152698771,41198.23661228668,42.77426434055446,21.446068305847504,20.51148930067089,6.187462153148733,17194,184,4210,9751,23.95616487748639,13.829059265464355,0.0003995560271621,False
0.5,1.1491083576590926,3.6000000000000005,9150.0,9.05814,0.2,68900.0,0.33,276.0,2700.0,62.562703595363466,15.378876511041714,41522.96657981263,42.58548299654934,21.289757431922528,19.977220598814128,5.910880920880814,17244,184,4182,9817,23.47241030391018,13.548937030132713,0.0003914194740406,False
0.01,0.619896948902903,3.6000000000000005,9151.0,12.07752,0.05,68900.0,0.33,276.0,2700.0,37.32055660848504,0.1866006886473298,503.8218593477905,18.85064586926729,5.343824787099007,18.469910739217752,5.157224098451677,121976,534,40406,61361,862.5766429394318,490.4753956130072,0.0091261105854389,True
0.02,0.5123378592133744,3.6000000000000005,9152.0,12.07752,0.1,68900.0,0.33,276.0,2700.0,29.069822122091185,0.2906814660599878,784.8399583619671,14.887357006353955,3.5320165018326226,14.182465115737228,3.241335035772635,23988,234,7932,12084,292.9050972804848,168.96553931312044,0.0036771613187242,True
0.03,0.5879322790172987,3.6000000000000005,9153.0,12.07752,0.1,68900.0,0.33,276.0,2700.0,34.17435794717298,0.5125588205398275,1383.9088154575345,17.642461360826008,4.760648126320342,16.53189658634697,4.248089305780515,28232,256,9268,14324,254.87137099233703,145.3271111587107,0.0029407447793417,False
0.05,0.6549025931246993,3.6000000000000005,9155.0,12.07752,0.1,68900.0,0.33,276.0,2700.0,38.48393055729487,0.961836464544575,2596.958454270353,20.20323142810114,6.027288013535649,18.280699129193728,5.065451548991073,31748,274,10420,16112,181.4506798723942,103.65450857029651,0.0020688326550521,False
0.06,0.3792167004776517,3.6000000000000005,9156.0,12.07752,0.08,68900.0,0.33,276.0,2700.0,18.88580650161502,0.5661218057063334,1528.5288754071005,10.384790452958454,1.8548285547292092,8.501016048656565,1.288706749022876,24311,232,7984,12329,78.04975814910576,44.83968285715088,0.0009199701100565,False
0.0699999999999999,0.4571429940662315,3.6000000000000005,9157.0,12.07752,0.08,68900.0,0.33,276.0,2700.0,23.60685954230349,0.8255217064604965,2228.9086074433403,12.96644749195477,2.763675182126565,10.640412050348717,1.938153475666069,30445,258,10006,15430,81.34580649454709,46.65201416756173,0.0009870661502473,False
0.08,0.4787247704928615,3.6000000000000005,9158.0,12.07752,0.1,68900.0,0.33,276.0,2700.0,24.72518897671012,0.9879352287759832,2667.4251176951548,13.708427417685964,3.0514997220805493,11.01676155902416,2.063564493304566,20749,216,6816,10519,73.09890481312563,42.00926585809712,0.0009207342140912,False
0.09,0.5788768983117378,3.6000000000000005,9159.0,12.07752,0.1,68900.0,0.33,276.0,2700.0,31.36636375262272,1.4099595548383783,3806.8907980636222,17.30485844307114,4.60241903876187,14.06150530955158,3.192459483923492,26014,244,8548,13186,79.74514764737914,45.84053934863125,0.0010330214048478,False
0.0999999999999999,0.413407974672166,3.6000000000000005,9160.0,12.07752,0.05,68900.0,0.33,276.0,2700.0,19.82218573028757,0.9890148914119864,2670.340206812364,11.498738149830524,2.228857702900652,8.323447580457046,1.2398428114886657,86006,374,21146,48753,50.235463957604495,28.982747419973435,0.0006372801345759,False
0.11,0.5370595186122307,3.6000000000000005,9161.0,12.07752,0.2,68900.0,0.33,276.0,2700.0,27.724266467796426,1.5220470158475232,4109.526942788313,15.772555167316474,3.910966810803553,11.951711300479952,2.388919794956029,5705,116,1872,2891,60.06504360796933,34.67854405367708,0.0007859970937225,False
0.12,0.5760531451788558,3.6000000000000005,9162.0,12.07752,0.2,68900.0,0.33,276.0,2700.0,30.12929379840268,1.80413851316718,4871.173985551385,17.20000473503487,4.553702478168703,12.929289063367808,2.749563965001524,6475,122,2122,3286,58.32882437244277,33.67575765006883,0.0007882934869492,False
0.13,0.6346340823652377,3.6000000000000005,9163.0,12.07752,0.3,68900.0,0.33,276.0,2700.0,34.03097157385032,2.207411766260316,5960.011768902854,19.416321437969547,5.625790785862754,14.614650135880776,3.4183790196024377,3224,88,1054,1637,61.30040791966493,35.39178749102119,0.0008230846999013,False
0.14,0.8176409010914778,3.6000000000000005,9164.0,12.07752,0.3,68900.0,0.33,276.0,2700.0,47.99399885046438,3.353832899371536,9055.348828303147,26.89568069358109,9.850659967340418,21.098318156883284,6.496827067968882,4745,108,1550,2414,159.83999956262514,87.54486129599789,0.0010523147856773,False
0.15,0.8397936542380269,3.6000000000000005,9165.0,12.07752,0.3,68900.0,0.33,276.0,2700.0,49.440196401701606,3.7009461466570848,9992.554595974128,27.85816030918912,10.457111360236947,21.582036092512485,6.756165213579862,4721,108,1546,2396,68.61170470522302,39.58908982087564,0.001021941921168,False
0.16,0.553430649322202,3.6000000000000005,9166.0,12.07752,0.08,68900.0,0.33,276.0,2700.0,27.21151420028349,2.168342493683277,5854.524732944848,16.367203268542188,4.174039714415332,10.8443109317413,2.005697220732055,46161,278,11354,26162,79.13503233675968,45.6844764376057,0.0043029470891848,False
0.17,0.6546812400738271,3.6000000000000005,9167.0,12.07752,0.3,68900.0,0.33,276.0,2700.0,34.10985348136646,2.889047782778097,7800.429013500862,20.194581795798808,6.022816923955525,13.91527168556765,3.133769141177428,3163,88,1036,1603,48.7984209521235,28.17377225900381,0.0006688400542805,False
0.18,0.7877677420451106,3.6000000000000005,9168.0,12.07752,0.1,68900.0,0.33,276.0,2700.0,44.0064687531303,3.9483676755445742,10660.59272397035,25.61729986496235,9.066351491655771,18.389168888167948,5.117983816111197,42588,296,12028,22976,53.03056345310143,30.607618758673823,0.0007970828832324,False
0.19,0.533521326479201,3.6000000000000005,9169.0,12.07752,0.05,68900.0,0.33,276.0,2700.0,24.898110537921134,2.3509550450951964,6347.57862175703,15.644922731075216,3.855386367002685,9.25318780684592,1.5044313219074883,154569,424,26830,96450,39.414760335893206,22.21839382409277,0.0004840495075319,False
0.2,0.756911003290027,3.6000000000000005,9170.0,12.07752,0.3,68900.0,0.33,276.0,2700.0,40.81486482585425,4.064731321766279,10974.774568768951,24.32037654911037,8.295956107167626,16.494488276743876,4.231224785401348,3738,94,1226,1893,47.70500417228868,27.52462850722348,0.0006877615137774,False
0.21,0.7047073641260695,3.6000000000000005,9171.0,12.07752,0.2,68900.0,0.33,276.0,2700.0,36.4461737685811,3.807452052657751,10280.120542175928,22.180721379935846,7.082490800707974,14.265452388645253,3.2750387480502225,7622,134,2514,3845,41.6134031958762,24.01105646941558,0.0006041406884278,False
0.22,0.7792042625231137,3.6000000000000005,9172.0,12.07752,0.05,68900.0,0.33,276.0,2700.0,41.83349848102759,4.579383713862755,12364.336027429435,25.254973753663272,8.84853097022382,16.578524727364318,4.269147256361065,286272,568,44358,183139,53.89793382475773,29.81647448737488,0.0006580527161515,False
0.23,0.8849482435589329,3.6000000000000005,9173.0,12.07752,0.3,68900.0,0.33,276.0,2700.0,50.06321757824189,5.73178751628699,15475.826293974873,29.858202152253664,11.759997856830202,20.205015425988226,6.028210340543212,4602,108,1516,2322,47.30401501918486,27.310143348165457,0.000736747933934,False
0.24,0.7723916930149424,3.6000000000000005,9174.0,12.07752,0.2,68900.0,0.33,276.0,2700.0,40.5722860297138,4.8397214056701685,13067.247795309457,24.968046059595675,8.677457725733252,15.604239970118126,3.837736320063083,8509,144,2812,4285,40.06413796435277,23.103899440642845,0.0005993980022098,False
0.25,0.9258169146707866,3.6000000000000005,9175.0,12.07752,0.3,68900.0,0.33,276.0,2700.0,52.73862404684838,6.559603082381155,17710.928322429118,31.712585947655192,13.018013036163667,21.026038099193187,6.458409953782512,5003,112,1642,2534,45.81652809305896,26.408457943945724,0.0007235182231658,False
0.26,0.7115948142968767,3.6000000000000005,9176.0,12.07752,0.1,68900.0,0.33,276.0,2700.0,35.23668612521508,4.543958107958304,12268.68689148742,22.459093142167017,7.236217365505221,12.777592983048065,2.692259257546918,40331,260,9650,23108,35.75731907243471,20.62370228394601,0.0005113496945029,False
0.27,0.5977148961152332,3.6000000000000005,9177.0,12.07752,0.1,68900.0,0.33,276.0,2700.0,26.771820400936125,3.572971775325969,9647.023793380118,18.00949291556691,4.935030874302874,8.762327485369216,1.3620590989769044,31269,222,7300,18063,30.538685255091348,17.62865857232466,0.0004106535899369,False
0.28,0.6868729518256459,3.6000000000000005,9178.0,12.07752,0.08,68900.0,0.33,276.0,2700.0,32.74900077648956,4.5388839474208025,12254.986658036169,21.465444076713997,6.693300826173052,11.283556699775566,2.15441687875225,74549,306,13636,46089,32.92304292510364,19.000598235739957,0.0004633854437816,False
0.29,0.8333315153326493,3.6000000000000005,9179.0,12.07752,0.2,68900.0,0.33,276.0,2700.0,43.57569972797663,6.2673962584043466,16921.969897691735,27.576122983227982,10.277999906039728,15.999576744748644,4.0106036476353815,9169,150,3028,4617,36.31538385137331,20.958522674697697,0.0005564503433442,False
0.3,0.9634773737883068,3.6000000000000005,9180.0,12.07752,0.3,68900.0,0.33,276.0,2700.0,53.99781291728866,8.043123269828689,21716.43282853746,33.45856397414715,14.245088879334332,20.53924894314152,6.201965609505644,5188,114,1712,2614,40.430338540879326,23.336807193758062,0.0006449870916253,False
0.31,0.6785436144016448,3.6000000000000005,9181.0,12.07752,0.2,68900.0,0.33,276.0,2700.0,31.17720123558936,4.7700720670209575,12879.194580956586,21.13412137752008,6.515888959072478,10.04307985806928,1.7458168920515202,6489,122,2144,3261,28.80735679959806,16.60297537008718,0.000417044024812,False
0.32,0.6539226262046036,3.6000000000000005,9182.0,12.07752,0.08,68900.0,0.33,276.0,2700.0,29.119303876757563,4.590459481566098,12394.240600228464,20.16494740354009,6.007508275567718,8.954356473217473,1.4170487940016194,71400,288,12118,44733,30.37448840910357,17.35836894792872,0.0003963750311875,False
0.33,0.7130429042634167,3.6000000000000005,9183.0,12.07752,0.08,68900.0,0.33,276.0,2700.0,33.02576035804059,5.373984182281989,14509.75729216137,22.51777263317444,7.268782633173242,10.507987724866156,1.894798450891253,82803,308,13674,52204,30.571709480634016,17.358959595223165,0.0004237612401406,False
0.34,0.9208600089982368,3.6000000000000005,9184.0,12.07752,0.3,68900.0,0.33,276.0,2700.0,48.864049875901486,8.224570373798787,22206.340009256724,31.485433297819437,12.861379981206086,17.378616578082053,4.636809607407299,4661,108,1540,2345,34.630322286182015,19.98239787009752,0.0005473657285714,False
0.3500000000000001,0.8769458785522901,3.6000000000000005,9185.0,12.07752,0.1,68900.0,0.33,276.0,2700.0,44.90857935286312,7.769204196735851,20976.8513311868,29.500015641343182,11.522495867647947,15.40856371151994,3.753291670912097,66570,298,12278,41031,33.418335755418425,19.285249554442608,0.0005087841588988,False
0.36,0.9251890163938036,3.6000000000000005,9186.0,12.07752,0.1,68900.0,0.33,276.0,2700.0,48.482236547289965,8.629086480613823,23298.533497657325,31.683778041488075,12.99810980282481,16.79845850580189,4.369023322210987,72817,310,13208,45023,34.99134784130785,19.68270489141716,0.0005293075956279,False
0.37,0.9644209151138924,3.6000000000000005,9187.0,12.07752,0.1,68900.0,0.33,276.0,2700.0,51.38840353683256,9.4007672591925,25382.071599819745,33.50276525404242,14.276679268246506,17.885638282790133,4.875912009054007,78811,322,13920,48997,39.082603880499065,21.81225271237908,0.0005437947031706,False
0.38,0.891581468942144,3.6000000000000005,9188.0,12.07752,0.3,68900.0,0.33,276.0,2700.0,45.016841245695176,8.438276188623567,22783.34570928363,30.15632581981796,11.95904219071338,14.860515425877216,3.520766002089813,4041,100,1336,2031,30.40465268057318,17.545547522387004,0.0004783437975151,False
0.39,0.7551400471755204,3.6000000000000005,9189.0,12.07752,0.2,68900.0,0.33,276.0,2700.0,34.18138151274269,6.541131971905958,17661.056324146088,24.24666853922477,8.252951066069015,9.934712973517918,1.7118190941630562,9066,126,2294,5073,27.95174847244141,16.1345986911365,0.0003946330235143,False
0.4,0.9199647517806676,3.6000000000000005,9190.0,12.07752,0.3,68900.0,0.33,276.0,2700.0,46.60328510038533,9.186615733523904,24803.862480514537,31.44447353142236,12.833210756063972,15.158811568962967,3.646595022540071,4201,102,1394,2104,30.123714235385968,17.25893295475637,0.0004762095929295,False
0.4100000000000001,0.820366051850222,3.6000000000000005,9191.0,12.07752,0.2,68900.0,0.33,276.0,2700.0,38.41185806507214,7.730083098487748,20871.22436591692,27.01341611636299,9.924115132991076,11.398441948709149,2.194032034503328,10377,136,2580,5849,29.072190999422745,16.78475904900285,0.0004150330692187,False
0.42,0.894551254914915,3.6000000000000005,9192.0,12.07752,0.3,68900.0,0.33,276.0,2700.0,43.85418751197525,9.0542098331687,24446.36654955549,30.29015825320529,12.048798696107824,13.564029258769953,2.994588862939123,3925,98,1296,1973,27.7560264808758,15.967837003936856,0.0004431469420758,False
0.43,1.0955629135342528,3.6000000000000005,9193.0,12.07752,0.3,68900.0,0.33,276.0,2700.0,60.485191155238205,12.837797026970248,34662.05197281967,39.863937371290575,19.082683549677853,20.62125378394763,6.244886522707606,5396,118,1792,2702,32.93226678441141,18.90545516769046,0.0005534390132934,False
0.44,1.100937502620211,3.6000000000000005,9194.0,12.07752,0.3,68900.0,0.33,276.0,2700.0,60.57338443701395,13.147735623740813,35498.88618410019,40.133857326039184,19.29766086166037,20.439527110974765,6.149925237919561,5687,120,1888,2847,32.36760434460905,18.64439558053301,0.0005455990259942,False
0.45,0.8121853039638511,3.6000000000000005,9195.0,12.07752,0.2,68900.0,0.33,276.0,2700.0,36.50141428500841,8.021966460421313,21659.309443137543,26.66054190833137,9.704569720327097,9.840872376677035,1.6826032599057843,9856,132,2452,5550,26.397933841671307,15.197686523940906,0.0003825394232711,False
0.46,0.8666477346315349,3.6000000000000005,9196.0,12.07752,0.2,68900.0,0.33,276.0,2700.0,40.31759816399739,9.069187536032862,24486.80634728873,29.041438153062543,11.221063996760272,11.276160010934843,2.1518764607274097,10976,140,2708,6200,27.51709782423294,15.83888945958703,0.0004032663558009,False
0.4700000000000001,1.1351574377333995,3.6000000000000005,9197.0,12.07752,0.2,68900.0,0.33,276.0,2700.0,62.47476207362518,14.464122704586156,39053.13130238262,41.86946043438655,20.700651042145072,20.605301639238625,6.236528337558916,16347,180,4024,9245,32.59851008854525,18.803355809784325,0.0005420733906478,False
0.4800000000000001,1.1216441090810878,3.6000000000000005,9198.0,12.07752,0.3,68900.0,0.33,276.0,2700.0,60.86787339115129,14.376666270712438,38816.99893092358,41.18056078082495,20.13951509478896,19.687312610326344,5.762848824076521,5735,120,1860,2905,30.964803499176792,17.8573688279375,0.0005192760544573,False
0.49,0.9399346218939436,3.6000000000000005,9199.0,12.07752,0.1,68900.0,0.33,276.0,2700.0,45.08415292084822,10.799213976206362,29157.877735757174,32.362920846976245,13.470306765515389,12.721232073871974,2.671092789309027,84135,296,12284,54417,27.823090953492983,16.019303318100654,0.0004218588694657,False
0.5,1.003503205971921,3.6000000000000005,9200.0,12.07752,0.1,68900.0,0.33,276.0,2700.0,49.9280214253197,12.220205968530772,32994.55611503308,35.35327776179697,15.622080192970769,14.574743663522732,3.4018742244399967,93050,312,13412,60316,30.548630169538438,17.48888031417757,0.0004470248823956,False
0.01,0.4634999006942807,3.6000000000000005,9201.0,15.0969,0.05,68900.0,0.33,276.0,2700.0,26.02613428320478,0.1301285770209222,351.3471579564899,13.183781273919337,2.8467919253928207,12.842353009285445,2.7166633483718985,84772,436,28070,42661,753.2478148619483,428.75225486789066,0.0080018966898834,True
0.02,0.3680228912328199,3.6000000000000005,9202.0,15.0969,0.05,68900.0,0.33,276.0,2700.0,19.420611885604277,0.1941893636952223,524.3112819771003,10.02648158065372,1.7405915495325917,9.394130304950554,1.546402185837369,63632,372,20910,32261,321.42798212184493,183.0562405219155,0.0031146807511085,True
0.03,0.4254632954190289,3.6000000000000005,9203.0,15.0969,0.1,68900.0,0.33,276.0,2700.0,22.808944064438943,0.3420776122988209,923.6095532068166,11.898505055621971,2.3698846692188247,10.91043900881697,2.027807056920004,18816,204,6182,9537,220.29629104544068,125.6703244620099,0.0025018306232767,False
0.04,0.6046314577796245,3.6000000000000005,9204.0,15.0969,0.1,68900.0,0.33,276.0,2700.0,35.04837583646164,0.7008334754426793,1892.250383695234,18.270445083198624,5.060496395483368,16.777930753263014,4.359662920040688,28600,258,9390,14509,267.03330743415137,152.42119401336367,0.0028927529518936,False
0.05,0.351907509747755,3.6000000000000005,9205.0,15.0969,0.05,68900.0,0.33,276.0,2700.0,17.490554146938738,0.4370020542856714,1179.9055465713127,9.51616579732091,1.583131706245016,7.974388349617827,1.146129651959345,56910,354,18772,28746,112.52150446298964,64.65587468519924,0.0012515616704988,False
0.06,0.7428647812699694,3.6000000000000005,9206.0,15.0969,0.2,68900.0,0.33,276.0,2700.0,45.043723250900186,1.3508593081848983,3647.320132099225,23.73793302098725,7.95844306823342,21.30579022991294,6.607583760048522,9304,152,3054,4717,187.0419822372111,106.88880532330457,0.0025532464868248,False
0.0699999999999999,0.7476220343201366,3.6000000000000005,9207.0,15.0969,0.2,68900.0,0.33,276.0,2700.0,45.032213031303804,1.5754090785755126,4253.604512153884,23.93464294574231,8.071838096456903,21.097570085561493,6.49642901788139,9435,152,3098,4782,160.63781744268567,91.80303876638018,0.0022299123725751,False
0.08,0.4814497193785071,3.6000000000000005,9208.0,15.0969,0.08,68900.0,0.33,276.0,2700.0,24.90874189307274,0.995277345430484,2687.2488326623065,13.802943293275442,3.0889832191839184,11.105798599797298,2.0937058737534344,32171,266,10584,16289,92.37413566489592,53.04820599442965,0.0011582925013425,False
0.09,0.6198957971649142,3.6000000000000005,9209.0,15.0969,0.1,68900.0,0.33,276.0,2700.0,34.365068050829706,1.544901248257691,4171.233370295766,18.850601873841004,5.343803076119381,15.514466176988702,3.79890182786169,28112,256,9252,14228,108.61598576329528,62.24841719914431,0.0014025504084278,False
0.0999999999999999,0.4182688666394554,3.6000000000000005,9210.0,15.0969,0.05,68900.0,0.33,276.0,2700.0,20.13147446195074,1.0044793279951452,2712.094185586892,11.659490892659838,2.285142287114654,8.471983569290904,1.280662959119509,87385,378,21420,49595,63.43189546160291,36.60867736799861,0.0008070426149187,False
0.11,0.7178849143461128,3.6000000000000005,9211.0,15.0969,0.3,68900.0,0.33,276.0,2700.0,41.10797248807404,2.2581508469627893,6097.007286799531,22.71436326077609,7.378289624445138,18.393609227297954,5.120138777482349,4176,98,1360,2130,99.13553644177604,57.125629180542745,0.0013970798925271,False
0.12,0.604856465029429,3.6000000000000005,9212.0,15.0969,0.1,68900.0,0.33,276.0,2700.0,32.20032453023085,1.928400357076748,5206.680964107219,18.278954484008757,5.064608335398898,13.921370046222098,3.13620797832215,26068,246,8594,13171,75.30440757319255,43.351062182065895,0.0010443260165912,False
0.13,0.4838568128379362,3.6000000000000005,9213.0,15.0969,0.08,68900.0,0.33,276.0,2700.0,23.464135631152,1.520567429984476,4105.532060958085,13.886589470236554,3.122308836578609,9.577546160915446,1.6017414065941329,29965,256,9866,15114,57.145853450376414,32.99312916829059,0.0007496401042923,False
0.14,0.6755831167815496,3.6000000000000005,9214.0,15.0969,0.2,68900.0,0.33,276.0,2700.0,36.73603830686371,2.5657756613194933,6927.594285562632,21.01677931449971,6.453495192824828,15.719258992364,3.887719531505335,7806,136,2558,3963,72.58132754323073,41.89196946197199,0.0010356869530401,False
0.15,0.5942087044858386,3.6000000000000005,9215.0,15.0969,0.2,68900.0,0.33,276.0,2700.0,30.40504613645213,2.2733098767633297,6137.93666726099,17.877668452180103,4.872117332182263,12.527377684272029,2.598807455418933,6198,120,2038,3135,61.1241043958157,35.262980532018034,0.0008345999928854,False
0.16,0.5849595961434342,3.6000000000000005,9216.0,15.0969,0.08,68900.0,0.33,276.0,2700.0,29.413135251974204,2.344472177818392,6330.074880109658,17.53140650332115,4.708367804034678,11.881728748653051,2.3638956262162862,50694,292,12456,28744,56.59030646089986,32.66660758142311,0.0007757294700141,False
0.17,0.5022372117922411,3.6000000000000005,9217.0,15.0969,0.08,68900.0,0.33,276.0,2700.0,23.432231610723377,1.9814499237734304,5349.914794188262,14.53010727373078,3.3834509427461383,8.902124336992596,1.402001018972708,40263,258,9928,22791,47.50822015258079,27.418223137564027,0.0006215864877255,False
0.18,0.6742813737269087,3.6000000000000005,9218.0,15.0969,0.1,68900.0,0.33,276.0,2700.0,35.21577575089448,3.157205305343343,8524.454324427026,20.96525324633088,6.426170287791862,14.250522504563598,3.2689649824485194,34415,260,9656,18617,58.210001540652016,33.58367261059185,0.0008236774214166,False
0.19,0.8789403468277603,3.6000000000000005,9219.0,15.0969,0.3,68900.0,0.33,276.0,2700.0,51.13708822727755,4.84365792558406,13077.87639907696,29.58913762687371,11.581421571840131,21.54795060040384,6.737763646256074,4895,110,1604,2483,70.50211380095624,40.61841436076156,0.0010887818380639,False
0.2,0.811566139128264,3.6000000000000005,9220.0,15.0969,0.1,68900.0,0.33,276.0,2700.0,45.16719081096,4.499963920276848,12149.90258474749,26.633902880247533,9.688070697751622,18.53328793071247,5.188106777474774,49540,298,12150,28103,61.87094599322812,35.69682113102273,0.0009411497533543,False
0.21,0.8703490989356177,3.6000000000000005,9221.0,15.0969,0.2,68900.0,0.33,276.0,2700.0,49.62240149049364,5.190955963458568,14015.581101338134,29.205953480944785,11.32886129865551,20.41644800954885,6.137905335196943,10116,160,3336,5106,62.4632590354306,36.00559995636239,0.0009788737877528,False
0.22,0.5391336846757666,3.6000000000000005,9222.0,15.0969,0.08,68900.0,0.33,276.0,2700.0,24.345994737479423,2.6557583020724533,7170.547415595624,15.847522393825898,3.9437594380162655,8.498472343653525,1.2880011359438122,45512,264,10256,26606,41.26480079200405,23.819318942991792,0.0005427376379663,False
0.23,0.8689376582794364,3.6000000000000005,9223.0,15.0969,0.3,68900.0,0.33,276.0,2700.0,48.72571947339265,5.577975234229339,15060.533132419216,29.14317826170281,11.28768313614735,19.58254121168984,5.709707901918011,4761,108,1562,2412,58.07924700502978,33.48393180290012,0.0009001127364068,False
0.24,0.7071652459243005,3.6000000000000005,9224.0,15.0969,0.1,68900.0,0.33,276.0,2700.0,35.58948132367987,4.241784840946102,11452.819070554477,22.279925376658984,7.137130276809627,13.309555947020886,2.8953454358635247,39542,262,9712,22424,47.45710416440545,27.393118717733053,0.0006792060403017,False
0.25,0.6529198375992123,3.6000000000000005,9225.0,15.0969,0.08,68900.0,0.33,276.0,2700.0,31.27970865198313,3.877238658023,10468.5443766621,20.125796797708382,5.987306728085011,11.153911854274751,2.110068070062012,68851,300,13056,42255,43.22811335356512,24.953863912998397,0.0006006271495973,False
0.26,0.6044878955599877,3.6000000000000005,9226.0,15.0969,0.05,68900.0,0.33,276.0,2700.0,27.548424290109065,3.544484069394515,9570.10698736519,18.26501646319945,5.0578738395120375,9.28340782690961,1.5133897701175223,213667,444,29444,139521,438.0792349617019,242.903585054324,0.0005403185515106,True
0.27,0.9152807555788778,3.6000000000000005,9227.0,15.0969,0.3,68900.0,0.33,276.0,2700.0,51.05888332719158,6.851725270370452,18499.658230000223,31.23049995550629,12.686426302416626,19.82838337168529,5.834701032046174,4828,110,1586,2443,52.8578856755144,30.390195297371807,0.0008319085093986,False
0.28,0.8832987115538249,3.6000000000000005,9228.0,15.0969,0.3,68900.0,0.33,276.0,2700.0,48.00430620095039,6.674626706844727,18021.49210848076,29.78423727953032,11.710806809878193,18.22006892142007,5.036180103033464,4565,106,1502,2306,49.550083357939705,28.56316843979401,0.0007693415636747,False
0.29,0.8243292499678019,3.6000000000000005,9229.0,15.0969,0.3,68900.0,0.33,276.0,2700.0,42.859011392922255,6.163476449821469,16641.386414517965,27.18497233284719,10.031514478154469,15.674039060075064,3.868038028333,4110,100,1356,2070,46.09447509045491,26.59685284329986,0.0006874150730793,False
0.3,0.9261723679782506,3.6000000000000005,9230.0,15.0969,0.2,68900.0,0.33,276.0,2700.0,50.81975508624425,7.566414595172029,20429.31940696448,31.728898499990947,13.029288278808274,19.090856586253302,5.462873683636245,10187,162,3378,5110,48.33272692923013,27.88825292441264,0.0007681835433693,False
0.31,0.6594181912269526,3.6000000000000005,9231.0,15.0969,0.05,68900.0,0.33,276.0,2700.0,29.81787264160949,4.559376134954075,12310.315564376002,20.37995256224155,6.118916494997484,9.437920079367943,1.5595403600434086,266176,462,31534,177635,49.88511571400832,27.80749099109049,0.0005124876441402,False
0.32,0.8764878918308318,3.6000000000000005,9232.0,15.0969,0.1,68900.0,0.33,276.0,2700.0,45.95856261605001,7.284740879852777,19668.800375602492,29.479564809583525,11.50898993550706,16.478997806466484,4.224249055654283,65303,300,12348,40081,44.74448139175558,25.823378384006105,0.0006847869097373,False
0.33,0.7546614625637299,3.6000000000000005,9233.0,15.0969,0.2,68900.0,0.33,276.0,2700.0,36.098565213101296,5.8809969833667495,15878.691855090225,24.22676315595677,8.241351747053784,11.87180205714452,2.3603547636870346,7659,132,2442,3916,39.09971781842262,22.4977874409924,0.0005580284576143,False
0.34,0.6535268562962067,3.6000000000000005,9234.0,15.0969,0.08,68900.0,0.33,276.0,2700.0,28.47656604516891,4.758698122574257,12848.484930950495,20.149492841171167,5.999530654535392,8.327073203997742,1.2408325319611349,73692,284,11950,46657,34.656767844221235,19.99166133884317,0.0004730170794671,False
0.3500000000000001,0.7964101309024947,3.6000000000000005,9235.0,15.0969,0.3,68900.0,0.33,276.0,2700.0,38.58664409879529,6.662865527274068,17989.736923639983,25.98483329587415,9.289332990030893,12.60181080292114,2.6264674627568247,3614,94,1190,1823,39.564043649837856,22.65518064522332,0.0007918691699232,False
0.36,0.939690716711387,3.6000000000000005,9236.0,15.0969,0.3,68900.0,0.33,276.0,2700.0,49.68675774013409,8.845900295326883,23883.930797382585,32.35164278457346,13.46241465681747,17.335114955560634,4.616514361490587,4646,108,1536,2336,42.023866838949694,24.24434497764137,0.0006674994651003,False
0.37,0.7195765021902158,3.6000000000000005,9237.0,15.0969,0.05,68900.0,0.33,276.0,2700.0,32.22607393088526,5.8557362820922565,15810.487961649093,22.783182365876755,7.416771161866658,9.442891565008509,1.561034879774402,326992,482,34330,221569,166.79392393729455,95.58934197213851,0.0004905322725543,False
0.38,0.8021594576367324,3.6000000000000005,9238.0,15.0969,0.2,68900.0,0.33,276.0,2700.0,38.01895677086887,7.108678138406574,19193.43097369775,26.230373731049617,9.439433734853417,11.788583039819253,2.330755596446843,10149,138,2614,5656,37.5888376315664,21.680553644119083,0.0005370989890857,False
0.39,0.8309168821539503,3.6000000000000005,9239.0,15.0969,0.08,68900.0,0.33,276.0,2700.0,39.8873107690852,7.653788176891852,20665.228077608,27.47100668640084,10.211540622679692,12.416304082684366,2.55775244578784,114915,344,16820,74347,38.47955577456034,21.786684445655627,0.0005488168499165,False
0.4,1.052195197030655,3.6000000000000005,9240.0,15.0969,0.2,68900.0,0.33,276.0,2700.0,57.81002999496353,11.427964712439543,30855.50472358677,37.71250869131669,17.400697717272383,20.09752130364684,5.972733004832838,15747,176,3868,8911,43.50216142856697,25.08267778965664,0.0007056208687641,False
0.4100000000000001,1.0768536292413635,3.6000000000000005,9241.0,15.0969,0.3,68900.0,0.33,276.0,2700.0,59.60205162051477,12.074072777353477,32599.996498854387,38.92999125582957,18.34560826014284,20.672060364685198,6.271535482789362,5446,118,1810,2725,42.13910945432331,24.28124638736552,0.0007052138605355,False
0.42,0.8742685029219697,3.6000000000000005,9242.0,15.0969,0.1,68900.0,0.33,276.0,2700.0,42.2490415082645,8.717129172389441,23536.24876545149,29.38053540832848,11.443673231603947,12.868506099936024,2.726544059214506,68752,284,11306,43389,36.56875917601266,21.10700771843022,0.0005478154799767,False
0.43,0.7332239494047329,3.6000000000000005,9243.0,15.0969,0.05,68900.0,0.33,276.0,2700.0,31.355210122372608,6.574851104904141,17752.09798324118,23.341033999009728,7.731504742250506,8.01417612336288,1.1566536373463645,367741,476,33630,253146,45.86713645830749,25.707777199752723,0.000448032287165,False
0.44,1.1108031446927342,3.6000000000000005,9244.0,15.0969,0.3,68900.0,0.33,276.0,2700.0,61.4589997780826,13.342570998775908,36024.94169669495,40.63121413501156,19.69605849405392,20.82778564307104,6.353487495278014,5788,122,1920,2900,40.68240280118894,23.4633844860727,0.0006900470559518,False
0.45,0.8435034396656145,3.6000000000000005,9245.0,15.0969,0.2,68900.0,0.33,276.0,2700.0,38.86722375649679,8.554273591506204,23096.538697066757,28.02054652915619,10.560760259475977,10.846677227340605,2.0064866679697726,10490,138,2604,5916,34.5621505919067,19.941130186343365,0.0004974517988212,False
0.46,0.8789386370488063,3.6000000000000005,9246.0,15.0969,0.2,68900.0,0.33,276.0,2700.0,41.27074835230136,9.288412079342764,25078.71261422546,29.589061183296284,11.581370981020696,11.681687169005077,2.292958901677933,11021,142,2718,6232,74.32315203127219,38.99898387000447,0.00051147222489,False
0.4700000000000001,1.0615365984435865,3.6000000000000005,9247.0,15.0969,0.1,68900.0,0.33,276.0,2700.0,55.949343011728615,12.930649225040456,34912.75290760923,38.17193193025396,17.755129520452755,17.777411081474654,4.8244802954122985,99914,336,14828,64490,41.18900239097552,23.370651165122737,0.0006265164855875,False
0.4800000000000001,0.9497418647376812,3.6000000000000005,9248.0,15.0969,0.3,68900.0,0.33,276.0,2700.0,46.21581549062896,10.860172374587089,29322.46541138514,32.81764192087129,13.789925593791528,13.398173569757674,2.9297532192044398,4173,100,1360,2109,34.2582634254905,19.763863912215445,0.0005332462576933,False
0.49,1.077747850754322,3.6000000000000005,9249.0,15.0969,0.3,68900.0,0.33,276.0,2700.0,56.6099945257289,13.623045169402127,36782.221957385744,38.97442958303288,18.380440163179408,17.63556494269602,4.757394993777281,5811,116,1774,3034,38.05183021283637,21.96558391638022,0.000610289022258,False
0.5,1.1346364562201658,3.6000000000000005,9250.0,15.0969,0.3,68900.0,0.33,276.0,2700.0,61.25922911392608,15.053007890682393,40643.12130484246,41.84281611734264,20.678844768184145,19.41641299658345,5.625836877501753,5914,120,1862,3041,39.48476192000874,22.794291297959315,0.0006388344868106,False
0.01,0.3769444610615113,3.6000000000000005,9251.0,18.11628,0.05,68900.0,0.33,276.0,2700.0,20.303930153362547,0.1015175563717099,274.09740220361687,10.311802331667076,1.831314772347581,9.99212782169547,1.7297972159758712,66306,382,21952,33372,731.1305155817013,415.6196584215632,0.0075301019069593,True
0.02,0.7042114043485687,3.6000000000000005,9252.0,18.11628,0.1,68900.0,0.33,276.0,2700.0,43.52010608316984,0.4351843056708713,1174.9976253113523,22.160722068478552,7.071495014750107,21.359384014691283,6.636310709079236,35488,294,11756,17848,635.0070657480647,361.217737844045,0.0081717738619681,True
0.03,0.3379335513893069,3.6000000000000005,9253.0,18.11628,0.05,68900.0,0.33,276.0,2700.0,17.23581958036175,0.2584807450376642,697.8980116016934,9.078944877485654,1.4532137701341608,8.156874702876095,1.1947330250964965,55565,350,18302,28106,239.8716975993313,137.14536507313233,0.0023094402629029,False
0.04,0.389255235516447,3.6000000000000005,9254.0,18.11628,0.08,68900.0,0.33,276.0,2700.0,20.141601317985614,0.4026979850731602,1087.2845596975326,10.708797926741424,1.9607007990501768,9.432803391244192,1.5580028139770166,26078,238,8556,13238,191.39305684900245,109.4327197698156,0.0020691114212809,False
0.05,0.4914432547249405,3.6000000000000005,9255.0,18.11628,0.08,68900.0,0.33,276.0,2700.0,26.58521684174206,0.66436862165575,1793.7952784705249,14.151170038989267,3.228661338680148,12.434046802752793,2.5642927170243976,34320,276,11272,17406,201.3539784297284,115.16913835774936,0.0021983150385263,False
0.06,0.6438590343229602,3.6000000000000005,9256.0,18.11628,0.2,68900.0,0.33,276.0,2700.0,37.26354072320984,1.117453832354171,3017.125347356261,19.773193182596803,5.8065498364873225,17.490347540613033,4.689096004133152,8038,138,2646,4063,192.8747684226135,110.26989009899354,0.0025668010333536,False
0.0699999999999999,0.5951777361604633,3.6000000000000005,9257.0,18.11628,0.2,68900.0,0.33,276.0,2700.0,33.2592628408583,1.1633558219094935,3141.0607191556323,17.914070842108725,4.889458994809912,15.345191998749574,3.7261031729004186,6958,128,2278,3535,153.25221782297294,87.77061300633326,0.0020221627232354,False
0.08,0.3873270303623868,3.6000000000000005,9258.0,18.11628,0.05,68900.0,0.33,276.0,2700.0,18.784832092612817,0.7503209534120874,2025.866574212636,10.646365945573752,1.9401122455427344,8.138466147039065,1.1897912921306473,60877,366,20086,30686,87.04867631999008,50.16236405437932,0.0010858805873843,False
0.09,0.5458873964143883,3.6000000000000005,9259.0,18.11628,0.08,68900.0,0.33,276.0,2700.0,29.01601357781453,1.3041937969720083,3521.323251824422,16.092373108016776,4.0516152164189965,12.923640469797752,2.7474214194469884,37394,288,12328,18896,114.65097585191774,65.96772274183046,0.0014449503318836,False
0.0999999999999999,0.7587655792065213,3.6000000000000005,9260.0,18.11628,0.3,68900.0,0.33,276.0,2700.0,44.75202979555761,2.2355070946754907,6035.869155623825,24.39764934777214,8.34113173257181,20.35438044778547,6.10562463789632,4090,100,1338,2077,135.82963821414057,78.4087249902768,0.0019638674044959,False
0.11,0.5864237178645969,3.6000000000000005,9261.0,18.11628,0.2,68900.0,0.33,276.0,2700.0,31.214835956384487,1.7140283377198593,4627.87651184362,17.58607608212799,4.734075931984177,13.6287598742565,3.0200475942643177,6471,122,2120,3285,97.3910265015785,56.21876003781679,0.0013086131311128,False
0.12,0.6176295346574721,3.6000000000000005,9262.0,18.11628,0.2,68900.0,0.33,276.0,2700.0,33.132087127060515,1.9843061128866937,5357.626504794073,18.764097117643256,5.301180709470324,14.36799000941726,3.31687459658363,6913,126,2270,3502,93.55887460318976,53.89447119147015,0.0012854572289622,False
0.13,0.6021665662048508,3.6000000000000005,9263.0,18.11628,0.2,68900.0,0.33,276.0,2700.0,31.6590289825862,2.0532354978281515,5543.735844136009,18.177310293007604,5.015576544275755,13.481718689578596,2.962341046447604,6468,122,2120,3282,84.27934157811319,48.59204587582512,0.0011588420147853,False
0.14,0.7802775057044049,3.6000000000000005,9264.0,18.11628,0.3,68900.0,0.33,276.0,2700.0,44.93466833374515,3.139679763201192,8477.135360643219,25.30028231688321,8.875660009562772,19.63438601686194,5.73598024636158,4300,104,1412,2176,101.02344861385068,58.24575086903076,0.0014876605513824,False
0.15,0.6819152504922926,3.6000000000000005,9265.0,18.11628,0.1,68900.0,0.33,276.0,2700.0,36.855118507240974,2.757065304572496,7444.076322345739,21.268027581937893,6.587371186673775,15.58709092530308,3.830305882101279,30058,266,9948,15130,99.28071544457198,57.16362919770657,0.0011713464404272,False
0.16,0.8053631036567357,3.6000000000000005,9266.0,18.11628,0.3,68900.0,0.33,276.0,2700.0,46.19913608758693,3.687352244667553,9955.851060602394,26.36755446674636,9.523686237655076,19.83158162084057,5.836333992987523,4214,104,1382,2135,92.2052998993248,53.21625803908861,0.0013681044063172,False
0.17,0.8523266093771109,3.6000000000000005,9267.0,18.11628,0.3,68900.0,0.33,276.0,2700.0,49.69253191703685,4.213575449809353,11376.653714485254,28.40814745698249,10.80969879272012,21.28438446005436,6.596123342910767,4657,108,1520,2371,91.62419263690607,52.77485656973624,0.0013902109047964,False
0.18,0.4829547402915122,3.6000000000000005,9268.0,18.11628,0.1,68900.0,0.33,276.0,2700.0,21.86126157426489,1.9552990294466837,5279.307379506045,13.855225508869664,3.109796273275443,8.00603606539523,1.1544972438287595,20823,200,5966,11176,53.22852572965392,30.714809416795973,0.000681611874476,False
0.19,0.8098069542620078,3.6000000000000005,9269.0,18.11628,0.2,68900.0,0.33,276.0,2700.0,45.40547630970667,4.2991547934148215,11607.71794222002,26.55826805985452,9.641283278093365,18.847208249852155,5.342128484678543,9398,152,3086,4763,76.93732336555209,44.3959150823639,0.0011762353049404,False
0.2,0.6063398824627034,3.6000000000000005,9270.0,18.11628,0.2,68900.0,0.33,276.0,2700.0,29.60113816446553,2.943358655627403,7947.068370193988,18.335086716788886,5.091765282072029,11.266051447676643,2.1484066264446264,6213,120,2050,3132,57.32976950843357,33.052664959335175,0.0007953995120318,False
0.21,0.7059663101926494,3.6000000000000005,9271.0,18.11628,0.1,68900.0,0.33,276.0,2700.0,36.54111738128919,3.817421131992098,10307.037056378666,22.231515466689675,7.110447101971938,14.309601914599517,3.29302596997984,40516,266,9982,22943,377.50747672213066,210.52624243211304,0.0009124164961125,True
0.22,0.8923825292131791,3.6000000000000005,9272.0,18.11628,0.2,68900.0,0.33,276.0,2700.0,51.0825723691955,5.59678184156122,15111.310972215291,30.19240350758522,11.983213674372598,20.890168861610285,6.386431832811378,10586,164,3490,5345,73.53262836433635,42.40467630826142,0.0011620107614164,False
0.23,0.674869103631982,3.6000000000000005,9273.0,18.11628,0.3,68900.0,0.33,276.0,2700.0,33.53820557037292,3.831411135382066,10344.81006553158,20.98851171226557,6.438499028514959,12.549693858107348,2.6070878931328925,3282,88,1078,1659,56.47446978914095,32.59367406350051,0.0007948625391801,False
0.24,0.8871998882236698,3.6000000000000005,9274.0,18.11628,0.3,68900.0,0.33,276.0,2700.0,49.862239368776365,5.954515806357688,16077.192677165758,29.959276088461024,11.82734168579074,19.90296328031534,5.872825879433051,4646,108,1522,2357,68.58173561475905,39.56769240055443,0.0010668518294649,False
0.25,0.7586687743663821,3.6000000000000005,9275.0,18.11628,0.1,68900.0,0.33,276.0,2700.0,39.15090236479893,4.861137872124968,13125.072254737412,24.393613736988947,8.338770117362152,14.757288627809984,3.477632245237184,43301,272,10488,24683,58.201676921334204,33.59410986288974,0.0008537063075831,False
0.26,0.7150254052413831,3.6000000000000005,9276.0,18.11628,0.1,68900.0,0.33,276.0,2700.0,35.49246857879818,4.57720982692378,12358.466532694209,22.59819298903933,7.313503839838161,12.894275589758852,2.7362940129143807,40606,260,9686,23273,53.92452873787713,31.115796868872334,0.0007712384011886,False
0.27,0.735543181564793,3.6000000000000005,9277.0,18.11628,0.1,68900.0,0.33,276.0,2700.0,36.69015391869294,4.91194680022313,13262.25636060245,23.43630002979256,7.785748464844302,13.253853888900384,2.873801664621172,43293,266,10070,25046,53.481754092092345,30.861206903008075,0.000771703489905,False
0.28,0.6180029742514668,3.6000000000000005,9278.0,18.11628,0.08,68900.0,0.33,276.0,2700.0,27.859447542408876,3.854346494649485,10406.73553555361,18.77834267420177,5.308190626098244,9.0811048682071,1.4538441314487591,63187,282,11566,39044,46.70516121152779,26.67584251005522,0.0006210677637121,False
0.29,0.7719098803445459,3.6000000000000005,9279.0,18.11628,0.2,68900.0,0.33,276.0,2700.0,38.76672009623163,5.570094211801324,15039.254371863575,24.947797528945365,8.665432683020256,13.818922567286265,3.095338471218932,8188,140,2714,4111,50.86909820625733,29.325451748401548,0.000762362084436,False
0.3,0.746591283059099,3.6000000000000005,9280.0,18.11628,0.08,68900.0,0.33,276.0,2700.0,36.49991487075607,5.4184385628487615,14629.784119691656,23.891973651720114,8.047189426066561,12.607941219035958,2.6287508632178,87280,328,15292,54366,52.7511055771346,29.72049544439997,0.0007208444639103,False
0.31,0.9824918103746054,3.6000000000000005,9281.0,18.11628,0.3,68900.0,0.33,276.0,2700.0,55.24812267105195,8.501064889517664,22952.87520169769,34.353635055481625,14.889779860221113,20.894487615570327,6.3887149707034485,5310,116,1754,2673,59.65647456028165,34.431728183237155,0.0009640903094461,False
0.32,0.7711978006642366,3.6000000000000005,9282.0,18.11628,0.08,68900.0,0.33,276.0,2700.0,37.68199123709845,5.960489459220536,16093.321539895447,24.91788254166964,8.647678515014928,12.76410869542881,2.6871890557943914,92897,334,15718,58240,49.450817256644,28.15074579701636,0.0007097733017935,False
0.33,0.7858865528014534,3.6000000000000005,9283.0,18.11628,0.1,68900.0,0.33,276.0,2700.0,38.46115933976837,6.270825014267072,16931.227538521096,25.537547617900582,9.018235531175923,12.923611721867786,2.747410516908851,55992,272,10486,34435,49.35466218443806,27.95511557921401,0.000706383258729,False
0.34,0.9102705928350844,3.6000000000000005,9284.0,18.11628,0.3,68900.0,0.33,276.0,2700.0,47.98814490146468,8.07566652814453,21804.299625990232,31.00223683104844,12.530528496169469,16.98590807041624,4.454861968024936,4493,104,1490,2252,51.72083862160937,29.819820996018397,0.0008088916296232,False
0.3500000000000001,0.802003111364824,3.6000000000000005,9285.0,18.11628,0.3,68900.0,0.33,276.0,2700.0,39.015150191634966,6.737854093521014,18192.20605250673,26.223685555158973,9.435333236553497,12.791464636475991,2.697479143032483,3640,94,1198,1837,44.451115422423705,25.624692797665176,0.0006801299842357,False
0.36,0.8259040211328943,3.6000000000000005,9286.0,18.11628,0.2,68900.0,0.33,276.0,2700.0,40.51948902709239,7.195791926979396,19428.63820284437,27.253249544508567,10.074378341021314,13.266239482583824,2.878586414041917,9345,140,2680,5011,47.828445445810864,27.55269604868533,0.0006942266174085,False
0.37,0.8693001988956925,3.6000000000000005,9287.0,18.11628,0.3,68900.0,0.33,276.0,2700.0,43.58600710804488,7.957323919866552,21484.77458363969,29.15929783560096,11.298251643854435,14.426709272443926,3.3409277239878845,4134,100,1370,2073,45.85709511048645,26.360975769825615,0.000712489957717,False
0.38,0.6864615949856641,3.6000000000000005,9288.0,18.11628,0.05,68900.0,0.33,276.0,2700.0,29.561255551849737,5.501714906792931,14854.630248340914,21.44904027742228,6.684474242982155,8.112215274427456,1.182759336189224,310607,460,31840,211037,49.98036329947893,28.45550188940778,0.0005500859918048,False
0.39,0.9596322405649572,3.6000000000000005,9289.0,18.11628,0.1,68900.0,0.33,276.0,2700.0,50.24099050882963,9.672755726142926,26116.440460585894,33.27866566631946,14.116782228939275,16.96232484251017,4.4440265027963495,78969,316,13678,49244,49.85673916126786,28.57626325605821,0.0007751826665856,False
0.4,0.7751868798856436,3.6000000000000005,9290.0,18.11628,0.1,68900.0,0.33,276.0,2700.0,35.34106583858525,6.934171881163888,18722.264079142496,25.08563094252589,8.747412370387101,10.255434896059365,1.8132404892232132,56215,256,9588,35165,41.90905882706029,24.15713809746814,0.0005992939781379,False
0.4100000000000001,1.0197036409527114,3.6000000000000005,9291.0,18.11628,0.3,68900.0,0.33,276.0,2700.0,54.59418436139293,11.04745998923352,29828.141970930505,36.13160877355763,16.201114416086646,18.462575587835303,5.153654426853127,5203,114,1732,2599,48.485597512002094,27.944684331555305,0.0007919792694686,False
0.42,0.8524607138340623,3.6000000000000005,9292.0,18.11628,0.2,68900.0,0.33,276.0,2700.0,40.546275783341045,8.359548370155519,22570.7805994199,28.414053746684218,10.813508847932413,12.132222036656827,2.453960477776892,10792,140,2670,6095,42.74659543184191,24.673292871067343,0.0006372545192678,False
0.43,0.947216900644809,3.6000000000000005,9293.0,18.11628,0.1,68900.0,0.33,276.0,2700.0,47.76118099337421,10.102134842169482,27275.7640738576,32.70033877019214,13.707210353165395,15.060842223182064,3.6050755109959134,80369,306,12870,51046,45.7608772665517,26.37481155528872,0.0007068811038364,False
0.44,1.0807281011547527,3.6000000000000005,9294.0,18.11628,0.2,68900.0,0.33,276.0,2700.0,58.7745099401844,12.751983234438296,34430.354732983404,39.122678192992296,18.4968145761012,19.651831747192105,5.744831341662904,15826,176,3882,8961,49.41294139164014,28.52736243546007,0.0008078531751734,False
0.45,0.9320325476418696,3.6000000000000005,9295.0,18.11628,0.1,68900.0,0.33,276.0,2700.0,45.821476198263525,10.118980390903722,27321.24705544005,31.998293061484254,13.21601425331832,13.823183136779267,3.0970338624145963,79935,298,12410,51112,46.794424567890566,26.293707057230627,0.0006694076791748,False
0.46,0.884341421954294,3.6000000000000005,9296.0,18.11628,0.2,68900.0,0.33,276.0,2700.0,41.69213280532889,9.38533050353852,25340.392359554007,29.83098437264672,11.741887513325173,11.861148432682173,2.356557009786652,10975,142,2698,6208,41.85753457895111,24.16486036769342,0.0006178961711789,False
0.4700000000000001,0.8426610195325008,3.6000000000000005,9297.0,18.11628,0.2,68900.0,0.33,276.0,2700.0,38.15820533933761,8.749731872028544,23624.276054477068,27.983641421834744,10.537170732993816,10.17456391750287,1.7874388609652705,10253,134,2522,5802,38.88779251214858,22.45065835910196,0.0005773366553831,False
0.4800000000000001,1.0983869209277282,3.6000000000000005,9298.0,18.11628,0.3,68900.0,0.33,276.0,2700.0,58.79866545744335,13.880056366622537,37476.15218988084,40.00567275999513,19.19545968727129,18.79299269744822,5.315403320648754,5540,116,1788,2814,44.83275306025455,25.82725456276073,0.0007600077394931,False
0.49,1.04537275383634,3.6000000000000005,9299.0,18.11628,0.2,68900.0,0.33,276.0,2700.0,53.81655034748854,12.938651345731424,34934.35863347485,37.378357135303375,17.144546799103196,16.438193212185162,4.205895453371772,14774,166,3598,8395,44.68642521376948,25.79112543423747,0.0007113007506497,False
0.5,1.02690621249637,3.6000000000000005,9300.0,18.11628,0.3,68900.0,0.33,276.0,2700.0,51.886907321926735,12.7099274426825,34316.804095242755,36.47976613683871,16.462607944857744,15.40714118508803,3.7526805021752434,5057,110,1602,2590,44.8707363395359,25.86616222534881,0.0006785939395376,False
0.01,0.4245997933742446,3.6000000000000005,9301.0,21.13566,0.05,68900.0,0.33,276.0,2700.0,23.407846381135187,0.1170371375105703,316.0002712785398,11.869748991229311,2.3596227025821133,11.538097389905875,2.242585565071543,76899,414,25462,38700,965.9016541851504,548.4071636079764,0.0100970247309976,True
0.02,0.3311057712872827,3.6000000000000005,9302.0,21.13566,0.05,68900.0,0.33,276.0,2700.0,17.120405849481866,0.1711873033339987,462.2057190017967,8.86710027836751,1.3919486117705155,8.253305571114357,1.2207613084365168,55654,350,18320,28168,398.645504982389,227.3867105161148,0.0038669337658539,True
0.03,0.3850526470488487,3.6000000000000005,9303.0,21.13566,0.08,68900.0,0.33,276.0,2700.0,20.188093707199272,0.3027648569402231,817.4651137386023,10.572845421476549,1.915981960053411,9.615248285722725,1.613217103113188,25979,238,8534,13172,288.30185876222146,164.49366411472505,0.0031220937456348,True
0.04,0.4781268790999263,3.6000000000000005,9304.0,21.13566,0.1,68900.0,0.33,276.0,2700.0,26.01009053513731,0.5200677694161934,1404.182977423722,13.68771429573236,3.043309763863144,12.322376239404948,2.52324199444695,21522,220,7054,10935,268.4969561252827,153.3850916628654,0.0030593618936918,False
0.05,0.4915781709779698,3.6000000000000005,9305.0,21.13566,0.08,68900.0,0.33,276.0,2700.0,26.594484012539056,0.664600300925677,1794.420812499328,14.155888394769638,3.230570879804089,12.438595617769415,2.565970578878412,34343,276,11264,17441,235.0310379590766,134.43065162432717,0.0025661817011057,False
0.06,0.5012543580142392,3.6000000000000005,9306.0,21.13566,0.1,68900.0,0.33,276.0,2700.0,26.92316037597642,0.8072424219368323,2179.554539229447,14.495481616149537,3.3691869898853004,12.427678759826884,2.5619445679484683,22244,222,7286,11309,188.5908393747639,107.9365103854974,0.0022172435428037,False
0.0699999999999999,0.564570920224348,3.6000000000000005,9307.0,21.13566,0.1,68900.0,0.33,276.0,2700.0,31.03637227875642,1.0855546522363515,2930.997561038149,16.775702399591683,4.358647292580292,14.260669879164736,3.2730926403439407,25803,242,8472,13089,187.3842727022911,107.23903466714223,0.0022133019048375,False
0.08,0.5041828569012623,3.6000000000000005,9308.0,21.13566,0.1,68900.0,0.33,276.0,2700.0,26.454594412578864,1.057111446210727,2854.2009047689626,14.598723395535552,3.411788110781857,11.855871017043311,2.35467666457113,21740,220,7144,11018,134.56451166649214,77.23817935123027,0.0017114202670686,False
0.09,0.4789163459923238,3.6000000000000005,9309.0,21.13566,0.08,68900.0,0.33,276.0,2700.0,24.412884682938333,1.0970529967025775,2962.04309109696,13.715066186975378,3.0541265568079816,10.697818495962956,1.957073560105404,31244,264,10308,15776,111.23470278956788,64.04082987743088,0.0014463106005214,False
0.0999999999999999,0.5079791454556479,3.6000000000000005,9310.0,21.13566,0.1,68900.0,0.33,276.0,2700.0,26.05278452190881,1.300544830993043,3511.471043681216,14.732879183791043,3.467463609771458,11.319905338117769,2.166918778778415,21386,218,7032,10832,106.57562424289851,61.390085428180605,0.0014061717050024,False
0.11,0.6758717335239461,3.6000000000000005,9311.0,21.13566,0.1,68900.0,0.33,276.0,2700.0,37.85181410199825,2.079062135728617,5613.467766467266,21.02820921563925,6.459562636586309,16.823604886358996,4.380500500857692,31269,270,10304,15807,132.72673980154264,76.32751286941284,0.0018133302956921,False
0.12,0.5600323971947383,3.6000000000000005,9312.0,21.13566,0.1,68900.0,0.33,276.0,2700.0,28.99541015270385,1.736105494425237,4687.48483494814,16.608904193383005,4.282889085447743,12.38650595932085,2.546783591022506,23805,232,7856,12015,97.33263996427507,56.10164698083088,0.0013337206156122,False
0.13,0.5536930805293444,3.6000000000000005,9313.0,21.13566,0.1,68900.0,0.33,276.0,2700.0,28.21636450868743,1.829462307024717,4939.548228966736,16.376790403882328,4.178336237270539,11.839574104805102,2.348873930245822,23079,228,7624,11637,89.60020318098958,51.69270229488637,0.0012238059239373,False
0.14,0.7811147609056281,3.6000000000000005,9314.0,21.13566,0.3,68900.0,0.33,276.0,2700.0,45.00245453951425,3.144424797605036,8489.946953533597,25.335648396049795,8.896857606512635,19.66680614346445,5.7524328089075984,4301,104,1414,2174,117.99008699774474,68.12157129902268,0.0017381554061725,False
0.15,0.7077069794305537,3.6000000000000005,9315.0,21.13566,0.08,68900.0,0.33,276.0,2700.0,38.82545285202137,2.904840380431026,7843.0690271637695,22.301811018021585,7.14920598666262,16.523641833999786,4.244365606231595,60596,340,15996,33546,99.2495576653883,57.27149828465377,0.001443934919589,False
0.16,0.6138646309661011,3.6000000000000005,9316.0,21.13566,0.08,68900.0,0.33,276.0,2700.0,31.475435336304766,2.5094561845649745,6775.531698325432,18.620673566319,5.230805790664481,12.854761769985767,2.721349606099506,53913,304,13238,30584,82.77609325701076,47.766975388725776,0.0011487302590592,False
0.17,0.8159548667500071,3.6000000000000005,9317.0,21.13566,0.3,68900.0,0.33,276.0,2700.0,46.67750159172052,3.957297872158184,10684.704254827098,26.82293195870873,9.805374264524705,19.854569633011792,5.848076392366519,4494,106,1476,2274,103.21459495620478,59.55837402503894,0.0015359109656426,False
0.18,0.5986224256354681,3.6000000000000005,9318.0,21.13566,0.1,68900.0,0.33,276.0,2700.0,29.714870679712053,2.662123848936928,7187.734392129706,18.04366420197795,4.951390524928293,11.671206477734104,2.2892666759913647,28298,236,8066,15219,74.02055350578348,42.72546857771352,0.0010050066143051,False
0.19,0.4926593674269218,3.6000000000000005,9319.0,21.13566,0.05,68900.0,0.33,276.0,2700.0,22.190824028909542,2.093762826739084,5653.159632195526,14.19371703748826,3.245896623518252,7.997106991421285,1.152133796779168,136873,398,23800,85361,656.9638636434047,352.8527133647433,0.0007779572496216,True
0.2,0.5306895469620131,3.6000000000000005,9320.0,21.13566,0.05,68900.0,0.33,276.0,2700.0,24.39722327275702,2.422967166456492,6542.011349432527,15.542999240334092,3.811227755251017,8.854224032422929,1.3882605887945254,154530,418,26060,96968,66.44468093849046,37.087438647221056,0.0008077807571261,False
0.21,0.8363296400942377,3.6000000000000005,9321.0,21.13566,0.3,68900.0,0.33,276.0,2700.0,46.803733731970446,4.894995848813638,13216.488791796824,27.706844364824036,10.360872466247171,19.096889367146414,5.465876617433533,4612,106,1510,2341,86.52430698612446,49.86287637420107,0.0013055483252585,False
0.22,0.6643565022654245,3.6000000000000005,9322.0,21.13566,0.3,68900.0,0.33,276.0,2700.0,33.10617465198413,3.6193780926679686,9772.320850203516,20.57380354482355,6.2200374356943176,12.532371107160577,2.600659343026349,3087,86,1012,1563,67.27835069739025,38.84098418521614,0.0009472330350388,False
0.23,0.633110343775496,3.6000000000000005,9323.0,21.13566,0.2,68900.0,0.33,276.0,2700.0,30.51773130092344,3.484056594395378,9406.95280486752,19.35758068540773,5.596250147802147,11.160150615515713,2.112193553406769,6255,120,2066,3150,61.556282324674974,35.45306404329504,0.0008640232241521,False
0.24,0.7498401681262153,3.6000000000000005,9324.0,21.13566,0.1,68900.0,0.33,276.0,2700.0,38.82533360262597,4.630087114419628,12501.235208932996,24.0265560493308,8.125030252035282,14.79877755329517,3.494943137615654,43004,274,10568,24386,69.46011786266706,40.088805429148906,0.0010178402098885,False
0.25,0.7740475936674311,3.6000000000000005,9325.0,21.13566,0.2,68900.0,0.33,276.0,2700.0,40.34240888189328,5.010076186761741,13527.2057042567,25.03768098127325,8.718859974241743,15.30472790062003,3.7087837874800025,8454,144,2802,4245,67.64254907260994,39.00543000831617,0.0010146873210774,False
0.26,0.8489624899454384,3.6000000000000005,9326.0,21.13566,0.2,68900.0,0.33,276.0,2700.0,45.94113153733189,5.935536011533478,16025.947231140392,28.26013126010997,10.714379443663436,17.68100027722192,4.778843432129958,9244,152,3064,4642,70.91338843564094,40.918206133740384,0.0010952775963789,False
0.27,0.8541989946114255,3.6000000000000005,9327.0,21.13566,0.3,68900.0,0.33,276.0,2700.0,45.99368008555033,6.167922832748891,16653.391648422006,28.4906528022401,10.862967015699502,17.50302728331023,4.69504418295061,4383,104,1444,2211,70.08027775355305,40.46082936139842,0.0010669302841427,False
0.28,0.8015991907566462,3.6000000000000005,9328.0,21.13566,0.1,68900.0,0.33,276.0,2700.0,41.42358384986269,5.753325577693038,15533.979059771202,26.20640949592813,9.424744438751588,15.217174353934556,3.671418861058549,50921,284,11258,29956,64.77997519864252,37.39099250502875,0.0009652901772882,False
0.29,0.7950255883319937,3.6000000000000005,9329.0,21.13566,0.1,68900.0,0.33,276.0,2700.0,40.55429993279582,5.829293288103123,15739.091877878433,25.925826807766693,9.253396736201497,14.628473125029128,3.424103448098373,52504,278,10910,31477,63.50444901585028,36.3436791828189,0.0009285236972346,False
0.3,0.7411242423048754,3.6000000000000005,9330.0,21.13566,0.1,68900.0,0.33,276.0,2700.0,36.0893976170172,5.356860974787964,14463.524631927505,23.666104766766168,7.917188791840811,12.42329285025103,2.5603278170528467,49392,260,9740,29992,64.0865127687433,35.79337703273716,0.0008335351815058,False
0.31,0.708291153166061,3.6000000000000005,9331.0,21.13566,0.08,68900.0,0.33,276.0,2700.0,33.3280299086926,5.103450511351954,13779.316380650276,22.32541947913508,7.162241014217526,11.00261042955752,2.0587905028655715,80482,310,13872,50262,56.13336662627675,31.765347612903334,0.0007728900477923,False
0.32,0.8000629730497855,3.6000000000000005,9332.0,21.13566,0.1,68900.0,0.33,276.0,2700.0,39.895561648811366,6.314660725094599,17049.583957755418,26.140741492820236,9.384536136218337,13.754820155991132,3.069875411123736,57154,278,10884,34996,58.46143881615694,33.73628363306611,0.0008622340930829,False
0.33,1.0269816917052874,3.6000000000000005,9333.0,21.13566,0.3,68900.0,0.33,276.0,2700.0,58.35331122738745,9.553030075724225,25793.181204455406,36.483421548409495,16.465361546700127,21.869889678977955,6.912331470975902,5363,118,1776,2693,67.8945909001502,39.19876968044774,0.0011247653662825,False
0.34,0.9871280069900544,3.6000000000000005,9334.0,21.13566,0.3,68900.0,0.33,276.0,2700.0,54.47342194425401,9.178163625418716,24781.041788630537,34.573253727692205,15.049558955755684,19.9001682165618,5.871395330336968,5056,114,1668,2548,64.7180244079584,37.34708124820193,0.0010418920965402,False
0.3500000000000001,0.9546220267084056,3.6000000000000005,9335.0,21.13566,0.3,68900.0,0.33,276.0,2700.0,51.31490390280146,8.89031099297472,24003.839681031743,33.04481545928104,13.950635080271564,18.27008844352042,5.060324087296843,4687,108,1548,2359,60.84403342222019,35.10386730843944,0.0009757387896691,False
0.36,0.7358765256162954,3.6000000000000005,9336.0,21.13566,0.08,68900.0,0.33,276.0,2700.0,33.72754704993925,5.97324237109181,16127.754401947886,23.45000376124,7.793563099999396,10.277543288699244,1.8203207289075864,91407,312,14068,58563,50.61058511675964,29.20940498999897,0.0007173073908313,False
0.37,1.0461906310971962,3.6000000000000005,9337.0,21.13566,0.2,68900.0,0.33,276.0,2700.0,58.45919438949525,10.708863566935095,28913.93163072476,37.41835364612229,17.17513406242392,21.04084074337296,6.466270495488821,14476,176,3908,7940,65.00453212993361,37.52188429542784,0.0010476097644884,False
0.38,0.9915950229892928,3.6000000000000005,9338.0,21.13566,0.2,68900.0,0.33,276.0,2700.0,53.31975447440481,10.0158297020784,27042.74019561168,34.78536924108674,15.204471808313285,18.53438523331807,5.1886421062348855,13635,166,3522,7592,61.051585903069714,35.19871383795133,0.0009600855570667,False
0.39,0.8093094478589418,3.6000000000000005,9339.0,21.13566,0.2,68900.0,0.33,276.0,2700.0,38.23087299265455,7.330782810488776,19793.11358831969,26.536892257509493,9.628075687236416,11.693980735145054,2.2972928767476404,10334,138,2614,5789,52.22464968152843,30.15037604027369,0.0007447008590543,False
0.4,0.7122376324859649,3.6000000000000005,9340.0,21.13566,0.2,68900.0,0.33,276.0,2700.0,30.77290863413752,6.020540440274343,16255.459188740726,22.485134911214285,7.250662848592528,8.287773722923237,1.2301224083181852,8486,120,2110,4785,45.65611515093074,26.356611350506864,0.0006367051482108,False
0.4100000000000001,0.7441666479881515,3.6000000000000005,9341.0,21.13566,0.05,68900.0,0.33,276.0,2700.0,32.75363278987759,6.57014691707287,17739.39667609675,23.79170799946088,7.989381692498013,8.961924790416713,1.419234775425143,368613,486,35012,252759,63.10251538093232,35.83080411094125,0.0006588890798646,False
0.4100000000000001,1.0008779562296246,3.6000000000000005,9341.0,21.13566,0.2,68900.0,0.33,276.0,2700.0,52.98049816042229,10.716654318034529,28934.96665869322,35.22777175523956,15.52943378983696,17.752726405182734,4.812779471802434,14267,164,3506,8080,57.74920641151562,33.33316468679177,0.0009121034020361,False
0.42,1.1019644939734212,3.6000000000000005,9342.0,21.13566,0.3,68900.0,0.33,276.0,2700.0,61.45550242192733,12.750485964258624,34426.31210349828,40.18551699376155,19.33890451085261,21.26998542816577,6.588418546593989,5840,122,1940,2924,58.93884544780386,33.96403795708522,0.0009953545016096,False
0.43,1.079339144145797,3.6000000000000005,9343.0,21.13566,0.3,68900.0,0.33,276.0,2700.0,59.0397651478222,12.527030435375762,33822.98217551456,39.053558591056735,18.44252286570581,19.98620655676546,5.915492430330053,5439,118,1808,2721,56.54174247641672,32.626015774511366,0.000950496405419,False
0.44,0.9160319656683896,3.6000000000000005,9344.0,21.13566,0.1,68900.0,0.33,276.0,2700.0,44.87998929205079,9.695188691848909,26177.009467992048,31.264779490924777,12.709899843762276,13.61520980112601,3.014711151913369,76849,294,12152,48937,53.33620434884639,30.422384647550818,0.0007793989308198,False
0.45,0.7939637846614396,3.6000000000000005,9345.0,21.13566,0.2,68900.0,0.33,276.0,2700.0,35.147625916699454,7.717364077551775,20836.883009389792,25.880607460057057,9.225892607676968,9.267018456642395,1.5085285301251918,9293,128,2304,5239,45.12714291904352,26.05415220171043,0.0006532847204454,False
0.46,0.7847189813516492,3.6000000000000005,9346.0,21.13566,0.2,68900.0,0.33,276.0,2700.0,34.15809244253362,7.65250122009614,20661.75329425958,25.488093636594385,8.988447493541148,8.669998805939237,1.3359462734450078,9266,128,2304,5218,43.76412094508814,25.26393061274388,0.0006348589370034,False
0.4700000000000001,1.0952201150876044,3.6000000000000005,9347.0,21.13566,0.2,68900.0,0.33,276.0,2700.0,58.90108866316105,13.624309453127076,36785.6355234431,39.846746146229705,19.06902120051668,19.054342516931342,5.444711747389601,15737,174,3876,8903,55.3462503881963,31.95298012386579,0.0009079790751801,False
0.4800000000000001,0.937398821487938,3.6000000000000005,9348.0,21.13566,0.2,68900.0,0.33,276.0,2700.0,45.220913907830194,10.62139599471539,28677.769185731555,32.24573964659894,13.388389465910882,12.975174261231253,2.766993471195491,12152,150,3008,6858,48.46475531053625,27.955542184967875,0.0007449344720067,False
0.49,1.138878585096026,3.6000000000000005,9349.0,21.13566,0.3,68900.0,0.33,276.0,2700.0,62.02824317284555,14.950516087945712,40366.39343745342,42.05996772378744,20.85680781934699,19.968275449058112,5.906291731401279,5771,120,1856,2933,55.9894263457217,32.325417875182474,0.0009105663255928,False
0.5,0.9858874171868278,3.6000000000000005,9350.0,21.13566,0.1,68900.0,0.33,276.0,2700.0,48.47169944565553,11.856125473614735,32011.538778759787,34.514433506696,15.006704219598856,13.95726593895953,3.15057874598412,89735,306,12950,58150,49.421622865128725,28.505655555354505,0.0007669668656275,False
0.02,0.5511205113804966,3.6000000000000005,9352.0,24.15504,0.1,68900.0,0.33,276.0,2700.0,31.84138183103908,0.3183970631495753,859.6720705038532,16.282884004438785,4.136326637531638,15.558497826600291,3.8179295743820623,26256,246,8696,13206,647.6431656485944,368.83901471342193,0.0080344009731297,True
0.03,0.429634723814582,3.6000000000000005,9353.0,24.15504,0.1,68900.0,0.33,276.0,2700.0,23.08415784557094,0.3462058190157946,934.7557113426454,12.037684537644257,2.419808567669877,11.046473307926682,2.0736027486540825,18999,206,6248,9621,368.0122687824364,210.25352498160868,0.0040487928855772,True
0.04,0.480433022677494,3.6000000000000005,9354.0,24.15504,0.1,68900.0,0.33,276.0,2700.0,26.167657478040176,0.5232191082742492,1412.6915923404729,13.76765696137922,3.074967752223055,12.400000516660958,2.5517486439488057,21687,220,7110,11016,310.71728192254545,177.4744632599248,0.0035163984856758,True
0.05,0.6740920993990542,3.6000000000000005,9355.0,24.15504,0.1,68900.0,0.33,276.0,2700.0,39.96888319082446,0.998960280382808,2697.192757033581,20.95776486725344,6.422202812268525,19.01111832357102,5.423242531885717,33080,280,10866,16775,686.5109588187942,385.57165292193554,0.0043362794472544,True
0.06,0.4675901715273356,3.6000000000000005,9356.0,24.15504,0.08,68900.0,0.33,276.0,2700.0,24.631279379130618,0.738485992031803,1993.912178485868,13.324158919097515,2.901004109378108,11.3071204600331,2.1625181173463046,32115,266,10536,16305,203.4981603451257,116.73913752341504,0.0023364809547062,False
0.0699999999999999,0.4236204975833229,3.6000000000000005,9357.0,24.15504,0.05,68900.0,0.33,276.0,2700.0,21.40725937239873,0.7485357005138349,2021.046391387354,11.837159478971802,2.3480146667087767,9.570099893426928,1.5994789661949418,69647,394,23006,35132,149.69699692258092,86.11278084493854,0.0018092010641869,False
0.08,0.7283958333756237,3.6000000000000005,9358.0,24.15504,0.2,68900.0,0.33,276.0,2700.0,43.09263137356756,1.722632924650276,4651.108896555746,23.14314534474394,7.619289472273159,19.949486028823625,5.896656547622882,8952,148,2934,4545,221.73457685080103,126.84582335325796,0.0030513938383727,False
0.09,0.4156967822900525,3.6000000000000005,9359.0,24.15504,0.05,68900.0,0.33,276.0,2700.0,20.27446454004287,0.9108240902722846,2459.2250437351686,11.574356473447176,2.255262615159339,8.700108066595694,1.3444385248870545,78006,382,22070,42085,111.46741184627253,64.33352261428502,0.0014086355765414,False
0.0999999999999999,0.411790302793084,3.6000000000000005,9360.0,24.15504,0.05,68900.0,0.33,276.0,2700.0,19.71951993397099,0.9838816015961598,2656.480324309631,11.44537242523574,2.2102996905327794,8.274147508735249,1.2264180889366196,85835,374,21060,48699,100.1845778712456,57.81863843117012,0.0012690020059449,False
0.11,0.7251173881653219,3.6000000000000005,9361.0,24.15504,0.3,68900.0,0.33,276.0,2700.0,41.67746424719215,2.289472893714281,6181.57681302856,23.009106594446934,7.5436357314168445,18.66835765274521,5.254162837702563,4175,98,1364,2123,159.64061417665127,92.0292750495694,0.0022632175352111,False
0.12,0.7231944893704508,3.6000000000000005,9362.0,24.15504,0.1,68900.0,0.33,276.0,2700.0,41.146746178102575,2.4651856559492207,6656.001271062896,22.93061484454165,7.49946702881211,18.21613133356092,5.034281372862889,33521,284,11068,16913,149.22973755430954,85.81629435041506,0.0020793700613129,False
0.13,0.6141007171910415,3.6000000000000005,9363.0,24.15504,0.1,68900.0,0.33,276.0,2700.0,32.52473001272417,2.1095060647871144,5695.666374925209,18.62965677343041,5.235202935570785,13.895073239293762,3.125696870783671,26720,248,8820,13484,112.9735570568987,65.0215995172228,0.0015812213014445,False
0.14,0.667682959369833,3.6000000000000005,9364.0,24.15504,0.3,68900.0,0.33,276.0,2700.0,36.13973198322877,2.524034218665046,6814.892390395624,20.7047274698496,6.288692989979843,15.435004513379162,3.764658771314797,3342,90,1094,1695,119.03487886041806,68.4590371428796,0.0016348362659382,False
0.15,0.7468710701851959,3.6000000000000005,9365.0,24.15504,0.3,68900.0,0.33,276.0,2700.0,41.88129200166856,3.1340283166545704,8461.87645496734,23.90355316472476,8.053875712564276,17.977738836943793,4.919847395909706,4071,98,1328,2073,121.6665390790711,70.24247929173366,0.0017615715399928,False
0.16,0.6101123771428676,3.6000000000000005,9366.0,24.15504,0.1,68900.0,0.33,276.0,2700.0,31.20534963316389,2.4878493283137035,6717.193186447,18.478086360799452,5.161203919423481,12.72726327236444,2.6733545911097774,26177,244,8568,13241,94.52614345694688,54.57112964468898,0.0012994054609703,False
0.17,0.713430930191244,3.6000000000000005,9367.0,24.15504,0.3,68900.0,0.33,276.0,2700.0,38.5366883007821,3.265328742428423,8816.387604556741,22.53350517002065,7.277523164985577,16.003183130761453,4.012194422557154,3472,92,1138,1759,105.02132487835536,60.63014692457976,0.0014839917669343,False
0.18,0.6974514942954866,3.6000000000000005,9368.0,24.15504,0.3,68900.0,0.33,276.0,2700.0,36.95794749660098,3.3140007624569314,8947.802058633715,21.88874869718808,6.922610431585087,15.0691987994129,3.608609669128155,3358,90,1100,1702,97.79537168162292,56.43887456453084,0.0013712093173259,False
0.19,0.5855602082787801,3.6000000000000005,9369.0,24.15504,0.08,68900.0,0.33,276.0,2700.0,28.467421013604977,2.69003954028516,7263.10675876993,17.55382654517671,4.718904111951075,10.913594468428265,2.028864571665916,49343,286,12072,28027,78.66535352345794,45.374314891882,0.0010706105665851,False
0.2,0.5672705615978137,3.6000000000000005,9370.0,24.15504,0.2,68900.0,0.33,276.0,2700.0,26.877677006727648,2.671012539853619,7211.73385760477,16.875164224792073,4.404069887268937,10.002512781935575,1.7330573474153184,5530,112,1822,2791,72.32227751025185,41.71563882953519,0.0009844573689796,False
0.21,0.7622030839427568,3.6000000000000005,9371.0,24.15504,0.3,68900.0,0.33,276.0,2700.0,40.86348593526351,4.271269830159404,11532.42854143039,24.54110509330778,8.425245247587782,16.32238084195573,4.153975417428378,3705,94,1214,1878,91.47542127939842,52.77095918478928,0.0013283175595395,False
0.22,0.582372038883054,3.6000000000000005,9372.0,24.15504,0.2,68900.0,0.33,276.0,2700.0,27.28171659692065,2.978687706610989,8042.45680784967,17.434920143965723,4.663129154127234,9.846796452954925,1.684441447516245,5653,114,1874,2836,68.2445869942788,39.35659955020402,0.0009349715168047,False
0.23,0.769305184633043,3.6000000000000005,9373.0,24.15504,0.2,68900.0,0.33,276.0,2700.0,40.692160118264205,4.654115908389562,12566.112952651816,24.838434308653422,8.600593727751512,15.853725809610784,3.9464778193619514,8520,144,2814,4293,82.83786838592867,47.79035223517724,0.0012388257609503,False
0.24,0.9146440459925976,3.6000000000000005,9374.0,24.15504,0.3,68900.0,0.33,276.0,2700.0,52.18106085261486,6.232774384418296,16828.4908379294,31.201456460233864,12.666550790387168,20.979604392381,6.433776405968872,5025,112,1654,2538,95.02685863653367,54.85489477372784,0.0014787639655072,False
0.25,0.9416309735703684,3.6000000000000005,9375.0,24.15504,0.3,68900.0,0.33,276.0,2700.0,54.09689093171077,6.729386442988892,18169.34339607001,32.441400721348785,13.52527221505838,21.65549021036199,6.795885772069488,4920,112,1614,2493,104.3181233769176,58.04376397546717,0.001455278367497,False
0.26,0.7010684193365331,3.6000000000000005,9376.0,24.15504,0.3,68900.0,0.33,276.0,2700.0,34.455537923888684,4.4424088417858645,11994.503872821831,22.034126610624565,7.002043206272083,12.42141131326412,2.559634364486219,3217,88,1058,1624,69.82869723582893,40.24207093584864,0.0009971103249913,False
0.27,0.9373245045586124,3.6000000000000005,9377.0,24.15504,0.3,68900.0,0.33,276.0,2700.0,52.93291374819957,7.10471937720653,19182.742318457636,32.242307844250774,13.38599318907788,20.690605903948796,6.281273811871351,4761,110,1568,2403,86.08707059177092,49.57687304724736,0.0013714237507005,False
0.28,0.6701602659908301,3.6000000000000005,9378.0,24.15504,0.08,68900.0,0.33,276.0,2700.0,31.540544378677705,4.36970005172714,11798.190139663278,20.802410892642804,6.340105912480043,10.7381334860349,1.9704058607529031,71624,302,13124,44256,65.94314108662401,37.40458883016708,0.0009022957908868,False
0.29,0.7650081728574432,3.6000000000000005,9379.0,24.15504,0.3,68900.0,0.33,276.0,2700.0,38.23820526076767,5.493459560659043,14832.340813779418,24.65838858110849,8.494249678517624,13.579816679659183,3.000790117858581,3581,92,1182,1802,67.7054098694844,39.04127075230469,0.00100716375831,False
0.3,0.722206446638843,3.6000000000000005,9380.0,24.15504,0.1,68900.0,0.33,276.0,2700.0,34.68046407401268,5.145520943337028,13892.906547009974,22.89031958579984,7.476830510222695,11.790144488212846,2.331309566885668,47576,256,9390,28901,65.11971163999023,37.56409239812693,0.0009255730891297,False
0.31,0.8400591686944754,3.6000000000000005,9381.0,24.15504,0.2,68900.0,0.33,276.0,2700.0,43.39010865068295,6.663072716360095,17990.296334172257,27.86977102278736,10.46450964589751,15.52033762789559,3.801436929537414,8792,148,2906,4421,69.12008552527817,39.88233338277491,0.0010604450718761,False
0.32,0.7205669044688561,3.6000000000000005,9382.0,24.15504,0.1,68900.0,0.33,276.0,2700.0,33.90044082139398,5.355441392707793,14459.69176031104,22.823508419856395,7.439355645070033,11.076932401537585,2.08391425236224,48808,254,9270,29925,61.83974784135256,35.69091128300992,0.0008772729210974,False
0.33,0.6349443514408653,3.6000000000000005,9383.0,24.15504,0.05,68900.0,0.33,276.0,2700.0,27.494528408409625,4.46133091059288,12045.593458600775,19.42828958981857,5.631816926578551,8.066238818591053,1.17048601598567,256642,442,29380,172072,67.72057606771389,38.4029386756137,0.0007525628558773,False
0.34,0.784891549993405,3.6000000000000005,9384.0,24.15504,0.3,68900.0,0.33,276.0,2700.0,38.04585340129491,6.385476973115673,17240.787827412318,25.49540084429203,8.992846569727645,12.550452557002885,2.607369596611972,3623,94,1194,1826,59.408065403216085,34.295262340136574,0.0009067134577444,False
0.3500000000000001,0.9106369381971609,3.6000000000000005,9385.0,24.15504,0.2,68900.0,0.33,276.0,2700.0,47.64999834156028,8.24895251975794,22272.17180334644,31.01890615535256,12.54188907510837,16.631092186207717,4.29293655535043,10893,156,3248,5743,69.48832580546794,40.07854655893152,0.0010620370139748,False
0.36,0.7011741030646239,3.6000000000000005,9386.0,24.15504,0.05,68900.0,0.33,276.0,2700.0,31.21827841700989,5.521574017164523,14908.249846344212,22.03837938369518,7.004372079639502,9.179899033314712,1.4827980624749788,313051,476,33620,211547,74.96134615566478,42.300554509861904,0.0007800701711205,False
0.37,0.7763225965864182,3.6000000000000005,9387.0,24.15504,0.1,68900.0,0.33,276.0,2700.0,36.3989470626252,6.627717811464143,17894.838090953184,25.133463139393758,8.775929699242308,11.26548392323145,2.148211887778165,55189,262,9864,34229,58.807388772970434,33.90409281111632,0.0008491970704383,False
0.38,0.8034024697022966,3.6000000000000005,9388.0,24.15504,0.2,68900.0,0.33,276.0,2700.0,38.11347623493015,7.126636836577847,19241.91945876019,26.283569120191824,9.472071463119208,11.829907114738322,2.3454346265413597,10161,138,2610,5668,60.83191041205606,35.11629776645043,0.0008610490434842,False
0.39,0.9956724013900676,3.6000000000000005,9389.0,24.15504,0.2,68900.0,0.33,276.0,2700.0,53.28924319053291,10.267164999075057,27721.34549750265,34.97942067416356,15.34670039010913,18.309822516369344,5.079535391034073,14382,166,3552,8134,67.890884157394,39.169991521966494,0.0010534130283511,False
0.4,0.919442829221998,3.6000000000000005,9390.0,24.15504,0.3,68900.0,0.33,276.0,2700.0,46.56079267481801,9.17811724841044,24780.916570708192,31.420603849717004,12.816805405342878,15.140188825101006,3.638688156932437,4204,102,1394,2107,60.248290766280775,34.49435396017816,0.0009517167701523,False
0.4100000000000001,0.769779376290788,3.6000000000000005,9391.0,24.15504,0.08,68900.0,0.33,276.0,2700.0,34.62295532753657,6.95335803729296,18774.06670069099,24.858331473171656,8.612376623403522,9.764623854364917,1.6590185861105624,103648,318,14626,67399,59.82764490952573,33.71894465564094,0.0007788533926553,False
0.42,0.7817268958979852,3.6000000000000005,9392.0,24.15504,0.2,68900.0,0.33,276.0,2700.0,35.18784974969,7.234278903088795,19532.553038339745,25.361516433974284,8.912374360335113,9.826333315715718,1.678095457246318,9505,130,2372,5349,53.51684692895025,30.89771271891357,0.0007741659614866,False
0.43,0.7466007071725964,3.6000000000000005,9393.0,24.15504,0.08,68900.0,0.33,276.0,2700.0,32.31330575852029,6.78084166667589,18308.272500024905,23.892363654247244,8.0474145885751,8.420942104273049,1.2665729218992094,99757,302,13508,65241,52.24250860875756,30.13806074253912,0.000728897859319,False
0.44,0.9060491796168932,3.6000000000000005,9394.0,24.15504,0.2,68900.0,0.33,276.0,2700.0,44.08162174770017,9.51954783209178,25702.77914664781,30.810398867463213,12.400060315030007,13.271222880236955,2.880512482938228,11950,148,2962,6739,57.98296772771478,33.44413399148419,0.0008766819057759,False
0.45,0.8872967956060944,3.6000000000000005,9395.0,24.15504,0.3,68900.0,0.33,276.0,2700.0,42.25809754687251,9.317220194340864,25156.49452472033,29.963629017881743,11.830245171729423,12.29446852899077,2.513024977388561,3997,98,1306,2014,53.08171477278382,30.64155956442587,0.0008317231666016,False
0.46,1.0268684904420708,3.6000000000000005,9396.0,24.15504,0.1,68900.0,0.33,276.0,2700.0,53.338278601369424,12.063944036628422,32572.64889889674,36.47793933465741,16.46123188759418,16.860339266712018,4.397287850965759,94699,326,14380,60843,68.66584232287549,38.22255833910437,0.0009806424496698,False
0.4700000000000001,0.9384570439055278,3.6000000000000005,9397.0,24.15504,0.1,68900.0,0.33,276.0,2700.0,45.64858511749848,10.509971119896386,28376.922023720243,32.294621233372425,13.422538491790208,13.35396388412606,2.9125673718938216,81514,296,12272,52452,56.9463863942128,32.8585398517223,0.0008697602215677,False
0.4800000000000001,1.018776568266839,3.6000000000000005,9398.0,24.15504,0.1,68900.0,0.33,276.0,2700.0,51.92149803274283,12.229536184694409,33019.747698674895,36.08689071343212,16.1676385186109,15.834607319310711,3.938102333916493,93978,320,13858,60693,67.29615083921516,38.10562256995168,0.0009392824730461,False
0.49,1.114701361866129,3.6000000000000005,9399.0,24.15504,0.2,68900.0,0.33,276.0,2700.0,59.86286982781433,14.419999618413057,38933.998969715256,40.82840927698067,19.85483202144826,19.034460550833657,5.434832403035204,16066,176,3920,9122,260.1564364503319,144.99014236092884,0.0010240969244186,False
0.5,1.1394908235378414,3.6000000000000005,9400.0,24.15504,0.3,68900.0,0.33,276.0,2700.0,61.695285357458864,15.162021951565595,40937.45926922711,42.09134512851514,20.8825681531952,19.603940228943728,5.720546201629601,5902,120,1848,3040,63.50825115355181,36.64582447174194,0.0010264779338089,False
0.02,0.6564958000554575,3.6000000000000005,9402.0,27.17442,0.1,68900.0,0.33,276.0,2700.0,39.75369482997142,0.3975201931389015,1073.304521475034,20.26552420252665,6.059525556040746,19.488170627444774,5.662005362901844,32244,278,10674,16227,936.0588661744432,533.4493237379779,0.0112219165025355,True
0.03,0.3635889826961696,3.6000000000000005,9403.0,27.17442,0.08,68900.0,0.33,276.0,2700.0,18.82943584800055,0.2823849890522466,762.4394704410659,9.885424881047252,1.6964479460773725,8.944010966953298,1.4140629570251255,24504,232,8048,12426,352.79841630735297,201.6225945985062,0.0037606715595122,True
0.04,0.4505389702252252,3.6000000000000005,9404.0,27.17442,0.1,68900.0,0.33,276.0,2700.0,24.145877787365468,0.4827835144607563,1303.515489044042,12.741740726350653,2.6787870414073764,11.404137061014817,2.1960035269466203,20236,212,6644,10264,323.11541662000405,184.6781105158186,0.0036702208045734,True
0.05,0.3614319845788211,3.6000000000000005,9405.0,27.17442,0.05,68900.0,0.33,276.0,2700.0,18.080218898992044,0.4517436730870013,1219.7079173349036,9.816982577379274,1.6751989391986428,8.26323632161277,1.2234552661116416,58706,360,19344,29684,204.4729101796399,117.34206673540872,0.0023210022111614,False
0.06,0.4778413245159895,3.6000000000000005,9406.0,27.17442,0.1,68900.0,0.33,276.0,2700.0,25.323152809429157,0.7592421949407607,2049.953926340054,13.67782482150758,3.039402586343495,11.645327987921574,2.280160391402734,21195,218,6952,10761,227.9556215232636,130.46564899385763,0.0028833264353563,False
0.0699999999999999,0.6747869982363939,3.6000000000000005,9407.0,27.17442,0.1,68900.0,0.33,276.0,2700.0,39.26158923096358,1.3734372455636006,3708.2805630217217,20.985262001572494,6.436775891868564,18.27632722939109,5.063338646304963,32233,276,10590,16342,286.25842710151585,163.76814779569708,0.0035323210410555,True
0.08,0.6194288908101482,3.6000000000000005,9408.0,27.17442,0.1,68900.0,0.33,276.0,2700.0,34.69097009866066,1.3865664736540022,3743.729478865806,18.83276918849118,5.335005773623556,15.858200910169476,3.9484392999695537,28353,256,9312,14379,224.77746576075592,128.8879704065876,0.0028120502047338,False
0.09,0.4991010294069657,3.6000000000000005,9409.0,27.17442,0.2,68900.0,0.33,276.0,2700.0,25.776506287935725,1.1584159689274738,3127.723116104179,14.419705328601134,3.3380550611807385,11.35680095933459,2.1796390922532645,5384,110,1752,2750,152.17616348238766,87.8587879503179,0.001951645366218,False
0.0999999999999999,0.6936607968713002,3.6000000000000005,9410.0,27.17442,0.3,68900.0,0.33,276.0,2700.0,39.59383542081292,1.9775973759382544,5339.512915033288,21.73673907804064,6.839925033597564,17.85709634277228,4.862327657659309,3825,96,1256,1935,194.96478305204965,112.54960851878468,0.0026329140933546,False
0.11,0.4218422572565736,3.6000000000000005,9411.0,27.17442,0.05,68900.0,0.33,276.0,2700.0,20.053773744500504,1.1001699160662417,2970.4587733788526,11.77804389685817,2.327017925002006,8.275729847642333,1.2268480089357643,87795,380,21546,49818,105.92237375924832,61.13887502976493,0.0013471436320306,False
0.12,0.438008958523813,3.6000000000000005,9412.0,27.17442,0.08,68900.0,0.33,276.0,2700.0,20.782437089363444,1.243327110624817,3356.983198687006,12.3184106512354,2.521789166557402,8.464026438128045,1.2784620559325852,26715,242,8844,13443,100.2706775835108,57.85291151718277,0.0012970736342388,False
0.13,0.6779410302144981,3.6000000000000005,9413.0,27.17442,0.3,68900.0,0.33,276.0,2700.0,37.27727287867155,2.4184213510736976,6529.737647898984,21.11021954077073,6.503161073613842,16.16705333790082,4.084739722540144,3605,92,1180,1829,145.14796591457934,83.80035707949865,0.0020063921806425,False
0.14,0.7386903224049038,3.6000000000000005,9414.0,27.17442,0.2,68900.0,0.33,276.0,2700.0,41.61201142589238,2.9070937796515075,7849.15320505907,23.565789868816,7.859709497905311,18.046221557076382,4.952615718253804,8617,144,2834,4360,201.6030210741119,116.1787513022221,0.0021719548604572,False
0.15,0.4664106153088612,3.6000000000000005,9415.0,27.17442,0.05,68900.0,0.33,276.0,2700.0,21.69876374707149,1.6203386975597878,4374.914483411427,13.283633534629066,2.88531141929105,8.415130212442426,1.2649727217312623,118123,392,23160,71907,89.07125825393055,51.402808818381374,0.0011492045744811,False
0.16,0.7343746659366053,3.6000000000000005,9416.0,27.17442,0.3,68900.0,0.33,276.0,2700.0,40.52605770904633,3.233505974384298,8730.466130837605,23.388284554639977,7.758390838750642,17.13777315440635,4.524884864366344,3817,96,1252,1933,128.4155711340895,74.02774938732232,0.0018278057938448,False
0.17,0.519033200788977,3.6000000000000005,9417.0,27.17442,0.08,68900.0,0.33,276.0,2700.0,24.551410388636,2.076580119896005,5606.766323719215,15.125577648523604,3.6324892978290055,9.425832740112396,1.555909177933,42591,264,10516,24103,88.02721924212922,50.80558247092997,0.0011595252513185,False
0.18,0.8141329632312362,3.6000000000000005,9418.0,27.17442,0.3,68900.0,0.33,276.0,2700.0,46.14139772446102,4.140511282964338,11179.380464003712,26.74440107596352,9.756577020917044,19.396996648497502,5.616065737952706,4588,106,1494,2341,125.46172317022356,72.36894682091206,0.0018680882987964,False
0.19,0.883705960308758,3.6000000000000005,9419.0,27.17442,0.2,68900.0,0.33,276.0,2700.0,51.54103995873327,4.882033340072347,13181.490018195336,29.802491920990896,11.72294012037502,21.738548037742376,6.840906780302674,10165,162,3342,5146,125.41760714405656,72.40984425660781,0.0019712817706755,False
0.2,0.7951784724733537,3.6000000000000005,9420.0,27.17442,0.2,68900.0,0.33,276.0,2700.0,43.84643857489494,4.36788869667035,11793.299481009944,25.93234006367697,9.25736088185134,17.914098511217965,4.889472185180989,8866,148,2922,4477,108.97744258940914,62.84607795624332,0.0016443502383663,False
0.21,0.7019707368061971,3.6000000000000005,9421.0,27.17442,0.3,68900.0,0.33,276.0,2700.0,36.2400654064892,3.7858106746381033,10221.68882152288,22.070445409531565,7.021941367646365,14.169619996957636,3.2361306930082616,3335,90,1092,1691,95.87266919315545,55.323347580317325,0.0013538253319831,False
0.22,0.6084547941353264,3.6000000000000005,9422.0,27.17442,0.08,68900.0,0.33,276.0,2700.0,29.098079864766348,3.1784876660740173,8581.916698399848,18.415210203100184,5.130627078223831,10.682869661666164,1.9521394121498128,52792,288,12008,30790,127.6839913949368,70.59558221955828,0.0011112291260605,False
0.23,0.6797303330637011,3.6000000000000005,9423.0,27.17442,0.3,68900.0,0.33,276.0,2700.0,33.8955214936225,3.8725024665557672,10455.756659700572,21.181219916346866,6.540997158174564,12.71430157727564,2.668494691618797,3246,88,1066,1641,85.05313452356474,48.83928161128282,0.0012026213723849,False
0.24,0.6878941845333814,3.6000000000000005,9424.0,27.17442,0.3,68900.0,0.33,276.0,2700.0,34.15824379899224,4.070036337983556,10989.0981125556,21.50618646241825,6.715242841248046,12.65205733657399,2.6452065032644905,3317,88,1088,1679,83.40696456238551,48.1494548110117,0.0011748565428974,False
0.25,0.8574016527559492,3.6000000000000005,9425.0,27.17442,0.3,68900.0,0.33,276.0,2700.0,47.007277803251576,5.843184801931551,15776.59896521519,28.631979941631712,10.954439079396098,18.375297861619863,5.111254277464546,4421,104,1452,2237,95.7345188734666,55.19594043642062,0.0014757307673466,False
0.26,0.8694974054112845,3.6000000000000005,9426.0,27.17442,0.3,68900.0,0.33,276.0,2700.0,47.622818507277024,6.15415531762635,16616.219357591144,29.16806757823492,11.304002912086734,18.454750929042103,5.149847594460383,4656,106,1530,2355,93.66815113504688,53.983695810449234,0.0014510349746078,False
0.27,0.9370334789335286,3.6000000000000005,9427.0,27.17442,0.2,68900.0,0.33,276.0,2700.0,52.90801334885515,7.101357823295048,19173.66612289663,32.22887021789554,13.37661180668179,20.67914313095961,6.275253983386742,10576,166,3502,5317,96.58985455069512,55.6930973081517,0.0015405587876347,False
0.28,0.6215971821568129,3.6000000000000005,9428.0,27.17442,0.08,68900.0,0.33,276.0,2700.0,28.10872856391107,3.8892458376597383,10500.963761681294,18.91562970656184,5.375930515610498,9.19309885734923,1.486684677950759,64115,282,11720,39611,231.2106780069424,129.76951404645598,0.0009372594767842,False
0.29,0.9392385666846768,3.6000000000000005,9429.0,27.17442,0.2,68900.0,0.33,276.0,2700.0,52.313029816231776,7.534309121201339,20342.634627243617,32.33073953216498,13.447791586564977,19.982290284066792,5.9134824653636375,10578,166,3504,5316,90.56382250472323,52.20834386383191,0.0014498758597248,False
0.3,0.7454673202890745,3.6000000000000005,9430.0,27.17442,0.1,68900.0,0.33,276.0,2700.0,36.41539440508572,5.40576049299824,14595.553331095249,23.845476179067383,8.020361870866974,12.569918226018338,2.614601377868735,49325,260,9740,29945,75.15160830581073,43.29226205453436,0.0010787865214589,False
0.31,0.8312248829047321,3.6000000000000005,9431.0,27.17442,0.3,68900.0,0.33,276.0,2700.0,42.68820932585988,6.554278321012887,17696.551466734796,27.48440673847822,10.220003776915254,15.20380258738166,3.665725455902367,3963,98,1316,1983,76.63630012954049,44.02389316280229,0.0011764972794239,False
0.32,0.771679489528299,3.6000000000000005,9432.0,27.17442,0.2,68900.0,0.33,276.0,2700.0,37.71858667798958,5.966344729763119,16109.13077036042,24.93811724796692,8.659686054733534,12.780469430022656,2.6933413249704152,8080,138,2608,4108,70.20669524931488,40.45221462170586,0.0010549184008888,False
0.33,0.7470347245043447,3.6000000000000005,9433.0,27.17442,0.1,68900.0,0.33,276.0,2700.0,35.528948009374794,5.787010144752032,15624.927390830488,23.91032721647292,8.057788186575399,11.618620792901872,2.270778041823367,50734,258,9552,31148,69.78093870181748,40.27574651091751,0.0010017376128446,False
0.34,0.8068788169726446,3.6000000000000005,9434.0,27.17442,0.1,68900.0,0.33,276.0,2700.0,39.73226259510981,6.672166536064207,18014.84964737336,26.43254749072319,9.563701139171156,13.299715104386618,2.8915346031069475,57824,276,10776,35584,72.38177527604373,41.78712544072882,0.0010662615519587,False
0.3500000000000001,0.6820362982074746,3.6000000000000005,9435.0,27.17442,0.05,68900.0,0.33,276.0,2700.0,30.16874301618239,5.189732837816464,14012.278662104454,21.27284036498712,6.589945924105001,8.895902651195271,1.4002130862885362,294048,466,32176,198260,94.62095674458168,54.170896543565824,0.0011316177942233,False
0.36,1.057796780556707,3.6000000000000005,9436.0,27.17442,0.3,68900.0,0.33,276.0,2700.0,59.89035204723442,10.682547270604935,28842.87763063333,37.98773918335366,17.61271797985739,21.90261286388076,6.930170709252453,5686,120,1882,2857,83.2489655102858,48.016167167701184,0.0013886977531489,False
0.37,0.6925327901485292,3.6000000000000005,9437.0,27.17442,0.05,68900.0,0.33,276.0,2700.0,30.294341650386343,5.498365810199698,14845.587687539186,21.6915749415548,6.8154313215179405,8.602766708831545,1.3170655113182423,311457,468,32636,211101,79.35802170734915,45.170336013059625,0.0008492518002446,False
0.38,0.8360935483539067,3.6000000000000005,9438.0,27.17442,0.2,68900.0,0.33,276.0,2700.0,40.62720840101614,7.604245948134553,20531.46405996329,27.696542323080315,10.354332325283048,12.930666077935824,2.750086377148495,10759,142,2740,6017,69.32264033574093,40.00118174592413,0.0010131751140147,False
0.39,0.9110810748712416,3.6000000000000005,9439.0,27.17442,0.2,68900.0,0.33,276.0,2700.0,46.237785765654245,8.892130801223717,24008.753163304034,31.039119637403868,12.555670197512685,15.198666128250377,3.663539396288966,12534,154,3138,7047,71.59373619488417,41.33466022007328,0.0010923807454016,False
0.4,1.0061041750350377,3.6000000000000005,9440.0,27.17442,0.2,68900.0,0.33,276.0,2700.0,53.80395769010839,10.62675025146852,28692.225678965005,35.47779379313252,15.714194869029386,18.32616389697587,5.087444617560866,14394,166,3528,8162,75.23300424185705,43.38321403765293,0.0012048320421248,False
0.4100000000000001,1.0529383982341245,3.6000000000000005,9441.0,27.17442,0.1,68900.0,0.33,276.0,2700.0,57.48646192410495,11.64037688958928,31429.017601891053,37.74898006859695,17.42873925104409,19.737481855508,5.78836236145481,92859,344,15462,58428,87.9642970059444,49.01700110045501,0.0012490276369629,False
0.42,1.0401991910719068,3.6000000000000005,9442.0,27.17442,0.2,68900.0,0.33,276.0,2700.0,55.987937226671576,11.602297273254932,31326.20263778832,37.125744807438885,16.95182126531791,18.86219241923269,5.349523992062977,15137,170,3728,8567,74.63361990310536,43.08618706444677,0.0012020354633521,False
0.03,0.5073105661870032,3.6000000000000005,9453.0,30.1938,0.1,68900.0,0.33,276.0,2700.0,28.36867497264565,0.4254735759219183,1148.7786549891794,14.709226203872648,3.4576214197536546,13.659448768773002,3.032147843831736,23383,228,7664,11881,528.2174355690023,301.1641943378935,0.0061521227294592,True
0.04,0.4000759377147866,3.6000000000000005,9454.0,30.1938,0.08,68900.0,0.33,276.0,2700.0,20.834901894007107,0.4165639965930911,1124.722790801346,11.06088729291662,2.078479785871307,9.774014601090489,1.6619157892782157,27268,244,8938,13855,330.10249490145856,188.91139164192217,0.0035580928410727,True
0.05,0.4539157619523751,3.6000000000000005,9455.0,30.1938,0.1,68900.0,0.33,276.0,2700.0,24.04303840724824,0.600814160793408,1622.1982341422015,12.856501602621972,2.722006927226518,11.186536804626265,2.12119276643311,20113,212,6596,10213,294.28224252794087,168.53922069664372,0.0033409305767563,True
0.06,0.4358865007728717,3.6000000000000005,9456.0,30.1938,0.08,68900.0,0.33,276.0,2700.0,22.52495676200015,0.675296313518009,1823.3000464986244,12.247093605940362,2.495719564124684,10.277863156059787,1.820423250606675,29467,254,9680,14941,229.28853727399283,131.51830967547264,0.0026931414027238,False
0.0699999999999999,0.741455836446006,3.6000000000000005,9457.0,30.1938,0.2,68900.0,0.33,276.0,2700.0,44.533341410032975,1.5579485718310369,4206.4611439438,23.679783064163157,7.925038601270132,20.85355834586982,6.367090029439096,9313,152,3062,4714,326.365248431554,186.70565123481344,0.0044145032420791,True
0.08,0.4797087860832325,3.6000000000000005,9458.0,30.1938,0.1,68900.0,0.33,276.0,2700.0,24.791429341633563,0.9905848433729167,2674.579077106875,13.74253684051559,3.0650058084853846,11.048892501117972,2.074420965112468,20772,216,6826,10527,181.61603123391257,104.48691843729976,0.0023070529295225,False
0.09,0.7588661643656602,3.6000000000000005,9459.0,30.1938,0.2,68900.0,0.33,276.0,2700.0,45.15320634300339,2.03036747140551,5481.992172794878,24.401842802407085,8.34358598491159,20.751363540596305,6.313218513506079,9438,152,3090,4797,265.26845396029057,152.00302908096262,0.0036023237359214,False
0.0999999999999999,0.5354194838897568,3.6000000000000005,9460.0,30.1938,0.2,68900.0,0.33,276.0,2700.0,27.94477192453549,1.3951442011243824,3766.889343035833,15.713355431359036,3.88514782671713,12.231416493176454,2.490003625592748,5685,116,1864,2883,163.17919903729234,94.20190948464838,0.002136846387897,False
0.11,0.7220396552669555,3.6000000000000005,9461.0,30.1938,0.3,68900.0,0.33,276.0,2700.0,41.4347993006353,2.276126321653658,6145.541068464877,22.88351976862069,7.473013169501059,18.551279532014608,5.196886847847401,4193,98,1372,2129,199.20075894314152,114.49688544548836,0.0028147127249719,False
0.12,0.433446464184293,3.6000000000000005,9462.0,30.1938,0.05,68900.0,0.33,276.0,2700.0,20.489866825505946,1.225772894793421,3309.5868159422366,12.165245439931184,2.4659360943081485,8.324621385574762,1.2401631995147275,89429,382,21786,50906,111.8773058000682,64.58133839694555,0.0014289428054285,False
0.13,0.7786556497604575,3.6000000000000005,9463.0,30.1938,0.3,68900.0,0.33,276.0,2700.0,45.19142217193026,2.932841055135506,7918.670848865868,25.23182442801491,8.83468211965559,19.959597743915356,5.901841064520083,4323,104,1418,2190,225.8663347675784,130.3853187503241,0.0036481953152276,False
0.14,0.6149494556824784,3.6000000000000005,9464.0,30.1938,0.3,68900.0,0.33,276.0,2700.0,32.23975088820006,2.251035542013038,6077.795963435203,18.661963297177188,5.251028350971248,13.577787591022869,2.9999928089582104,3058,84,1002,1549,138.99376045483672,80.09929285372384,0.001850282786513,False
0.15,0.6905330907817355,3.6000000000000005,9465.0,30.1938,0.1,68900.0,0.33,276.0,2700.0,37.509750442188846,2.806162699693588,7576.639289172687,21.6115877956577,6.772134684711963,15.898162646531144,3.965971985018375,30599,268,10130,15396,565.3633309117066,308.053412716331,0.0019980313228919,True
0.16,0.5294745740277724,3.6000000000000005,9466.0,30.1938,0.2,68900.0,0.33,276.0,2700.0,25.57210240991254,2.037189550453603,5500.411786224728,15.499330826058268,3.792369963584068,10.072771583854273,1.7551804131304647,5266,110,1732,2662,103.73477470848528,59.87610700201739,0.001380017821155,False
0.17,0.746895027550732,3.6000000000000005,9467.0,30.1938,0.3,68900.0,0.33,276.0,2700.0,41.13578994885896,3.4862523825149547,9412.881432790378,23.90454477650711,8.05444839060323,17.231245172351848,4.568196008088275,4062,98,1328,2064,135.37403273975232,78.12235807375315,0.001961470968529,False
0.18,0.7122599009770438,3.6000000000000005,9468.0,30.1938,0.1,68900.0,0.33,276.0,2700.0,38.085532919896025,3.41548345055348,9221.805316494396,22.48603723561795,7.251163568665385,15.599495684278075,3.835680118111905,37082,272,10434,20051,121.72914974963062,70.25535465407803,0.0017588779598357,False
0.19,0.7708678396654609,3.6000000000000005,9469.0,30.1938,0.2,68900.0,0.33,276.0,2700.0,42.28293298111354,4.002513177198469,10806.785578435863,24.904024959929053,8.639458871910099,17.378908021184486,4.63694569471163,8976,148,2958,4533,187.1491096705512,105.50980672716028,0.0018389075683565,False
0.2,0.8654868818036595,3.6000000000000005,9470.0,30.1938,0.2,68900.0,0.33,276.0,2700.0,49.60817465330969,4.944062304511824,13348.968222181926,28.98991240867448,11.187381071334112,20.618262244635208,6.243318766822288,10082,160,3322,5093,130.26989786901723,75.09975374245593,0.0020324875272897,False
0.21,0.7181576706970427,3.6000000000000005,9471.0,30.1938,0.1,68900.0,0.33,276.0,2700.0,37.46465192799177,3.9143922593958815,10568.859100368883,22.725454982463184,7.384486623908113,14.739196945528583,3.47009436451223,41429,268,10220,23463,106.95470480080886,61.704720482196095,0.0015521310321762,False
0.22,0.8918875925052185,3.6000000000000005,9472.0,30.1938,0.3,68900.0,0.33,276.0,2700.0,51.04072382220386,5.592178501392134,15098.88195375876,30.170110931306755,11.96827586253622,20.870612890897103,6.376097361144085,4822,110,1580,2446,123.97427625342443,71.49218175257057,0.0019375535843555,False
0.23,0.7532057901820196,3.6000000000000005,9473.0,30.1938,0.3,68900.0,0.33,276.0,2700.0,39.44086240647602,4.510216671533924,12177.585013141595,24.166253932571514,8.206129564292148,15.274608473904507,3.695912892758224,3542,92,1170,1781,102.90166137420772,59.33551667553586,0.0015079821102162,False
0.24,0.8998052659310946,3.6000000000000005,9474.0,30.1938,0.3,68900.0,0.33,276.0,2700.0,50.92259636020098,6.081758645328627,16420.74834238729,30.52747150769464,12.208566640717994,20.395124852506346,6.126807995389367,4578,108,1504,2316,115.35952970857949,66.55097344094519,0.0018099186379873,False
0.25,0.827904457848043,3.6000000000000005,9475.0,30.1938,0.3,68900.0,0.33,276.0,2700.0,44.60879860864375,5.543374902605573,14967.112237035048,27.34007217350361,10.128983566838128,17.268726435140138,4.585608664232555,4466,104,1464,2264,103.4803648178162,59.69282566505221,0.0015715164523703,False
0.26,0.8355022001239789,3.6000000000000005,9476.0,30.1938,0.3,68900.0,0.33,276.0,2700.0,44.85031454090757,5.793729801998312,15643.070465395444,27.670744544374784,10.33796165217366,17.179569996532784,4.544231850175347,4432,104,1460,2236,100.30541663245585,57.70801250682502,0.0015346803159275,False
0.27,0.6009404029246836,3.6000000000000005,9477.0,30.1938,0.08,68900.0,0.33,276.0,2700.0,26.99302110200659,3.6028338699704867,9727.651448920316,18.13103715287854,4.993316566935931,8.86198394912805,1.3904826969654445,60617,276,11258,37344,76.82184422864466,44.33938311045876,0.0010345627752291,False
0.28,0.8313850376972673,3.6000000000000005,9478.0,30.1938,0.3,68900.0,0.33,276.0,2700.0,43.78390779105991,6.083770929460653,16426.181509543763,27.491375464207906,10.224406094403218,16.292532326852008,4.140635164942565,4159,100,1374,2092,93.9309412267338,54.21045255275521,0.0014296266677316,False
0.29,0.9488047637922516,3.6000000000000005,9479.0,30.1938,0.1,68900.0,0.33,276.0,2700.0,53.13000355636267,7.652770313520124,20662.47984650433,32.7740879919153,13.759192559459107,20.355915564447365,6.106422245938983,69746,328,14376,41910,115.9477705682606,64.07985786183593,0.0016407957927789,False
0.3,0.7171816713521887,3.6000000000000005,9480.0,30.1938,0.1,68900.0,0.33,276.0,2700.0,34.3092593979588,5.089840241929204,13742.56865320885,22.685774291221357,7.362325960845232,11.623485106737444,2.272485718916029,47877,256,9488,29033,80.7035410282274,46.55074489079662,0.0011483033182948,False
0.31,0.6829806365939546,3.6000000000000005,9481.0,30.1938,0.08,68900.0,0.33,276.0,2700.0,31.49518762389203,4.8193599572078725,13012.271884461255,21.310399323912154,6.610052416269162,10.184788299979877,1.7906924590612894,76507,302,13228,47743,76.061488275948,43.90262841077493,0.0010620084545393,False
0.32,0.7717201398988665,3.6000000000000005,9482.0,30.1938,0.08,68900.0,0.33,276.0,2700.0,37.72167555007669,5.966838949297048,16110.46516310203,24.93982514884956,8.660699833154181,12.781850401227128,2.693860883857133,93215,334,15870,58350,87.97339777387424,49.602285659999815,0.0011837011494375,False
0.33,0.940966292636774,3.6000000000000005,9483.0,30.1938,0.3,68900.0,0.33,276.0,2700.0,50.92114576384346,8.326722774239467,22482.15149044656,32.41064136016932,13.503719257734648,18.51050440367414,5.176996483495181,4687,108,1544,2365,90.93925097386004,52.479787757820745,0.0014408175237725,False
0.34,1.0321570390412396,3.6000000000000005,9484.0,30.1938,0.2,68900.0,0.33,276.0,2700.0,58.41093930461626,9.84754157668031,26588.36225703684,36.7344019196281,16.65482509019478,21.67653738498817,6.80728351351447,12506,176,3902,6463,98.18846620107948,56.61686483497923,0.0015766358594963,False
0.3500000000000001,0.9583184801267032,3.6000000000000005,9485.0,30.1938,0.1,68900.0,0.33,276.0,2700.0,51.62732782606683,8.944985179546599,24151.459984775815,33.21728527217861,14.07310235886479,18.410042553888225,5.128117179318192,76678,324,14088,47316,99.52074301990466,56.52255643171494,0.0014143152606338,False
0.36,0.9973332092578884,3.6000000000000005,9486.0,30.1938,0.3,68900.0,0.33,276.0,2700.0,54.579099069919735,9.726521734688298,26261.608683658404,35.058581942277186,15.404860213410672,19.52051712764255,5.678338478722374,5035,114,1660,2539,88.85973206445482,51.13403088222424,0.0014349469932766,False
0.37,0.8120349255600432,3.6000000000000005,9487.0,30.1938,0.1,68900.0,0.33,276.0,2700.0,39.1080700014879,7.12890555515374,19248.0449989151,26.654071122537363,9.700561037130612,12.45399887895054,2.5716554819768715,59089,272,10620,36605,79.92038720289085,44.878564618958336,0.0011147320650744,False
0.38,0.781927966250438,3.6000000000000005,9488.0,30.1938,0.2,68900.0,0.33,276.0,2700.0,36.4914599138001,6.818453735562971,18409.825086020024,25.370015463355056,8.91747466381809,11.121444450445043,2.0990209282551198,9595,134,2486,5336,74.21038096986959,42.81568258935768,0.0010619791972073,False
0.39,1.074388576297096,3.6000000000000005,9489.0,30.1938,0.3,68900.0,0.33,276.0,2700.0,60.17403315143476,11.609699041450911,31346.187411917464,38.8075945392328,18.24979465914211,21.366438612201957,6.640095617691198,5631,120,1868,2823,87.86568661129769,50.70987496994259,0.0014683087863567,False
0.4,0.8887902720906082,3.6000000000000005,9490.0,30.1938,0.1,68900.0,0.33,276.0,2700.0,44.08922511886672,8.68380373722018,23446.270090494483,30.03074351446501,11.875045257042752,14.058481604401711,3.1912415198225723,68887,290,11714,43130,77.34104997677173,44.19692756493086,0.0011595734778039,False
0.4100000000000001,0.8800474247148302,3.6000000000000005,9491.0,30.1938,0.08,68900.0,0.33,276.0,2700.0,43.04734384811052,8.680357684010602,23436.965746828624,29.63865009046025,11.6142064560393,13.408693757650276,2.933848772028698,128631,360,18046,83742,83.9796887338538,47.442115539061135,0.0011254515453616,False
0.42,0.9264490477819805,3.6000000000000005,9492.0,30.1938,0.2,68900.0,0.33,276.0,2700.0,46.42036215008175,9.593106507170797,25901.387569361144,31.741598156776465,13.038068781043409,14.678763993305283,3.444962273872614,12389,152,3094,6970,76.65360928847011,44.22432900602984,0.0011654992267089,False
0.43,0.8581575290875121,3.6000000000000005,9493.0,30.1938,0.2,68900.0,0.33,276.0,2700.0,40.653720912595325,8.574030924802019,23149.88349696545,28.665372909844205,10.976093934932411,11.98834800275112,2.4020630101303944,10722,140,2644,6064,70.9200943185118,40.88839794825941,0.0010514844575949,False
0.44,1.1359758385288814,3.6000000000000005,9494.0,30.1938,0.3,68900.0,0.33,276.0,2700.0,63.74086024224338,13.844580300891284,37380.366812406464,41.91132930313895,20.734934173480667,21.82953093910443,6.890353872589383,5756,122,1908,2888,84.0741833309639,48.52389204666122,0.0014192304223937,False
0.45,1.0594489038588455,3.6000000000000005,9495.0,30.1938,0.2,68900.0,0.33,276.0,2700.0,56.521976795873066,12.526593025365855,33821.801168487815,38.069065879838206,17.675545580378294,18.45291091603486,5.148952555012437,15133,172,3740,8547,80.6516103514865,46.492230681517285,0.001290937519138,False
0.46,1.1561996167426971,3.6000000000000005,9496.0,30.1938,0.3,68900.0,0.33,276.0,2700.0,64.78982028733353,14.697798624400177,39684.05628588048,42.951312695569904,21.593038474797723,21.838507591763623,6.895239850397546,6076,126,2010,3045,83.00922391707816,47.911836539960525,0.0013951412882379,False
0.4700000000000001,0.9258726589741896,3.6000000000000005,9497.0,30.1938,0.1,68900.0,0.33,276.0,2700.0,44.638282231575936,10.272549941704575,27735.88484260236,31.715143969260694,13.019780903473624,12.923138262315238,2.7472309617690467,81414,294,12210,52413,77.46066295804602,43.85040804900651,0.0010703834358375,False
0.4800000000000001,1.1331145246564798,3.6000000000000005,9498.0,30.1938,0.3,68900.0,0.33,276.0,2700.0,61.89841548589513,14.623996373450964,39484.7902083176,41.76501974494299,20.61522207338218,20.13339574095214,5.991225699931217,5663,120,1852,2855,77.00930058778928,44.40408140723754,0.0013131534573487,False
0.49,0.9836385701467274,3.6000000000000005,9499.0,30.1938,0.3,68900.0,0.33,276.0,2700.0,48.63590978648166,11.669394408286555,31507.364902373705,34.407907285210044,14.929206342375332,14.228002501271618,3.2598119340887752,4724,106,1502,2413,70.13197381116152,40.461392051069296,0.0010951474373548,False
0.5,1.016650836374887,3.6000000000000005,9500.0,30.1938,0.1,68900.0,0.33,276.0,2700.0,51.02511982218267,12.494480567746514,33735.097532915584,35.984435958400695,16.091036379928607,15.040683863781972,3.5965558121820926,94384,316,13536,61256,75.66926169403267,42.56019163752703,0.0011341512211737,False
0.03,0.5894045989865759,3.6000000000000005,9503.0,33.21318,0.1,68900.0,0.33,276.0,2700.0,34.28341954104798,0.5141947444479588,1388.3258100094886,17.697547209315417,4.786664019802022,16.58587233173256,4.272469275354063,28290,258,9306,14325,713.294007744915,406.67703930090585,0.0081103334663739,True
0.04,0.6262581201366282,3.6000000000000005,9504.0,33.21318,0.1,68900.0,0.33,276.0,2700.0,36.67403590813981,0.7333466768762384,1980.036027565844,19.09414586521089,5.464510906823864,17.57989004292892,4.731164229947625,30372,266,9960,15426,591.7998397056109,337.35751877644225,0.0066437926081963,True
0.05,0.5956739686820729,3.6000000000000005,9505.0,33.21318,0.1,68900.0,0.33,276.0,2700.0,34.01733922590315,0.8501716812597797,2295.4635394014053,17.932721320119043,4.898353166586733,16.084617905784107,4.048181485326953,28040,256,9206,14225,899.9298851099179,519.50365450185,0.0353593938514576,True
0.06,0.3815275480610893,3.6000000000000005,9506.0,33.21318,0.05,68900.0,0.33,276.0,2700.0,19.03104456186664,0.5704789475138804,1540.2931582874771,10.45915182111427,1.878912115701124,8.57189274075237,1.3084331681872436,62114,368,20478,31391,231.13888003712637,133.44602241843808,0.0025527271038004,False
0.0699999999999999,0.6076325018323295,3.6000000000000005,9507.0,33.21318,0.2,68900.0,0.33,276.0,2700.0,34.177298148201714,1.1954870576669374,3227.815055700731,18.38404427987518,5.115497207529635,15.793253868326534,3.920010149862698,7247,130,2372,3683,286.4872714778166,163.9171477159813,0.0038036203931954,True
0.08,0.4759947051224067,3.6000000000000005,9508.0,33.21318,0.08,68900.0,0.33,276.0,2700.0,24.541665703750255,0.980594297857627,2647.6046042155926,13.613921220146413,3.0142038657695727,10.927744483603846,2.0336095679119457,31919,266,10502,16160,200.37950112276977,115.15873466729042,0.0025147434767182,False
0.09,0.5575073370423604,3.6000000000000005,9509.0,33.21318,0.1,68900.0,0.33,276.0,2700.0,29.8376400791527,1.3411669895322234,3621.150871737003,16.51632820192617,4.241067516986357,13.321311877226528,2.8999005274541334,24881,238,8186,12596,586.8566086284792,313.90729120146085,0.0027166956035137,True
0.0999999999999999,0.6911488886935521,3.6000000000000005,9510.0,33.21318,0.3,68900.0,0.33,276.0,2700.0,39.39908787416606,1.9678599986059069,5313.221996235948,21.63620874780612,6.785450635623957,17.762879126359937,4.81759063701805,3907,96,1284,1975,233.73303429345825,134.9360487396329,0.0032022062438251,False
0.11,0.7336449498379267,3.6000000000000005,9511.0,33.21318,0.3,68900.0,0.33,276.0,2700.0,42.352310142847806,2.3265894179752715,6281.791428533234,23.35831719732033,7.741334965636094,18.99399294552748,5.414745547660822,4146,100,1358,2103,222.40850668725116,128.4075890701608,0.0031601925709693,False
0.12,0.7255700979206958,3.6000000000000005,9512.0,33.21318,0.3,68900.0,0.33,276.0,2700.0,41.333550804107375,2.4763939335094878,6686.263620475615,23.02759949084127,7.554056364197571,18.305951313266107,5.077662430688084,4148,98,1354,2111,202.59543254941917,116.96499086680312,0.0028725932667841,False
0.13,0.4774218047996958,3.6000000000000005,9513.0,33.21318,0.2,68900.0,0.33,276.0,2700.0,23.03858054058444,1.4929063490980317,4030.847142564685,13.663299514484503,3.033667516135841,9.375281026099936,1.54076116703781,4516,102,1486,2281,127.61363218648874,73.6763739195246,0.0016230527205108,False
0.14,0.7874653192989068,3.6000000000000005,9514.0,33.21318,0.2,68900.0,0.33,276.0,2700.0,45.51775832910191,3.180496062876168,8587.339369765652,25.60447277669656,9.058606177139843,19.91328555240535,5.878110114263675,9522,154,3124,4830,183.1627820028138,105.51809538837531,0.0027586969457457,False
0.15,0.574672332830992,3.6000000000000005,9515.0,33.21318,0.2,68900.0,0.33,276.0,2700.0,29.02096829316393,2.169504038516721,5857.660903995147,17.148804337534806,4.529987853831687,11.872163955629125,2.360483815314965,6179,120,2028,3131,130.5114095466704,75.17349375344405,0.0017661586749304,False
0.16,0.588277169609261,3.6000000000000005,9516.0,33.21318,0.2,68900.0,0.33,276.0,2700.0,29.64770213292214,2.3632375282943685,6380.741326394795,17.655360321029185,4.76673506954184,11.992341811892956,2.403497541247471,6213,120,2044,3141,124.93028676835172,72.1263787233248,0.0017128796970198,False
0.17,0.8095569880178655,3.6000000000000005,9517.0,33.21318,0.3,68900.0,0.33,276.0,2700.0,46.15402755684048,3.912802579193391,10564.566963822155,26.547527261668765,9.634645950026725,19.60650029517171,5.721843370833332,4273,104,1400,2167,160.33047889472422,92.2353164318924,0.0023870505350069,False
0.18,0.7606993619972762,3.6000000000000005,9518.0,33.21318,0.2,68900.0,0.33,276.0,2700.0,41.85095237205181,3.7543712012467534,10136.802243366234,24.47831444121256,8.388389466256072,17.372637930839247,4.634018265009319,8613,144,2838,4350,140.27414785834466,80.96068796727772,0.0020959302561816,False
0.19,0.8290204706034654,3.6000000000000005,9519.0,33.21318,0.3,68900.0,0.33,276.0,2700.0,46.97429717333984,4.448192775459971,12010.12049374192,27.38855288342993,10.1595224857521,19.5857442899099,5.71132971029213,4576,106,1500,2320,146.78519590346522,84.73465228544816,0.0022218596961151,False
0.2,0.6679441187757464,3.6000000000000005,9520.0,33.21318,0.1,68900.0,0.33,276.0,2700.0,34.05134416883333,3.388379256064193,9148.62399137332,20.71501805195765,6.294101568009318,13.336326116875682,2.905722311945125,37359,254,9198,21158,115.57735264993671,66.67692593349156,0.0016362728415983,False
0.21,0.6460238701019987,3.6000000000000005,9521.0,33.21318,0.3,68900.0,0.33,276.0,2700.0,32.10895670305659,3.352044260777485,9050.51950409921,19.85725075485445,5.849446516726185,12.251705948202137,2.4974022559487,3114,86,1016,1584,108.66451870488818,62.67879640292114,0.0015003102714284,False
0.22,0.6942898749034581,3.6000000000000005,9522.0,33.21318,0.1,68900.0,0.33,276.0,2700.0,35.31694097442031,3.8625623881359576,10428.918447967086,21.76194055398925,6.853607064968355,13.555000420431064,2.9910446768323977,38602,258,9478,21889,110.3823065698645,63.6855495998039,0.0015762092744786,False
0.23,0.7900255946247727,3.6000000000000005,9523.0,33.21318,0.1,68900.0,0.33,276.0,2700.0,42.32179261314744,4.841523645301131,13072.113842313054,25.713138036879663,9.124299748364578,16.60865457626777,4.282776103063447,46896,288,11540,26580,117.9138324162836,67.99858363462398,0.001766844189147,False
0.24,0.6080287254778608,3.6000000000000005,9524.0,33.21318,0.08,68900.0,0.33,276.0,2700.0,28.42572705011485,3.3821343281183,9131.76268591941,18.399059538112965,5.122784375143715,10.026667512001886,1.7406500470254156,59790,284,11812,36312,92.98758245426986,53.6460512595644,0.0012641060689973,False
0.25,0.941217488165969,3.6000000000000005,9525.0,33.21318,0.3,68900.0,0.33,276.0,2700.0,54.0612166961026,6.724927163537932,18157.30334155241,32.42226460083583,13.511862125762509,21.638952095266767,6.786934962224575,4947,112,1622,2508,127.42618229119184,73.39682998457826,0.0020315013434666,False
0.26,0.5875644435851324,3.6000000000000005,9526.0,33.21318,0.05,68900.0,0.33,276.0,2700.0,26.38639298511548,3.3934199997453507,9162.233999312446,17.628707554609182,4.754161133594068,8.7576854305063,1.3607411338487174,204576,436,28336,133438,102.90549299885164,58.16159848545384,0.0011457802549277,False
0.27,0.8134937564239821,3.6000000000000005,9527.0,33.21318,0.3,68900.0,0.33,276.0,2700.0,42.72233098253186,5.726290703841403,15460.984900371786,26.716868631298382,9.739490617703373,16.005462351233472,4.01319991386197,4089,100,1348,2061,104.8257725569431,60.50210304761409,0.0015844578060629,False
0.28,0.714376296399021,3.6000000000000005,9528.0,33.21318,0.1,68900.0,0.33,276.0,2700.0,34.76826887078293,4.821581480621879,13018.269997679074,22.57185094575285,7.2988437029468445,12.196417925030085,2.477262222324965,42964,256,9484,25282,95.34018051408692,55.032867160898974,0.0013659723134302,False
0.29,0.8802568548211966,3.6000000000000005,9529.0,33.21318,0.3,68900.0,0.33,276.0,2700.0,47.37747869134719,6.8186542080930845,18410.366361851327,29.64802001500641,11.620414662833207,17.729458676340787,4.8017604547401245,4571,106,1506,2306,104.84931642681975,60.51994512508053,0.001634581530896,False
0.3,0.8160680368910813,3.6000000000000005,9530.0,33.21318,0.3,68900.0,0.33,276.0,2700.0,41.84775072202394,6.22061394053897,16795.65763945522,26.82781276867454,9.808410095696436,15.019937953349398,3.587796155157465,3952,98,1308,1984,95.44823315653332,54.88406228861716,0.0014472245691226,False
0.31,0.6799952648395773,3.6000000000000005,9531.0,33.21318,0.08,68900.0,0.33,276.0,2700.0,31.28112719933731,4.786180591401885,12922.687596785088,21.19173937238977,6.546610129812365,10.089387826947537,1.76042953841048,75846,302,13170,47291,83.45636214223515,48.08243452316563,0.0011631830486178,False
0.32,0.7879019084928666,3.6000000000000005,9532.0,33.21318,0.2,68900.0,0.33,276.0,2700.0,38.957866136300574,6.164629443092845,16644.49949635068,25.62299119439284,9.069788855567444,13.334874941907731,2.9051594124746005,7902,138,2592,3982,87.14284700393559,50.169932039014896,0.0013187485734576,False
0.33,0.9164863585589612,3.6000000000000005,9533.0,33.21318,0.3,68900.0,0.33,276.0,2700.0,48.87393767929701,7.9889334402893,21570.120288781112,31.28552142289792,12.724111049584964,17.588416256399086,4.735177609295662,4722,108,1564,2370,113.67746514195458,64.33325013540737,0.0027966053462591,False
0.34,0.9470427560871896,3.6000000000000005,9534.0,33.21318,0.2,68900.0,0.33,276.0,2700.0,51.05395701273753,8.596854587060474,23211.50738506328,32.69225438146856,13.701516471073807,18.36170263126897,5.104661884013334,10767,162,3396,5541,100.37114930347568,57.949056339927935,0.0015609336088077,False
0.3500000000000001,0.9020150825930742,3.6000000000000005,9535.0,33.21318,0.3,68900.0,0.33,276.0,2700.0,46.94301145034321,8.125229813794816,21938.120497246004,30.62749180822742,12.276137246566469,16.315519642115788,4.150907432771653,4203,102,1388,2115,91.36181135765352,52.52305701400474,0.0014286229443744,False
0.36,0.6794894906613557,3.6000000000000005,9536.0,33.21318,0.04,68900.0,0.33,276.0,2700.0,29.68103438143781,5.2448700907615455,14161.149245056173,21.171658490517387,6.535896973712943,8.509375890920424,1.2910268829513978,561903,576,48532,389071,107.05149520286956,60.1389132528868,0.0010391947340396,False
0.37,0.9268826180753598,3.6000000000000005,9537.0,33.21318,0.2,68900.0,0.33,276.0,2700.0,48.25495191636986,8.821078709406903,23816.91251539864,31.76150298726837,13.051835309968787,16.49344892910149,4.230756600561884,12264,158,3256,6766,93.66793417464886,54.05389378795852,0.001424052955735,False
0.38,0.8983819926740828,3.6000000000000005,9538.0,33.21318,0.3,68900.0,0.33,276.0,2700.0,45.56547472890018,8.542516550432406,23064.794686167497,30.46311656402365,12.165163510291071,15.102358164876527,3.622646959858667,4011,100,1328,2013,84.33842155744348,48.5328282669572,0.0013271779436485,False
0.39,0.7926225766768639,3.6000000000000005,9539.0,33.21318,0.2,68900.0,0.33,276.0,2700.0,36.9677084128756,7.08446571743188,19128.05743706608,25.823529538629472,9.19121961204062,11.144178874246125,2.106753894608741,9859,134,2472,5539,79.57952279609266,45.943536865846,0.0011433181268653,False
0.4,1.080498047007826,3.6000000000000005,9540.0,33.21318,0.3,68900.0,0.33,276.0,2700.0,60.32293433733524,11.930545580913892,32212.473068467512,39.11122650340484,18.487815559023865,21.2117078339304,6.557269978109972,5617,120,1864,2815,94.59354912338584,54.59012939420563,0.0015915459165302,False
0.4100000000000001,0.95747787760193,3.6000000000000005,9541.0,33.21318,0.1,68900.0,0.33,276.0,2700.0,49.3282356886779,9.967940511326914,26913.439380582666,33.1780341155489,14.045196323553624,16.150201573129003,4.07725581222671,80349,314,13456,50507,87.12742146233818,50.29362429256004,0.0013624601276807,False
0.42,0.8123685817757641,3.6000000000000005,9542.0,33.21318,0.08,68900.0,0.33,276.0,2700.0,37.47822911528174,7.715258569863062,20831.19813863027,26.66842912478551,9.709456728875464,10.80979999049623,1.9941981590124005,111516,328,15320,72820,82.17119882629193,46.264445944193234,0.0011132748729919,False
0.43,1.0150548672158817,3.6000000000000005,9543.0,33.21318,0.2,68900.0,0.33,276.0,2700.0,53.44255127072313,11.323629451799494,30573.79951985864,35.90758903161893,16.033667661110776,17.534962239104196,4.710038209311282,14146,164,3506,7981,88.12213693091135,50.7932731612831,0.0014013337648322,False
0.44,0.8329750171877085,3.6000000000000005,9544.0,33.21318,0.08,68900.0,0.33,276.0,2700.0,38.390096416978494,8.267412259333009,22322.013100199125,27.560594318838007,10.268171837416462,10.829502098140487,2.000759578083453,121311,334,16040,79637,83.76629881375206,47.82810270260967,0.0011041800955817,False
0.45,0.7888215047342282,3.6000000000000005,9545.0,33.21318,0.2,68900.0,0.33,276.0,2700.0,34.76859394618091,7.63208188418503,20606.621087299583,25.66201256688207,9.093369602287424,9.106581379298838,1.4612877181023922,9251,128,2300,5211,70.34014398111889,40.50094815854259,0.0010206668507327,False
0.46,1.0543344234940202,3.6000000000000005,9546.0,33.21318,0.2,68900.0,0.33,276.0,2700.0,55.69991508882798,12.607120428743894,34039.22515760851,37.81752524162667,17.481485620452954,17.88238984720131,4.87436519170906,14889,170,3674,8414,86.3680814220664,49.86229887280976,0.0013853062218178,False
0.4700000000000001,0.9987040287963777,3.6000000000000005,9547.0,33.21318,0.2,68900.0,0.33,276.0,2700.0,50.59562854471752,11.672526325292845,31515.82107829068,35.12397333903391,15.45296401703593,15.47165520568361,3.780437691743085,13543,160,3348,7647,81.63095749022496,47.12960255653387,0.001277936208718,False
0.4800000000000001,0.9317531349801192,3.6000000000000005,9548.0,33.21318,0.1,68900.0,0.33,276.0,2700.0,44.76840010405546,10.512792681809453,28384.540240885523,31.985428765977304,13.207075322351754,12.782971338078156,2.6942826405423013,82424,294,12144,53254,76.96934881260161,44.414062105663184,0.0011667025724582,False
0.49,0.9616239947648142,3.6000000000000005,9549.0,33.21318,0.1,68900.0,0.33,276.0,2700.0,46.83481654411125,11.228126563905796,30315.94172254565,33.37180544057306,14.1831578902653,13.463011103538186,2.9550313263595047,86346,302,12688,55790,84.65254711867799,48.14105426504097,0.0011894829540735,False
0.5,0.910040316704962,3.6000000000000005,9550.0,33.21318,0.2,68900.0,0.33,276.0,2700.0,42.37947642685028,10.333069718913412,27899.288241066213,30.991760609953538,12.52339062728428,11.387715816896735,2.1903209083708663,11802,144,2854,6717,73.6469774065328,42.436750635885815,0.0010950652992235,False
0.02,0.5500433358967854,3.6000000000000005,9552.0,36.23256,0.1,68900.0,0.33,276.0,2700.0,31.76338188958456,0.3176170637350212,857.5660720845574,16.243613309984617,4.118808267410279,15.519768579599944,3.801191203675258,26137,246,8652,13153,969.2076502692536,551.9778852494023,0.0120220196393292,True
0.03,0.6813550759367801,3.6000000000000005,9553.0,36.23256,0.1,68900.0,0.33,276.0,2700.0,41.31051645600113,0.619601198172252,1672.9232350650805,21.245760179937697,6.575463615960599,20.064756276063434,5.955862417788347,33491,284,11036,16931,913.829889513006,520.277482747162,0.0105906045018749,True
0.04,0.4784648770911588,3.6000000000000005,9554.0,36.23256,0.04,68900.0,0.33,276.0,2700.0,26.033167482387665,0.5205293083611983,1405.4291325752354,13.699422665678528,3.047938162421554,12.333744816709135,2.527408854060356,133171,544,43834,67414,509.3112354459697,291.3779152973153,0.0052487902126477,True
0.05,0.4276130285307347,3.6000000000000005,9555.0,36.23256,0.1,68900.0,0.33,276.0,2700.0,22.30344053054304,0.5573242138757795,1504.7753774646046,11.970176169452024,2.3955402955928364,10.333264361091016,1.838216081717057,18237,200,5980,9261,327.8060072380985,187.31576746997905,0.0037429433489639,True
0.06,0.4234068134949763,3.6000000000000005,9556.0,36.23256,0.08,68900.0,0.33,276.0,2700.0,21.709691660571888,0.6508383604750416,1757.2635732826125,11.83005159269686,2.345486013518435,9.879640067875028,1.6946476530433934,28486,250,9342,14467,264.71692176679977,151.83643640417935,0.0031261351680461,False
0.0699999999999999,0.6244829101459766,3.6000000000000005,9557.0,36.23256,0.2,68900.0,0.33,276.0,2700.0,35.43174499589183,1.2393926973360916,3346.360282807447,19.02609009703132,5.430675206677548,16.405654898860515,4.191282509341456,7513,132,2464,3811,328.2885909471,187.9281868204556,0.004291061619855,True
0.08,0.7142277772861377,3.6000000000000005,9558.0,36.23256,0.1,68900.0,0.33,276.0,2700.0,41.966477756587736,1.6775867799710902,4529.484305921944,22.565825252757595,7.295491799140397,19.40065250383014,5.6179050191693065,34364,286,11302,17405,351.63886858225726,201.376118824949,0.0044661419503375,True
0.09,0.5833334527524099,3.6000000000000005,9559.0,36.23256,0.08,68900.0,0.33,276.0,2700.0,31.68806690669163,1.424436196771473,3845.977731282977,17.4707502644344,4.679908550090949,14.21731664225723,3.255472353319476,40778,304,13442,20609,246.6206264013552,141.39328473295342,0.0031284317659986,False
0.0999999999999999,0.5058355813774317,3.6000000000000005,9560.0,36.23256,0.1,68900.0,0.33,276.0,2700.0,25.906581440801485,1.2932346769376832,3491.733627731745,14.65708396117314,3.435963995771154,11.249497479628346,2.142729318833471,21352,218,7020,10816,180.58104605986392,103.87694458435536,0.0023982417202323,False
0.11,0.5684299826590703,3.6000000000000005,9561.0,36.23256,0.08,68900.0,0.33,276.0,2700.0,29.92830238874961,1.6432689914999443,4436.8262770498495,16.91793654432433,4.42366010038302,13.01036584442528,2.780391108883076,37867,294,12510,19096,188.25444293572463,108.47004482828196,0.0025209815026734,False
0.12,0.5322908826091014,3.6000000000000005,9562.0,36.23256,0.08,68900.0,0.33,276.0,2700.0,27.062490063417943,1.6201302890681404,4374.351780483979,15.600610930297618,3.8361634332234833,11.461879133120323,2.216033144155343,34706,280,11484,17474,159.14241477455835,91.83155790913288,0.0021550244629746,False
0.13,0.7735149575475073,3.6000000000000005,9563.0,36.23256,0.3,68900.0,0.33,276.0,2700.0,44.7751187376041,2.905781331904308,7845.609596141632,25.01527473118874,8.70552996849702,19.759844006415364,5.799748636592712,4325,104,1416,2195,218.4100611151523,126.09896001412577,0.0031525950740193,False
0.14,0.5419409517984228,3.6000000000000005,9564.0,36.23256,0.2,68900.0,0.33,276.0,2700.0,27.07102787500949,1.8892249310897,5100.907313942191,15.94915852208894,3.988390280153613,11.121869352920552,2.099165349063913,5916,116,1944,2994,142.8822311485287,82.30893745923716,0.0019166646070657,False
0.16,0.55733559595716,3.6000000000000005,9566.0,36.23256,0.08,68900.0,0.33,276.0,2700.0,27.48147993768087,2.189939752675064,5912.837332222673,16.510037498303937,4.238231525054173,10.971442439376933,2.0482917723791094,47003,280,11536,26659,130.71020739940218,75.383501930592,0.0017616683714117,False
0.17,0.6514131814941206,3.6000000000000005,9567.0,36.23256,0.3,68900.0,0.33,276.0,2700.0,33.868696571531935,2.868549445442156,7745.083502693821,20.0670218428802,5.957028357455268,13.801674728651737,3.0884789120131124,3184,88,1046,1609,145.7141621547742,84.12396429963114,0.00199397300174,False
0.18,0.5181171737355832,3.6000000000000005,9568.0,36.23256,0.08,68900.0,0.33,276.0,2700.0,24.177577107760754,2.163767427461308,5842.172054145532,15.09291882628256,3.618648819296944,9.084658281478196,1.4548813918356358,41664,262,10268,23598,111.58126146413905,64.40132776666341,0.0014707826511238,False
0.19,0.6773044531031627,3.6000000000000005,9569.0,36.23256,0.3,68900.0,0.33,276.0,2700.0,35.09162743084334,3.3193391499228038,8962.21570479157,21.08497926841344,6.489730825269025,14.006648162429896,3.170391675346222,3410,90,1116,1730,134.61896164747952,77.71339228991168,0.0018920821273684,False
0.2,0.8444642955077635,3.6000000000000005,9570.0,36.23256,0.3,68900.0,0.33,276.0,2700.0,47.85934466641937,4.769179305822795,12876.784125721546,28.062661893096013,10.587704196847522,19.796682773323354,5.818524891024727,4541,106,1486,2306,156.04813553034182,89.97756081669958,0.0023674661410923,False
0.21,0.8498529196690535,3.6000000000000005,9571.0,36.23256,0.3,68900.0,0.33,276.0,2700.0,47.91723311397164,5.011913283923759,13532.165866594149,28.29928114986696,10.739560533164838,19.61795196410468,5.727647249241079,4553,106,1488,2315,148.691102526094,85.78485179813671,0.0022825175260358,False
0.22,0.8671503076539934,3.6000000000000005,9572.0,36.23256,0.2,68900.0,0.33,276.0,2700.0,48.9647912734402,5.363825921028135,14482.329986775963,29.06375592124956,11.235665047997658,19.90103535219064,5.871839126969523,10099,160,3332,5095,143.65030295041836,82.83780482448927,0.0022400555263856,False
0.23,0.770244197477825,3.6000000000000005,9573.0,36.23256,0.3,68900.0,0.33,276.0,2700.0,40.76554538056423,4.662555213554069,12588.899076595986,24.877840935989845,8.62393583654214,15.887704444574382,3.961380622988071,3900,98,1286,1965,127.40103617197148,73.3835128428882,0.0018602814542196,False
0.24,0.5633993824970744,3.6000000000000005,9574.0,36.23256,0.05,68900.0,0.33,276.0,2700.0,25.361999603389226,3.014487034511223,8139.114993180302,16.732596887348887,4.339019177552234,8.629402716040335,1.3245321430410106,185333,426,27144,119883,109.45348381030456,61.95904203274371,0.0012741708961524,False
0.25,0.7179877964016698,3.6000000000000005,9575.0,36.23256,0.1,68900.0,0.33,276.0,2700.0,36.05637455761484,4.474321896226965,12080.669119812806,22.718546771882124,7.380626740029906,13.337827785732712,2.906304843802941,40637,264,9952,23077,111.34508406629504,64.18768208438881,0.0016025755885565,False
0.26,0.7226242289545264,3.6000000000000005,9576.0,36.23256,0.3,68900.0,0.33,276.0,2700.0,36.06113793232628,4.651136842882756,12558.06947578344,22.90735497090696,7.486397239334466,13.15378296141932,2.8352603964517105,3592,90,1184,1810,106.72971852580372,61.6091233258998,0.0015500262769674,False
0.27,0.7944499112613104,3.6000000000000005,9577.0,36.23256,0.1,68900.0,0.33,276.0,2700.0,41.22043573063055,5.523534844834721,14913.544081053748,25.901306760963845,9.238478890383693,15.319128969666703,3.714944045548972,47905,282,11150,27718,114.0619689805107,65.83198053594131,0.0016887144161092,False
0.28,0.876879475926017,3.6000000000000005,9578.0,36.23256,0.3,68900.0,0.33,276.0,2700.0,47.47510525305262,6.600538574139627,17821.454150176993,29.49705018727312,11.520537087591618,17.978055065779497,4.919998513451992,4589,106,1510,2318,118.2939259784482,68.20349653514258,0.0018304279882786,False
0.29,0.8283282511138055,3.6000000000000005,9579.0,36.23256,0.1,68900.0,0.33,276.0,2700.0,43.17687700804363,6.209566964012864,16765.83080283473,27.358478490248327,10.14057400538832,15.818398517795304,3.931007041375456,57121,292,11832,34247,111.11169009486316,64.12782623375915,0.0016698006900407,False
0.3,0.8541796720347052,3.6000000000000005,9580.0,36.23256,0.3,68900.0,0.33,276.0,2700.0,44.88437205844743,6.6761071410022135,18025.489280705977,28.48980091646626,10.862416511105453,16.394571141981174,4.186309370103237,4085,100,1350,2054,107.76755311989304,62.19966807198298,0.0016685966590857,False
0.31,0.7585317535940428,3.6000000000000005,9581.0,36.23256,0.1,68900.0,0.33,276.0,2700.0,37.06156291266759,5.682148126968084,15341.799942813826,24.387902002631023,8.335428076886279,12.673660910036563,2.653279949918195,52598,266,10088,32182,98.60390723346156,56.91376444225105,0.0014284280445266,False
0.32,0.9553257164978745,3.6000000000000005,9582.0,36.23256,0.3,68900.0,0.33,276.0,2700.0,52.52062535845792,8.334670918638047,22503.611480322725,33.077621884210174,13.97389992154813,19.443003474247742,5.639229002910083,4837,110,1596,2437,113.0776894817622,65.26750052857966,0.0018117396856604,False
0.33,0.907912028809368,3.6000000000000005,9583.0,36.23256,0.3,68900.0,0.33,276.0,2700.0,48.164006651054976,7.871794820628745,21253.84601569761,30.89499900099339,12.457534226786416,17.269007650061585,4.585739406157671,4784,108,1580,2408,107.50609960769404,61.941878679035526,0.0016562149309576,False
0.34,0.7173482977778667,3.6000000000000005,9584.0,36.23256,0.08,68900.0,0.33,276.0,2700.0,33.017311798401494,5.530624900623793,14932.68723168424,22.692547039299853,7.36610657457883,10.32476475910164,1.8354816739550373,85903,310,13924,54385,93.74124592404137,53.33796284849201,0.0012508006474138,False
0.3500000000000001,0.7533434235740217,3.6000000000000005,9585.0,36.23256,0.2,68900.0,0.33,276.0,2700.0,35.339757615009674,6.094660392611583,16455.583060051275,24.171972782080932,8.209456041339742,11.16778483292874,2.114795648728159,8078,130,2398,4269,91.59330689979488,52.87719254294923,0.0012800270869322,False
0.36,0.8417811676876377,3.6000000000000005,9586.0,36.23256,0.3,68900.0,0.33,276.0,2700.0,41.75956796476962,7.4190061357612755,20031.316566555444,27.945115532193025,10.512566224426896,13.814452432576598,3.0935600886656207,3953,98,1310,1982,90.41872434948084,52.1369957714292,0.0014029398777445,False
0.37,0.975109681735866,3.6000000000000005,9587.0,36.23256,0.2,68900.0,0.33,276.0,2700.0,52.29358751605788,9.568226295349184,25834.21099744279,34.005055274684466,14.63746437998964,18.288532241373417,5.069238084640457,12843,164,3436,7071,106.011429629237,61.18636499691677,0.001648064227431,False
0.38,0.7499102388128209,3.6000000000000005,9588.0,36.23256,0.2,68900.0,0.33,276.0,2700.0,34.11613561023309,6.367142117885769,17191.283718291575,24.029461592471968,8.126713911110409,10.08667401776112,1.75957179322464,8886,126,2308,4930,85.4113136957157,49.31123556980958,0.0011975710231163,False
0.39,0.90531858121084,3.6000000000000005,9589.0,36.23256,0.2,68900.0,0.33,276.0,2700.0,45.77051513734936,8.801013028704263,23762.735177501512,30.777243007161616,12.377562399353684,14.993272130187748,3.5765493706494205,12411,154,3128,6963,95.39025943540985,55.06342188057992,0.001448632002051,False
0.4,1.0602507647373818,3.6000000000000005,9590.0,36.23256,0.2,68900.0,0.33,276.0,2700.0,58.52115453087956,11.570189619622754,31239.51197298144,38.10856265899942,17.706087509370942,20.412591871880142,6.135897889748188,15644,176,3860,8844,592.2410064453999,333.1160001434604,0.0017111749319748,True
0.4100000000000001,1.0728586249747365,3.6000000000000005,9591.0,36.23256,0.3,68900.0,0.33,276.0,2700.0,59.24664536586696,12.001214495150696,32403.27913690688,38.731705019775305,18.190478989695077,20.514940346091656,6.189264494544377,5455,118,1810,2734,101.91097970256874,58.66996247519821,0.0016847028744427,False
0.42,1.1178534046797717,3.6000000000000005,9592.0,36.23256,0.3,68900.0,0.33,276.0,2700.0,62.8930244753345,13.052365595474068,35241.387107779985,40.9881377155148,19.9837765853512,21.904886759819696,6.931410989877133,5736,122,1904,2874,102.42840052308306,59.09782856620254,0.0017371609712208,False
0.43,0.9934371975574716,3.6000000000000005,9593.0,36.23256,0.2,68900.0,0.33,276.0,2700.0,51.60697836344234,10.92898127673414,29508.249447182177,34.87299064901762,15.268633224745289,16.733987714424714,4.339651948011147,13920,162,3456,7850,94.51260512570772,54.48459865743904,0.0014892508678903,False
0.44,0.947381668005963,3.6000000000000005,9594.0,36.23256,0.2,68900.0,0.33,276.0,2700.0,47.41972964729111,10.253931570001626,27685.61523900439,32.70798853896337,13.712598931900528,14.711741108327736,3.458667361898902,12504,152,3096,7058,89.9754278348717,51.93698321462921,0.0013826939562973,False
0.45,1.1445905455925718,3.6000000000000005,9595.0,36.23256,0.3,68900.0,0.33,276.0,2700.0,64.12706269855857,14.237737353470097,38441.89085436926,42.353073472314406,21.097889407385637,21.77398922624417,6.860152053915536,5718,122,1892,2872,99.75779914580583,57.57173697076941,0.0016864818720649,False
0.46,0.9084202208635526,3.6000000000000005,9596.0,36.23256,0.2,68900.0,0.33,276.0,2700.0,43.58797433340321,9.8213740549962,26517.70994848974,30.91809336776384,12.473240687704454,12.669880965639368,2.651866632708254,11875,148,2946,6692,84.54180992108502,48.67541105165272,0.001274717662224,False
0.4700000000000001,1.0587611949022586,3.6000000000000005,9597.0,36.23256,0.3,68900.0,0.33,276.0,2700.0,55.70867266801813,12.874091694268497,34760.047574524935,38.03520468613149,17.649376786808123,17.67346798188663,4.775285092539628,5620,116,1800,2864,89.08733483302773,51.11477227333573,0.0014802027584057,False
0.4800000000000001,1.1310323947250782,3.6000000000000005,9598.0,36.23256,0.3,68900.0,0.33,276.0,2700.0,61.710858393808415,14.578982671350165,39363.25321264544,41.65868208703472,20.528372599001077,20.052176306773696,5.949389927650911,5657,120,1846,2856,91.85990100351074,52.97631375936744,0.0015732835381118,False
0.49,0.9912149667889208,3.6000000000000005,9599.0,36.23256,0.2,68900.0,0.33,276.0,2700.0,49.26139719702263,11.82263882386909,31921.124824446542,34.767302816462845,15.191254846294294,14.49409438055978,3.368616022425204,13231,156,3236,7499,85.64413714742209,49.44110021634918,0.0013376736778959,False
0.5,0.8658088504943404,3.6000000000000005,9600.0,36.23256,0.2,68900.0,0.33,276.0,2700.0,38.96018411044754,9.47824663981264,25591.26592749413,29.00419995314257,11.196717215476705,9.955984157304972,1.718470575664064,10579,136,2602,5986,78.02017244454314,45.00731874626567,0.0011343261206832,False
0.03,0.4920318997324333,3.6000000000000005,9603.0,39.25194,0.1,68900.0,0.33,276.0,2700.0,27.30526194850028,0.40952238055974,1105.710427511298,14.171759770245124,3.236997413867849,13.133502178255153,2.8274750333081085,22511,226,7398,11408,706.8408773127137,402.6260216576328,0.0077129510901893,True
0.04,0.4020743321713264,3.6000000000000005,9604.0,39.25194,0.08,68900.0,0.33,276.0,2700.0,20.96358622630874,0.4191376832396252,1131.6717447469882,11.126233961683251,2.100649079217195,9.837352264625483,1.6815113959775696,27251,244,8938,13838,430.1140957086969,246.1877009837648,0.0046515768783008,True
0.06,0.7475424670026573,3.6000000000000005,9606.0,39.25194,0.2,68900.0,0.33,276.0,2700.0,45.42349982842796,1.362252605510725,3678.082034878957,23.931348201703194,8.06993381220091,21.492151626724763,6.707681206690185,9363,152,3078,4740,481.0908807870139,274.93804541758385,0.0066880039092049,True
0.0699999999999999,0.7518432735272882,3.6000000000000005,9607.0,39.25194,0.2,68900.0,0.33,276.0,2700.0,45.374831244996365,1.587400716054744,4285.981933347809,24.10966524853161,8.173241197636449,21.26516599646476,6.585840481581704,9412,152,3084,4780,447.7331505911368,256.17285845894173,0.0058385202512294,True
0.08,0.7609926401282108,3.6000000000000005,9608.0,39.25194,0.2,68900.0,0.33,276.0,2700.0,45.72191360212852,1.8278042137926755,4935.071377240223,24.4905563433842,8.395570215650736,21.23135725874432,6.56776600185806,9399,152,3082,4770,383.6235753994699,219.52842498376296,0.0052394891866652,True
0.09,0.4470775398346194,3.6000000000000005,9609.0,39.25194,0.05,68900.0,0.33,276.0,2700.0,22.30357166423354,1.0021339108608671,2705.7615593243413,12.62440083619431,2.6348855616199947,9.679170828039233,1.6327516507591275,84170,402,24012,45256,199.34976888138087,114.73695816394668,0.0024843553914994,False
0.0999999999999999,0.674237842109823,3.6000000000000005,9610.0,39.25194,0.2,68900.0,0.33,276.0,2700.0,38.09623427013243,1.9027173184042256,5137.3367596914095,20.963530897904526,6.425257673903918,17.1327033722279,4.522540355499692,8162,140,2684,4130,267.93666984389705,153.71392701601164,0.0036667548080067,False
0.11,0.6089732127168184,3.6000000000000005,9611.0,39.25194,0.2,68900.0,0.33,276.0,2700.0,32.850078744795866,1.803966691082485,4870.71006592271,18.43486766037643,5.140178960478943,14.415211084419436,3.336212269396458,6923,126,2270,3512,219.31355419424352,126.47870566622066,0.0029673160030247,False
0.12,0.6676736344174335,3.6000000000000005,9612.0,39.25194,0.1,68900.0,0.33,276.0,2700.0,36.86168357512136,2.208081899770342,5961.821129379924,20.70436006623116,6.288499921094751,16.157323508890197,4.080418021324409,30144,266,9948,15216,223.75987293055405,128.70302912366105,0.0030620119044297,False
0.13,0.5527540214560689,3.6000000000000005,9613.0,39.25194,0.2,68900.0,0.33,276.0,2700.0,28.150837223342076,1.8252030334772344,4928.048190388532,16.342492687845013,4.162973569176049,11.80834453549706,2.337770535698815,6006,118,1968,3048,170.16088374931152,98.14405661031148,0.0022709282132647,False
0.14,0.6225474608392181,3.6000000000000005,9614.0,39.25194,0.3,68900.0,0.33,276.0,2700.0,32.79305312526994,2.2897666986079304,6182.370086241412,18.951981524534247,5.3939229056661775,13.841071600735695,3.104156207058247,3223,88,1056,1633,182.36942621709625,105.29103692995167,0.0024407322852995,False
0.15,0.486190290522836,3.6000000000000005,9615.0,39.25194,0.08,68900.0,0.33,276.0,2700.0,22.99256209549539,1.717373573691575,4636.908648967253,13.967816518246575,3.154807627366988,9.024745577248815,1.437434053675413,37821,256,9774,21070,133.95649892260005,77.28250609806199,0.0017351889909857,False
0.16,0.5326252555957758,3.6000000000000005,9616.0,39.25194,0.08,68900.0,0.33,276.0,2700.0,25.786068899742126,2.054306869639972,5546.628548027925,15.61264889213648,3.8413818686005214,10.173420007605648,1.7870749989605494,44234,272,10906,25039,136.37306179307515,78.69460224365787,0.0018145694796472,False
0.17,0.69273521083728,3.6000000000000005,9617.0,39.25194,0.3,68900.0,0.33,276.0,2700.0,36.95745636123869,3.1310940275672245,8453.953874431507,21.69967728672838,6.81982296508077,15.25777907451031,3.6887289375135457,3362,90,1104,1700,165.69198438747603,95.65301595412038,0.0023278650897791,False
0.18,0.8209148643254525,3.6000000000000005,9618.0,39.25194,0.3,68900.0,0.33,276.0,2700.0,46.69621335241639,4.190444689480325,11314.200661596877,27.03714918881277,9.938946944911242,19.659064163603624,5.7485022554309175,4555,106,1490,2314,181.4431599972952,104.68942508897972,0.0027256188895795,False
0.19,0.5131398529728431,3.6000000000000005,9619.0,39.25194,0.08,68900.0,0.33,276.0,2700.0,23.537256306378808,2.2216738930986746,5998.519511366421,14.915832596852004,3.543967486788884,8.621423709526804,1.3222935936902096,40975,260,10082,23220,114.94811840147956,66.32605457634128,0.0015080409178494,False
0.2,0.5480962483940733,3.6000000000000005,9620.0,39.25194,0.05,68900.0,0.33,276.0,2700.0,25.56913345372513,2.54015818455337,6858.427098294099,16.17270214309199,4.087249581519148,9.39643131063314,1.5470913969657785,161570,428,27456,101208,131.99675060297278,74.84500102911565,0.0015523174106846,False
0.21,0.7331543772775283,3.6000000000000005,9621.0,39.25194,0.2,68900.0,0.33,276.0,2700.0,38.61094782096536,4.034753328158098,10893.833986026866,23.33817830525586,7.729880956203088,15.272769515709498,3.6951276280449896,8142,140,2666,4137,140.1579036625201,80.9057925199341,0.0020591817340872,False
0.22,0.5304845938327452,3.6000000000000005,9622.0,39.25194,0.05,68900.0,0.33,276.0,2700.0,23.770033004970298,2.5924025114964477,6999.486781040408,15.535630237748984,3.808042924086586,8.234402767221313,1.2156404125901386,163465,412,25402,104538,108.00622152334653,61.02507750485678,0.0013892111657237,False
0.23,0.6346594116622679,3.6000000000000005,9623.0,39.25194,0.08,68900.0,0.33,276.0,2700.0,30.62821226778008,3.496761905583886,9441.257145076492,19.4172983859056,5.626282600008361,11.210913881874482,2.129520694424475,60243,296,12670,35964,117.23333551265952,67.66197562038242,0.0016210401699112,False
0.24,0.8567921688689386,3.6000000000000005,9624.0,39.25194,0.3,68900.0,0.33,276.0,2700.0,47.33723169334845,5.65151488530633,15259.090190327091,28.605064729719302,10.936996551636634,18.732166963629144,5.285481666330304,4457,104,1460,2261,143.7141374965799,82.85102759489565,0.0022093226642697,False
0.25,0.9223647959004726,3.6000000000000005,9625.0,39.25194,0.3,68900.0,0.33,276.0,2700.0,52.44379369750189,6.522749288712839,17611.423079524666,31.55432562201381,12.908810675840945,20.88946807548808,6.386061387128106,4964,112,1630,2513,147.81232037427137,85.31063534852474,0.0022518808241876,False
0.26,0.8195449219853834,3.6000000000000005,9626.0,39.25194,0.08,68900.0,0.33,276.0,2700.0,43.56894043833933,5.627151168664457,15193.308155394034,26.97792097460832,9.901948184486656,16.591019463731012,4.274797015822199,97050,364,18128,59742,141.8953908965499,79.01369783684599,0.0019626613691381,False
0.27,0.8786830147814995,3.6000000000000005,9627.0,39.25194,0.3,68900.0,0.33,276.0,2700.0,48.0014963023403,6.438978022015543,17385.240659441966,29.577633233963464,11.573808818767686,18.42386306837684,5.134830796752143,4612,106,1518,2329,132.55117041759715,76.41240063192318,0.002053107523464,False
0.28,0.7472795877020966,3.6000000000000005,9628.0,39.25194,0.1,68900.0,0.33,276.0,2700.0,37.23394892354669,5.166776688008797,13950.297057623751,23.920463958959797,8.06364418678328,13.313484964586898,2.896867498774484,45834,266,10080,27002,114.66947038973494,66.17715479339562,0.0016521939570674,False
0.29,0.6837842993772469,3.6000000000000005,9629.0,39.25194,0.1,68900.0,0.33,276.0,2700.0,32.19818964453423,4.617657296305203,12467.674700024048,21.34238087689484,6.627191641207703,10.855808767639392,2.0095343449025,41936,244,8644,25180,104.15813708395224,60.120585842925045,0.0014554502959051,False
0.3,0.7839294323721451,3.6000000000000005,9630.0,39.25194,0.1,68900.0,0.33,276.0,2700.0,39.34378595061678,5.845019224827898,15781.551907035326,25.454670698346973,8.968336590775102,13.889115252269804,3.123317365947204,54645,276,10802,33176,150.8114752986874,86.6079231563441,0.0023828083891125,False
0.31,0.9673040298451764,3.6000000000000005,9631.0,39.25194,0.2,68900.0,0.33,276.0,2700.0,53.93511628187218,8.297548899194789,22403.38202782593,33.637966724419606,14.373466434771505,20.297149557452578,6.075917535576716,10798,168,3566,5435,127.33872386714648,73.37892681237828,0.0020486642410683,False
0.32,0.9082098962336655,3.6000000000000005,9632.0,39.25194,0.3,68900.0,0.33,276.0,2700.0,48.56137860391679,7.70119143791147,20793.216882360968,30.908534551982942,12.46673885640675,17.652844051933844,4.765547418495279,4790,108,1584,2408,117.5062885943565,67.68611760610091,0.0018430026070645,False
0.33,0.6381368943857646,3.6000000000000005,9633.0,39.25194,0.05,68900.0,0.33,276.0,2700.0,27.714625994033277,4.4976470122207886,12143.64693299613,19.5515775463202,5.694039308337376,8.163048447713077,1.1963922961165876,259738,446,29798,174017,115.96162727287118,64.78416918520415,0.0012291716957975,False
0.34,0.8895363645223593,3.6000000000000005,9634.0,39.25194,0.1,68900.0,0.33,276.0,2700.0,46.28943343460853,7.7868855787789935,21024.591062703283,30.064292738511018,11.89746348203999,16.225140696097515,4.110577903260997,66569,300,12316,41069,114.5441944221967,65.56023021372917,0.0017230940424843,False
0.3500000000000001,0.830615769846396,3.6000000000000005,9635.0,39.25194,0.1,68900.0,0.33,276.0,2700.0,41.23190625496412,7.125786404603615,19239.62329242976,27.45790863158308,10.203270736515003,13.773997623381046,3.07748433191139,61254,284,11306,37767,603.3386767947087,316.114173203994,0.001554291547499,True
0.36,0.9070768816002904,3.6000000000000005,9636.0,39.25194,0.2,68900.0,0.33,276.0,2700.0,46.99267625155753,8.360965627383106,22574.607193934386,30.857060526186988,12.431748197921657,16.135615725370545,4.070782570538549,11761,156,3248,6395,114.10664490700631,65.64520319422778,0.0016784419106338,False
0.37,0.7881538943317983,3.6000000000000005,9637.0,39.25194,0.1,68900.0,0.33,276.0,2700.0,37.28936346483896,6.792444845873626,18339.60108385879,25.633681635257968,9.076246833385875,11.655681829580988,2.283801987512251,56900,266,10172,35268,96.7603738440234,55.78792741389875,0.0014031405053929,False
0.38,0.7120734770972972,3.6000000000000005,9638.0,39.25194,0.2,68900.0,0.33,276.0,2700.0,31.375537573917025,5.846428490985717,15785.356925661436,22.47848368149943,7.2469723384587965,8.897053892417595,1.4005438474730791,8132,122,2136,4492,90.9162389276108,52.48432902492157,0.0012322448131529,False
0.39,0.9358710250092696,3.6000000000000005,9639.0,39.25194,0.08,68900.0,0.33,276.0,2700.0,48.26699525395432,9.287826651442233,25077.131958894028,32.175217064922826,13.33917841797159,16.091778189031494,4.051351766529358,139347,384,20192,90307,705.8505218089504,402.59983923907095,0.0018793697748167,True
0.4,0.8176362877837585,3.6000000000000005,9640.0,39.25194,0.2,68900.0,0.33,276.0,2700.0,38.53401904363845,7.5727625221745,20446.45880987115,26.895481541855588,9.850535889748466,11.638537501782864,2.2777733675739658,10441,138,2612,5867,94.1780537091502,54.34268097015719,0.0019320709787054,False
0.4100000000000001,0.9094411395629628,3.6000000000000005,9641.0,39.25194,0.3,68900.0,0.33,276.0,2700.0,45.39617394802937,9.161867854493988,24737.043207133767,30.964507789370607,12.504829237820596,14.431666158658764,3.3429613833266085,4272,102,1422,2133,92.8566426812842,53.39691896405935,0.0014956333624495,False
0.42,0.7355633189852415,3.6000000000000005,9642.0,39.25194,0.2,68900.0,0.33,276.0,2700.0,31.82636371413344,6.528366835621912,17626.59045617916,23.437127797320592,7.786220419806125,8.389235916812844,1.257853584184213,8760,122,2176,4938,83.92838881041209,48.39298425904262,0.0011813957634428,False
0.43,0.8017387896594195,3.6000000000000005,9643.0,39.25194,0.08,68900.0,0.33,276.0,2700.0,36.35745646536874,7.6503340686483,20655.90198535041,26.212379806854106,9.42840324148158,10.145076658514636,1.7780691728332787,111525,324,15066,72996,104.70601913982024,59.81121041912389,0.0012747913277492,False
0.44,0.9259317164798316,3.6000000000000005,9644.0,39.25194,0.2,68900.0,0.33,276.0,2700.0,45.676663072826834,9.870456923619638,26650.233693773025,31.717854113894813,13.021654000794284,13.95880895893202,3.151197077174647,12384,152,3094,6961,95.32626244079582,55.00858692312904,0.0014586792048722,False
0.45,0.7661757838518612,3.6000000000000005,9645.0,39.25194,0.05,68900.0,0.33,276.0,2700.0,33.115217519828924,7.260072188255929,19602.19490829101,24.7072658190594,8.523069615595858,8.407951700769527,1.2629974273399291,400639,488,35228,276813,118.5343001983814,66.6879911515509,0.0011779646091965,False
0.46,0.984123683662406,3.6000000000000005,9646.0,39.25194,0.2,68900.0,0.33,276.0,2700.0,49.73832725283832,11.23595522646626,30337.0791114589,34.43087600182892,14.945903654223928,15.307451251009397,3.709948427757668,13141,158,3228,7433,96.5799087128006,55.73948590979455,0.0015105597899431,False
0.4700000000000001,1.0304189109130382,3.6000000000000005,9647.0,39.25194,0.1,68900.0,0.33,276.0,2700.0,53.27312472494704,12.30173792764663,33214.6924046459,36.6500356816029,16.591049323609436,16.623089043344137,4.289311395962805,95754,326,14328,61686,115.23794358799536,64.59509317872359,0.0015725912051164,False
0.4800000000000001,0.7818902039906249,3.6000000000000005,9648.0,39.25194,0.1,68900.0,0.33,276.0,2700.0,33.34228480979382,7.770525011186653,20980.41753020396,25.36841921540578,8.916516664841307,7.973865594388037,1.1459916536546544,60760,246,9118,39119,82.16911109036504,47.36309981019653,0.0011494016897842,False
0.49,0.8709479041469739,3.6000000000000005,9649.0,39.25194,0.1,68900.0,0.33,276.0,2700.0,39.67308775974616,9.473503011736357,25578.45813168816,29.23260106171368,11.346357953707953,10.44048669803248,1.872854941971596,72191,270,10530,46708,86.24086191796323,49.6376564026299,0.0012624676295224,False
0.5,1.1932881664812005,3.6000000000000005,9650.0,39.25194,0.3,68900.0,0.33,276.0,2700.0,66.60707391687875,16.38996909142054,44252.916546835455,44.88525808297206,23.221797135991476,21.72181583390669,6.831828044570933,6443,126,2016,3323,105.51492173194274,60.88857802671688,0.0017633048628457,False
0.03,0.3993059793018348,3.6000000000000005,9653.0,42.27132,0.05,68900.0,0.33,276.0,2700.0,21.10312962094116,0.3164903956463503,854.5240682451458,11.035736758014906,2.0699730460342343,10.067392862926257,1.753482650387884,68680,390,22584,34798,682.8557032069443,389.5928304245189,0.0064963277382195,True
0.04,0.4911638686001063,3.6000000000000005,9654.0,42.27132,0.1,68900.0,0.33,276.0,2700.0,26.90435706885493,0.5379531000905431,1452.4733702444664,14.141400668261362,3.224709062880075,12.762956400593572,2.6867559627895323,22182,224,7284,11250,559.42500361842,319.39725541152274,0.0063158315407355,True
0.05,0.63832031632132,3.6000000000000005,9655.0,42.27132,0.1,68900.0,0.33,276.0,2700.0,37.21564284524607,0.9301292717433528,2511.349033707052,19.558668620279683,5.697626146850415,17.65697422496639,4.767496875107062,30917,270,10154,15680,628.9202334761496,359.1265451755616,0.0070160216646525,True
0.06,0.4282429080683811,3.6000000000000005,9656.0,42.27132,0.08,68900.0,0.33,276.0,2700.0,22.0246919467366,0.6602883690599816,1782.7785964619502,11.99119806518334,2.4030866847315817,10.033493881553255,1.7427983156716,28786,250,9452,14602,313.28857094581343,179.70955082841448,0.0036948224612115,True
0.0699999999999999,0.4641552940363641,3.6000000000000005,9657.0,42.27132,0.1,68900.0,0.33,276.0,2700.0,24.07411989992216,0.8418758189771481,2273.0647112383,13.206246011983968,2.8554398488935013,10.867873887938192,2.013564029916353,20177,212,6614,10250,287.5668279296925,165.16688686545163,0.0035099768187465,True
0.08,0.6655049592186152,3.6000000000000005,9658.0,42.27132,0.2,68900.0,0.33,276.0,2700.0,38.170737297770536,1.5257571616183954,4119.544336369668,20.618973504211983,6.243691498133408,17.55176379355855,4.717934336515013,7970,138,2618,4037,347.7767915975497,199.18231460942408,0.0047779550339797,True
0.09,0.568631169808841,3.6000000000000005,9659.0,42.27132,0.1,68900.0,0.33,276.0,2700.0,30.63054615771721,1.376847763067629,3717.4889602825983,16.92536199967605,4.427064518752416,13.705184158041163,3.0502167556847866,25415,240,8354,12878,275.0237484977929,157.83306609438262,0.0035401109967266,False
0.0999999999999999,0.5565494347054557,3.6000000000000005,9660.0,42.27132,0.05,68900.0,0.33,276.0,2700.0,29.427457030830013,1.4692784564391108,3967.051832385599,16.481250663807625,4.225263289873381,12.946206367022388,2.7559848334342707,128604,466,31554,72999,232.0776458448564,133.45318997319066,0.0031325485626218,False
0.11,0.7161679345471764,3.6000000000000005,9661.0,42.27132,0.2,68900.0,0.33,276.0,2700.0,40.97316208185848,2.250736274620928,6076.9879414765055,22.64458467517432,7.339349436392803,18.32857740668416,5.088613161771875,8576,144,2812,4352,273.4298510866994,157.02290680673738,0.0038970074313522,False
0.12,0.6311278350439143,3.6000000000000005,9662.0,42.27132,0.2,68900.0,0.33,276.0,2700.0,34.125665987188256,2.043920844494365,5518.586280134786,19.28124150514553,5.557949262936133,14.844424482042722,3.514028418441768,7176,130,2352,3642,224.09519378497413,129.01111114403506,0.0030794421073465,False
0.13,0.5676839370613538,3.6000000000000005,9663.0,42.27132,0.2,68900.0,0.33,276.0,2700.0,29.19789243665909,1.8932616223428864,5111.806380325794,16.890410225359332,4.411048817115892,12.307482211299757,2.517787194773005,6056,118,1980,3080,188.0462551051027,108.43720113288413,0.0025213633449268,False
0.14,0.7983679564942876,3.6000000000000005,9664.0,42.27132,0.1,68900.0,0.33,276.0,2700.0,46.40715935969974,3.242754135018014,8755.436164548637,26.06835421314941,9.34028850563328,20.338805146550328,6.097534370615264,38494,306,12734,19387,246.3491195399754,141.96097335004694,0.0035731004349095,False
0.15,0.6242978187386443,3.6000000000000005,9665.0,42.27132,0.1,68900.0,0.33,276.0,2700.0,32.574273653624104,2.436001940551232,6577.205239488327,19.01899885493987,5.427154297162728,13.555274798684234,2.991152356611496,26611,248,8808,13391,175.35361448940574,101.19016398213182,0.0024761735860987,False
0.16,0.8547089255207052,3.6000000000000005,9666.0,42.27132,0.3,68900.0,0.33,276.0,2700.0,50.29187146423263,4.014771074799211,10839.88190195787,28.513137816799254,10.877501012813171,21.77873364743337,6.862729938013962,4639,108,1518,2356,628.395878292498,345.6268262495227,0.0034448028591828,True
0.17,0.7096604084969091,3.6000000000000005,9667.0,42.27132,0.1,68900.0,0.33,276.0,2700.0,38.24736653914099,3.240736392688933,8749.988260260121,22.38078938778661,7.192848116247398,15.86657715135438,3.9521117235584646,33120,272,10462,17045,178.67576355975194,103.07708190818364,0.0025802307475221,False
0.18,0.7979366751488857,3.6000000000000005,9668.0,42.27132,0.2,68900.0,0.33,276.0,2700.0,44.82576077474473,4.022103957489871,10859.680685222653,26.04994746055381,9.329049680168335,18.775813314190923,5.306945722678466,9386,152,3090,4745,186.32842834044,107.54353954935247,0.0028303418648213,False
0.19,0.5904070532573369,3.6000000000000005,9669.0,42.27132,0.1,68900.0,0.33,276.0,2700.0,28.80679222431745,2.7222798053028456,7350.155474317683,17.735084528092006,4.804423814196902,11.071707696225443,2.082144008894056,30682,234,7818,17187,421.1678658636055,213.72335998577876,0.0018908502490535,True
0.2,0.7417390140977806,3.6000000000000005,9670.0,42.27132,0.1,68900.0,0.33,276.0,2700.0,39.63330718997946,3.9465755581788033,10655.754007082767,23.691466363343626,7.931745840809831,15.94184082663584,3.985170282631028,43849,278,10790,24854,160.36927182753448,92.56727403244578,0.0023583986661516,False
0.21,0.8070226538624787,3.6000000000000005,9671.0,42.27132,0.2,68900.0,0.33,276.0,2700.0,44.422159919168365,4.644930598469419,12541.312615867431,26.43871814380157,9.567503558370154,17.983441775366796,4.922572959900735,9097,150,3008,4579,163.60262613092792,94.38599850089032,0.002493799200095,False
0.22,0.5967176044257927,3.6000000000000005,9672.0,42.27132,0.2,68900.0,0.33,276.0,2700.0,28.2764881207564,3.088112574232921,8337.903950428887,17.97196567840578,4.917088871565396,10.304522442350615,1.8289762973324757,5659,114,1868,2851,122.03876596267791,70.34818635369159,0.0016793210469104,False
0.23,0.6345345408889477,3.6000000000000005,9673.0,42.27132,0.08,68900.0,0.33,276.0,2700.0,30.619301898109583,3.495737213071781,9438.49047529381,19.412482291414573,5.623858247641938,11.20681960669501,2.128121034570157,60309,296,12664,36035,126.10096188106122,72.75443646964804,0.0017454158077763,False
0.24,0.5589174701404722,3.6000000000000005,9674.0,42.27132,0.08,68900.0,0.33,276.0,2700.0,25.05985607425694,2.978229811015348,8041.220489741439,16.568007993566557,4.264394169862804,8.491848080690382,1.286164358847456,53550,266,10554,32533,112.34076619010573,64.13045745579647,0.0014720952610562,False
0.25,0.7769497552043778,3.6000000000000005,9675.0,42.27132,0.1,68900.0,0.33,276.0,2700.0,40.56859338002244,5.038349249027911,13603.54297237536,25.159890639701768,8.79170065384999,15.408702740320674,3.7533514048220793,45771,282,11088,26103,138.6309887969237,79.97934271293092,0.0020497366631322,False
0.26,0.6301980539910322,3.6000000000000005,9676.0,42.27132,0.05,68900.0,0.33,276.0,2700.0,29.341334116809445,3.777562346865568,10199.418336537034,19.245473055193237,5.540038560005587,10.095861061616212,1.762476213140019,228635,462,31618,149224,131.06328526017498,73.17456604931954,0.0015695641000898,False
0.27,0.8607997213602034,3.6000000000000005,9677.0,42.27132,0.3,68900.0,0.33,276.0,2700.0,46.532007061970965,6.240596974565673,16849.611831327315,28.782212028685716,11.05198767880468,17.749795033285253,4.811390704239006,4645,106,1530,2344,139.13913500072863,80.31927063464713,0.0021566961439402,False
0.28,0.974211973881168,3.6000000000000005,9678.0,42.27132,0.3,68900.0,0.33,276.0,2700.0,55.72157866495435,7.755044851805816,20938.6210998757,33.9627594410192,14.606956760936582,21.75881922393515,6.851911909130766,5311,116,1750,2680,151.7126030090683,87.47873435748092,0.0024362243452986,False
0.29,0.6285412685111962,3.6000000000000005,9679.0,42.27132,0.1,68900.0,0.33,276.0,2700.0,28.279647991174944,4.049468756568102,10933.565642733874,19.181790774295443,5.50820570315916,9.0978572168795,1.458736946591058,36473,228,7642,21794,106.23125155559303,61.25292507686152,0.0014338586077366,False
0.3,0.9540460557692656,3.6000000000000005,9680.0,42.27132,0.2,68900.0,0.33,276.0,2700.0,53.18774067760785,7.921612433876555,21388.353571466698,33.01797262302399,13.931609957624415,20.169768054583862,6.009997523747862,10618,166,3516,5336,138.80761553177692,80.09004995305277,0.0022302071554562,False
0.31,0.8809752922497263,3.6000000000000005,9681.0,42.27132,0.2,68900.0,0.33,276.0,2700.0,46.6921256711175,7.1748853545278175,19372.190457225108,29.680171356541077,11.641726458680704,17.01195431457643,4.466841104152885,9229,152,3054,4640,125.3676320832031,72.30042764158678,0.0019656550321657,False
0.32,0.8973079531509847,3.6000000000000005,9682.0,42.27132,0.2,68900.0,0.33,276.0,2700.0,47.66116079364265,7.557156588267603,20404.322788322526,30.41458633254392,12.132470983392196,17.246574461098735,4.575314395124593,10258,158,3318,5213,129.15925434321105,74.49351593667711,0.0019614957767622,False
0.33,0.697458789505067,3.6000000000000005,9683.0,42.27132,0.08,68900.0,0.33,276.0,2700.0,31.897549871197217,5.187829451952839,14007.139520272667,21.889041588375218,6.922770115662631,10.008508282822,1.734940663709792,79909,302,13280,50313,103.45372806678034,59.706618758378895,0.0014484170900105,False
0.34,1.008061691113197,3.6000000000000005,9684.0,42.27132,0.2,68900.0,0.33,276.0,2700.0,56.29126934052032,9.487197682783998,25615.433743516794,35.57161797305058,15.78373503625747,20.719651367469737,6.296537353473472,11584,170,3668,5950,135.4125477626282,78.1375811556962,0.0021434981558359,False
0.3500000000000001,0.7645088024310702,3.6000000000000005,9685.0,42.27132,0.1,68900.0,0.33,276.0,2700.0,36.17258614930026,6.240405386112433,16849.094542503568,24.637494950294823,8.48194122558968,11.535091199005436,2.2415358394772467,53338,262,9832,32882,113.58821765158216,63.80493856919568,0.0015260515936875,False
0.36,1.0542061387586512,3.6000000000000005,9686.0,42.27132,0.3,68900.0,0.33,276.0,2700.0,59.56980981584304,10.624849668954491,28687.094106177126,37.81122438684998,17.476634613391184,21.758585428993065,6.851784944436693,5687,120,1882,2858,129.92060147664188,74.9434690411584,0.0021514835954892,False
0.37,0.8892933516425405,3.6000000000000005,9687.0,42.27132,0.3,68900.0,0.33,276.0,2700.0,45.1882203139945,8.253733362967463,22285.08008001215,30.05336374442752,11.890158799655111,15.134856569566978,3.6364254366876487,4053,100,1342,2034,109.35088504922864,63.133467808248746,0.0017067165563704,False
0.38,0.9994428564907016,3.6000000000000005,9688.0,42.27132,0.2,68900.0,0.33,276.0,2700.0,53.99253929214578,10.14365881744917,27387.87880711276,35.15923678799066,15.478927607235242,18.83330250415512,5.335268789786072,13740,166,3544,7656,123.094347244115,71.06793460861614,0.0019388857372268,False
0.39,0.7356211051229193,3.6000000000000005,9689.0,42.27132,0.1,68900.0,0.33,276.0,2700.0,32.75837101139852,6.2636449241438505,16911.841295188395,23.43950320721775,7.787574829532272,9.318867804180766,1.523929905388422,51842,246,9000,32318,95.94434749563644,55.37712563757322,0.0013481136319226,False
0.4,0.9393073546291432,3.6000000000000005,9690.0,42.27132,0.2,68900.0,0.33,276.0,2700.0,48.187723628141214,9.503503439075082,25659.45928550272,32.33391932171643,13.45001566104538,15.853804306424784,3.9465122219702966,12951,156,3182,7326,112.1622281717663,64.7021242489441,0.0017254172868544,False
0.4100000000000001,0.9768812706992837,3.6000000000000005,9691.0,42.27132,0.2,68900.0,0.33,276.0,2700.0,50.94939419241406,10.300278004592846,27810.750612400683,34.088583761240336,14.69778133804192,16.860810431173725,4.397503333449075,13494,160,3310,7645,113.03717018536058,65.16464089543574,0.0017715835866808,False
0.42,0.9993059602290818,3.6000000000000005,9692.0,42.27132,0.3,68900.0,0.33,276.0,2700.0,52.473510070246256,10.864267570405614,29333.52244009516,35.152701841582655,15.474114886467843,17.3208082286636,4.609847316062231,4975,112,1636,2509,108.7932155309298,62.635042152574414,0.0017671826788244,False
0.43,1.074890070533304,3.6000000000000005,9693.0,42.27132,0.2,68900.0,0.33,276.0,2700.0,58.64569494431351,12.442305341621427,33594.22442237786,38.8324827449032,18.269262684506337,19.81321219941032,5.826957342884908,15917,176,3902,9018,116.88166787948064,67.46641235103408,0.0019107075507549,False
0.44,1.1011465535644405,3.6000000000000005,9694.0,42.27132,0.3,68900.0,0.33,276.0,2700.0,60.592099709588695,13.151852983707204,35510.003056009446,40.14437084744924,19.30605198134185,20.447728862139456,6.15419899763465,5686,120,1888,2846,113.30469744358189,65.26574271627125,0.0019101619900162,False
0.45,0.8925488431406375,3.6000000000000005,9695.0,42.27132,0.1,68900.0,0.33,276.0,2700.0,42.67123201197036,9.410175448987747,25407.47371226692,30.19989587954203,11.988235714612625,12.47133613242833,2.578060265624874,74903,286,11672,47853,112.74324767029864,64.2674733586123,0.0014875875301845,False
0.46,0.8413291948943831,3.6000000000000005,9696.0,42.27132,0.1,68900.0,0.33,276.0,2700.0,38.37809635503214,8.62310211997085,23282.375723921297,27.92533265785426,10.499940263355848,10.452763697177884,1.8768381433849972,66861,266,10288,42839,94.49875829357656,54.54280918593444,0.0013729000398438,False
0.4700000000000001,0.8179680084275787,3.6000000000000005,9697.0,42.27132,0.08,68900.0,0.33,276.0,2700.0,36.302211818470695,8.313573394624855,22446.64816548711,26.90980294271072,9.85946005147706,9.39240887575998,1.545886656852204,122468,324,15340,81018,106.74555032225324,61.34630633223199,0.0018572036425697,False
0.4800000000000001,1.121431857523056,3.6000000000000005,9698.0,42.27132,0.3,68900.0,0.33,276.0,2700.0,60.848866292518814,14.372104567040656,38804.68233100977,41.1697769602727,20.13077560106398,19.679089332246114,5.758671034023326,5744,120,1862,2911,296.0688241635043,170.79777623754447,0.0018022383816939,True
0.49,1.1028014506733728,3.6000000000000005,9699.0,42.27132,0.2,68900.0,0.33,276.0,2700.0,58.807873498176505,14.161525517651777,38236.11889765979,40.22763715194195,19.372555673687952,18.58023634623456,5.211030156036177,15911,174,3884,9033,107.95868558948412,62.31092998632796,0.0017688069595161,False
0.5,0.8016006606123776,3.6000000000000005,9700.0,42.27132,0.1,68900.0,0.33,276.0,2700.0,34.171592825872544,8.281098818668989,22358.96681040627,26.206472355588147,9.42478295843898,7.965120470284397,1.1436841397699915,63217,248,9272,40813,87.66643043950138,50.57550175529448,0.0012364003115383,False
0.03,0.4106070222108684,3.6000000000000005,9703.0,45.2907,0.1,68900.0,0.33,276.0,2700.0,21.835892473674765,0.3274818384373594,884.2009637808703,11.406378577187429,2.1967796773873225,10.429513896487338,1.869297838949963,17864,198,5868,9056,636.9843850481838,363.3927016011801,0.0072026122338018,True
0.04,0.5001384363923062,3.6000000000000005,9704.0,45.2907,0.1,68900.0,0.33,276.0,2700.0,27.524928408288176,0.5503645268792142,1485.9842225738785,14.456197447777203,3.3530330904661594,13.06873096051097,2.8026685635869453,22879,226,7506,11614,644.5786667986114,368.24485402639937,0.0069133174649675,True
0.05,0.5208279960468534,3.6000000000000005,9705.0,45.2907,0.1,68900.0,0.33,276.0,2700.0,28.625206919036827,0.7153683735877466,1931.494608686916,15.18962805512902,3.6596940794396593,13.435578863907809,2.944325705851913,23766,232,7816,12036,513.4966704500987,293.4066938112341,0.0058866508538101,True
0.06,0.709669203910663,3.6000000000000005,9706.0,45.2907,0.2,68900.0,0.33,276.0,2700.0,42.380205377852754,1.2709537719934658,3431.5751843823577,22.38114520879224,7.193044966114996,19.999060169060517,5.92209119412153,9016,148,2956,4576,527.2976344960538,301.0931706103479,0.0072310346652302,True
0.0699999999999999,0.6490992764744312,3.6000000000000005,9707.0,45.2907,0.2,68900.0,0.33,276.0,2700.0,37.28999150629463,1.304431325200197,3521.964578040532,19.97686703900508,5.91069950565691,17.313124467289548,4.606268180456714,8054,138,2646,4079,414.33387869701886,237.0237822505005,0.0056161044825355,True
0.08,0.6646966448474264,3.6000000000000005,9708.0,45.2907,0.2,68900.0,0.33,276.0,2700.0,38.10877197658877,1.5232785487711265,4112.852081682041,20.5871782373842,6.227037736922467,17.52159373920457,4.7037591881513405,7995,138,2622,4056,385.3851257745811,220.64387744070373,0.0051116798553238,True
0.09,0.7557978237558332,3.6000000000000005,9709.0,45.2907,0.2,68900.0,0.33,276.0,2700.0,44.90453376581333,2.019177205431957,5451.778454666283,24.27403630233738,8.268908957125474,20.630497463475955,6.249731751693517,9200,150,3014,4673,384.39095253226606,220.04838639878443,0.0053759703411649,True
0.0999999999999999,0.4775485596048417,3.6000000000000005,9710.0,45.2907,0.1,68900.0,0.33,276.0,2700.0,23.99888208454936,1.1978497091250746,3234.1942146377014,13.667687763129994,3.035399683114986,10.331194321419368,1.8375499739899115,19606,208,6440,9940,213.00560644424783,122.91806891182142,0.0028051284746236,False
0.11,0.6187704875488851,3.6000000000000005,9711.0,45.2907,0.1,68900.0,0.33,276.0,2700.0,33.568521700212685,1.8434810536304052,4977.398844802095,18.80763191860539,5.322614492799247,14.760889781607291,3.479133439168841,27361,250,9010,13840,256.2107992875593,147.44798607816787,0.0034890700139321,False
0.12,0.6034658008952534,3.6000000000000005,9712.0,45.2907,0.1,68900.0,0.33,276.0,2700.0,32.099374195791846,1.922343337010572,5190.327009928545,18.226382244680224,5.039225009784341,13.872991951111622,3.1168816727737694,26099,246,8616,13169,223.16306675098505,128.5518573296518,0.0031240867506689,False
0.13,0.4969263070507559,3.6000000000000005,9713.0,45.2907,0.2,68900.0,0.33,276.0,2700.0,24.33484423678379,1.5771634893509834,4258.341421247656,14.34329446709578,3.306779313377909,9.99154976968801,1.7296158240269257,5034,106,1652,2550,179.4199171385276,103.3666807104202,0.0023164958015651,False
0.15,0.6552677022280272,3.6000000000000005,9715.0,45.2907,0.1,68900.0,0.33,276.0,2700.0,34.8545246114964,2.60702076239165,7038.956058457456,20.217501188947683,6.034667002154547,14.63702342254872,3.4276462397628973,28813,258,9548,14485,196.4555460201088,113.3671331938738,0.0028116668213136,False
0.16,0.6826201195112671,3.6000000000000005,9716.0,45.2907,0.1,68900.0,0.33,276.0,2700.0,36.549721807141566,2.915399102231917,7871.577576026176,21.29605791387018,6.602372238533792,15.253663893271389,3.6869731363018743,29734,264,9808,14990,194.48496338239352,112.03319808811598,0.0027857987966456,False
0.17,0.6836460288192683,3.6000000000000005,9717.0,45.2907,0.3,68900.0,0.33,276.0,2700.0,36.27069047707772,3.0727189274135487,8296.341104016581,21.33687727957855,6.624240998793539,14.93381319749917,3.55152207137999,3355,90,1102,1696,187.66440034894885,108.2503060492397,0.0026431289960748,False
0.18,0.5043119756739686,3.6000000000000005,9718.0,45.2907,0.04,68900.0,0.33,276.0,2700.0,23.260753361976867,2.0812532903407623,5619.383883920058,14.603280331046182,3.413673374218218,8.657473030930685,1.3324200838774556,254662,508,39030,163317,634.0964159755755,359.62971212902414,0.001787281563898,True
0.19,0.7847115403935975,3.6000000000000005,9719.0,45.2907,0.2,68900.0,0.33,276.0,2700.0,43.3843334834754,4.107146224922851,11089.2948072917,25.48777857517456,8.98825783887775,17.896554908300846,4.881111613954899,8864,148,2926,4469,187.1559999354575,108.00774729770572,0.0028249620949935,False
0.2,0.7562740600150258,3.6000000000000005,9720.0,45.2907,0.3,68900.0,0.33,276.0,2700.0,40.76502855306838,4.059747694486863,10961.31877511453,24.29385759966588,8.28047385295413,16.471170953402503,4.220726158467266,3730,94,1224,1888,178.73558552633534,103.1266902355693,0.0025782270801327,False
0.21,0.8413913317840832,3.6000000000000005,9721.0,45.2907,0.3,68900.0,0.33,276.0,2700.0,47.219434200124674,4.938644397969839,13334.339874518564,27.92805208858029,10.501675541159026,19.29138211154438,5.563031143189187,4602,106,1506,2337,186.7686661442,107.63322703256756,0.0028175293812145,False
0.22,0.600182742956645,3.6000000000000005,9722.0,45.2907,0.08,68900.0,0.33,276.0,2700.0,28.51832401232516,3.1147145223054893,8409.729210224821,18.1024633514921,4.9795902314298175,10.415860660833058,1.864875709124328,51991,286,11854,30286,134.01170845430943,77.2907102066086,0.0018237209178852,False
0.23,0.5919576382462114,3.6000000000000005,9723.0,45.2907,0.2,68900.0,0.33,276.0,2700.0,27.62684755295095,3.151604963378476,8509.333401121885,17.793196577044558,4.831968616069894,9.83365097590639,1.6803636526914176,5684,114,1880,2858,123.92167846486043,71.38791135062414,0.0017202705211512,False
0.24,0.7280465022329361,3.6000000000000005,9724.0,45.2907,0.3,68900.0,0.33,276.0,2700.0,37.16137806774254,4.4304124502336215,11962.113615630778,23.128850134050577,7.61120734783492,14.032527933691965,3.1807948976012987,3598,92,1182,1819,143.37433632493986,82.76497105780393,0.0020934016097252,False
0.25,0.797994167275512,3.6000000000000005,9725.0,45.2907,0.3,68900.0,0.33,276.0,2700.0,42.22138797945583,5.244948573957086,14161.361149684131,26.052400909780264,9.33054741757296,16.168987069675563,4.085598843615872,3927,98,1292,1983,150.32313804520953,86.77377209247811,0.0022526507077748,False
0.26,0.682136863799853,3.6000000000000005,9726.0,45.2907,0.2,68900.0,0.33,276.0,2700.0,33.064671335953896,4.261596185354343,11506.309700456726,21.276839071430334,6.5920854409604965,11.787832264523558,2.330489255606153,6869,128,2274,3452,125.36728280282932,71.97334884061773,0.0018166384414973,False
0.27,0.8606717478698936,3.6000000000000005,9727.0,45.2907,0.3,68900.0,0.33,276.0,2700.0,46.52154927424596,6.2391851732228,16845.799967701558,28.77654893100004,11.048304681040108,17.74500034324592,4.809119507817308,4633,106,1526,2338,150.60324649616962,86.78811800815446,0.0023102195706852,False
0.28,0.799121109212567,3.6000000000000005,9728.0,45.2907,0.2,68900.0,0.33,276.0,2700.0,41.22922232443719,5.726114964133468,15460.510403160364,26.10050939570864,9.359934065456793,15.128712928728548,3.6338191013233248,8658,146,2866,4353,135.13777584179,77.88112392398645,0.0020428128894245,False
0.29,0.6324031235468972,3.6000000000000005,9729.0,45.2907,0.05,68900.0,0.33,276.0,2700.0,28.54859309199881,4.088465796187561,11038.857649706411,19.330336880182266,5.582569709590608,9.218256211816549,1.4941039134030474,246199,454,30650,163132,140.04215474666762,79.21224382182223,0.0015494314514855,False
0.3,0.7357359492207736,3.6000000000000005,9730.0,45.2907,0.3,68900.0,0.33,276.0,2700.0,35.68626354224142,5.296390863571596,14300.25533164331,23.4442243430162,7.790266989226377,12.24203919922522,2.493876125654781,3442,90,1136,1732,120.64484440108669,69.4754118161595,0.0017520234639601,False
0.31,0.6945939580344578,3.6000000000000005,9731.0,45.2907,0.08,68900.0,0.33,276.0,2700.0,32.33215981903992,4.9490906474557335,13362.54474813048,21.774125984884435,6.860226356621888,10.55803383415548,1.911135709166154,77953,306,13432,48679,117.80562963579204,67.04851519215731,0.0016226318459828,False
0.32,1.0105328570383958,3.6000000000000005,9732.0,45.2907,0.3,68900.0,0.33,276.0,2700.0,57.30177748245162,9.099655258477032,24569.069197887988,35.69019903055621,15.871784891625389,21.61157845189541,6.7721296331483565,5580,118,1844,2808,148.7578500044414,85.81934618198619,0.0024245339487174,False
0.33,0.8887614867351679,3.6000000000000005,9733.0,45.2907,0.3,68900.0,0.33,276.0,2700.0,46.591738334737606,7.612370548436961,20553.400480779797,30.02944941580897,11.874180830042194,16.562288918928637,4.261810281605233,4199,102,1392,2105,127.62925241164216,73.55928159455716,0.0020127335228253,False
0.34,0.744395049894333,3.6000000000000005,9734.0,45.2907,0.1,68900.0,0.33,276.0,2700.0,35.003393199009864,5.868258738727215,15844.29859456348,23.801146773347515,7.994816841848428,11.202246425662349,2.126558103121212,50891,256,9436,31357,113.7522528223826,65.64411609867265,0.0016256629247796,False
0.3500000000000001,0.8068995393167673,3.6000000000000005,9735.0,45.2907,0.1,68900.0,0.33,276.0,2700.0,39.39158076049069,6.803729443070764,18370.069496291064,26.433436454502548,9.564248892726988,12.958144305988142,2.760519449656223,57984,274,10664,35768,128.32563623107427,71.96372112509063,0.0017352312731139,False
0.36,0.8084955198434527,3.6000000000000005,9736.0,45.2907,0.1,68900.0,0.33,276.0,2700.0,39.17436741582123,6.953670036950566,18774.90909976653,26.501934534417163,9.606490794848428,12.672432881404069,2.652820757897862,59013,274,10690,36496,122.21286556218212,68.77085933175852,0.0017010444568213,False
0.37,0.6989625666009348,3.6000000000000005,9737.0,45.2907,0.2,68900.0,0.33,276.0,2700.0,30.75028939672332,5.5827161432722905,15073.333586835184,21.949444427654665,6.955731764134729,8.800844969068653,1.3730156208624384,7545,120,2054,4116,105.77294334660895,61.0530696710626,0.0014202986818625,False
0.38,0.8009036751847011,3.6000000000000005,9738.0,45.2907,0.2,68900.0,0.33,276.0,2700.0,37.92354510322403,7.090549921554044,19144.48478819592,26.17667125869997,9.406527815270591,11.74687384452406,2.315977893716549,10197,138,2610,5694,111.90582071234576,64.60885280474646,0.0016089935674132,False
0.39,0.8490292978504181,3.6000000000000005,9739.0,45.2907,0.2,68900.0,0.33,276.0,2700.0,41.2938995587158,7.928072990870723,21405.79707535095,28.263067939278574,10.716267541923449,13.030831619437222,2.788194551052724,10963,142,2742,6172,113.62988514302984,65.55590680233678,0.0016825556807798,False
0.4,0.9778091469546693,3.6000000000000005,9740.0,45.2907,0.2,68900.0,0.33,276.0,2700.0,51.39754993155209,10.145468699757252,27392.76548934458,34.132363590093725,14.729431634952403,17.265186341458367,4.583962935195151,13662,162,3376,7718,124.296805576808,71.73528011495212,0.0019370138445307,False
0.4100000000000001,0.8513004057804499,3.6000000000000005,9741.0,45.2907,0.3,68900.0,0.33,276.0,2700.0,40.79219692170514,8.218052564097134,22188.74192306226,28.36296589272241,10.7805694346306,12.429231028982729,2.562516870533466,3792,96,1256,1900,102.4005710634964,58.93342850738489,0.0016031887181846,False
0.42,1.0475812503488948,3.6000000000000005,9742.0,45.2907,0.3,68900.0,0.33,276.0,2700.0,56.631319336729376,11.737407516367064,31691.00029419107,37.486397453431934,17.227216051253016,19.14492188329744,5.489808534885952,5356,116,1760,2702,128.4698666974957,74.05357101317102,0.0020050076799492,False
0.43,0.8030767954217874,3.6000000000000005,9743.0,45.2907,0.2,68900.0,0.33,276.0,2700.0,36.45749282785916,7.67184188658374,20713.973093776098,26.269627954905765,9.463513850867647,10.18786487295339,1.7916719642839087,9864,132,2472,5540,101.81990950268332,58.68058445341874,0.0014667701582901,False
0.44,1.068884071445512,3.6000000000000005,9744.0,45.2907,0.3,68900.0,0.33,276.0,2700.0,57.72979338830981,12.522145593025902,33809.79310116993,38.53483187162174,18.03692912774812,19.194961516688068,5.514783534722215,5466,118,1814,2735,121.17683100647682,69.71028645558398,0.0019776527053585,False
0.45,0.7755758502427169,3.6000000000000005,9745.0,45.2907,0.08,68900.0,0.33,276.0,2700.0,33.79839221282376,7.41378649417977,20017.22353428538,25.102009288686997,8.757173122434546,8.696382924136763,1.343386628254776,108863,310,14024,71753,102.2600610760721,58.08387438055544,0.001374538764218,False
0.46,1.0833172619269331,3.6000000000000005,9746.0,45.2907,0.3,68900.0,0.33,276.0,2700.0,58.23309979466036,13.189752911085344,35612.33285993043,39.25165377557675,18.598276412688023,18.981446019083613,5.408523501602678,5552,118,1820,2798,115.63632859014054,66.63632219819256,0.0019338418652742,False
0.4700000000000001,0.8766091175643227,3.6000000000000005,9747.0,45.2907,0.2,68900.0,0.33,276.0,2700.0,40.75986934118758,9.361122912463316,25275.03186365095,29.484977482074378,11.51256394544796,11.274891859113204,2.1514410329846445,10758,140,2636,6094,103.14680181574482,59.54487256768456,0.0015048997443336,False
0.4800000000000001,1.0652932177138026,3.6000000000000005,9748.0,45.2907,0.3,68900.0,0.33,276.0,2700.0,55.90116508803578,13.184656277964738,35598.57195050479,38.35730606028922,17.89887501450536,17.543859027746564,4.714218736540623,5671,116,1774,2922,112.42024450741798,64.83620032870132,0.0018345562757233,False
0.49,1.0793811640118802,3.6000000000000005,9749.0,45.2907,0.3,68900.0,0.33,276.0,2700.0,56.75231892170351,13.657914646415907,36876.36954532295,39.05564894268485,18.44416393492586,17.69666997901865,4.7862492885099535,5839,116,1786,3042,116.15155354116509,67.03768946182716,0.0018340817336655,False
0.5,1.1039654081577135,3.6000000000000005,9750.0,45.2907,0.2,68900.0,0.33,276.0,2700.0,58.53150666314348,14.37107727798665,38801.90865056396,40.28624301340951,19.419413037091285,18.24526364973397,5.048335759104635,15575,172,3790,8852,115.01218141722684,66.35742204128469,0.0018665600478324,False
0.03,0.5476411655046726,3.6000000000000005,9753.0,48.31008,0.1,68900.0,0.33,276.0,2700.0,31.23209835540114,0.4684249266632564,1264.7473019907925,16.156142172994148,4.079893429775365,15.07595618240699,3.611468503112108,25957,244,8530,13156,926.365735063156,528.6065911559815,0.0107899161597939,True
0.04,0.403086025776001,3.6000000000000005,9754.0,48.31008,0.08,68900.0,0.33,276.0,2700.0,21.028809618776105,0.4204421510889687,1135.1938079402155,11.159354190588308,2.1119221705534974,9.869455428187797,1.6914800194645288,27300,244,8954,13863,546.2826413560156,312.4231093343912,0.0057411916623167,True
0.05,0.702925294002494,3.6000000000000005,9755.0,48.31008,0.2,68900.0,0.33,276.0,2700.0,42.23489891815824,1.0556106735661623,2850.1488186286383,22.10888916138948,7.043027216695857,20.126009756768767,5.987416543129695,8900,148,2930,4499,649.8741786856508,374.6604734725333,0.0090426111249048,True
0.06,0.5736629629560317,3.6000000000000005,9756.0,48.31008,0.2,68900.0,0.33,276.0,2700.0,32.04582216148686,0.9609222755025651,2594.4901438569264,17.111407310827374,4.512697243212437,14.934414850659486,3.551774967709872,6970,128,2282,3541,473.6903732334925,270.92260929035893,0.0059526525908356,True
0.0699999999999999,0.6320769969945492,3.6000000000000005,9757.0,48.31008,0.2,68900.0,0.33,276.0,2700.0,36.001760475717546,1.2593432391299884,3400.2267456509685,19.317777944631345,5.576267621441973,16.6839825310862,4.316924382311985,7559,132,2478,3836,443.6916971925577,253.9799694619574,0.0058040906607871,True
0.08,0.6982727584596465,3.6000000000000005,9758.0,48.31008,0.2,68900.0,0.33,276.0,2700.0,40.710365843231465,1.62734230343683,4393.8242192794405,21.92172956170083,6.940600418329318,18.78863628153064,5.313258114892488,8342,142,2744,4220,426.94909966881113,244.02707597468583,0.0057928734473962,True
0.09,0.7866210387999304,3.6000000000000005,9759.0,48.31008,0.2,68900.0,0.33,276.0,2700.0,47.42409122514153,2.1325572911017168,5757.904685974635,25.56867526694079,9.037003932918036,21.85541595820074,6.904446641816319,9689,156,3176,4919,445.2563694969899,254.71781164766563,0.0060299251574733,True
0.0999999999999999,0.5169170520423143,3.6000000000000005,9760.0,48.31008,0.1,68900.0,0.33,276.0,2700.0,26.66488910875877,1.3311500603355493,3594.105162905983,15.050163181884493,3.600561139607167,11.61472592687428,2.2694110792716176,22285,224,7334,11278,243.8017452939976,140.70866726614506,0.0032795668363655,False
0.11,0.7714802618100702,3.6000000000000005,9761.0,48.31008,0.3,68900.0,0.33,276.0,2700.0,45.39057101804895,2.4936937661114085,6732.973168500803,24.92974741570166,8.654718524305155,20.460823602347286,6.161024758193746,4335,104,1418,2202,339.667517481764,196.09146310345164,0.0048893403256426,True
0.12,0.6006394938007091,3.6000000000000005,9762.0,48.31008,0.1,68900.0,0.33,276.0,2700.0,31.894507991891256,1.910051364776541,5157.13868489666,18.11968717203953,4.98786248014297,13.774820819851726,3.077811115366429,26146,246,8636,13186,236.44426784303704,136.36571151441643,0.0033138211612816,False
0.13,0.5011036363192759,3.6000000000000005,9763.0,48.31008,0.1,68900.0,0.33,276.0,2700.0,24.61495465887205,1.595370666786728,4307.5008003241655,14.490173880949555,3.3670026063291614,10.1247807779225,1.7716319395424334,20260,212,6686,10225,187.436819135291,108.05856956957116,0.0024943988795792,False
0.14,0.620865588068855,3.6000000000000005,9764.0,48.31008,0.2,68900.0,0.33,276.0,2700.0,32.67032564340328,2.2811757748772608,6159.174592168604,18.887658878482718,5.362102185213193,13.782666764920569,3.0809264103359326,6936,126,2270,3525,214.8588314981737,124.0404075109232,0.002996108187505,False
0.15,0.5986148135824847,3.6000000000000005,9765.0,48.31008,0.08,68900.0,0.33,276.0,2700.0,30.719853589363293,2.296920435731641,6201.685176475431,18.04337749861716,4.95125317669233,12.676476090746135,2.6543327409606885,49478,300,12916,27492,196.110570709102,113.1468913846828,0.0026995188129412,False
0.16,0.6133092506187636,3.6000000000000005,9766.0,48.31008,0.3,68900.0,0.33,276.0,2700.0,31.435414662229626,2.5062545306389663,6766.887232725209,18.59954657083718,5.220470101629387,12.835868091392443,2.714215570990421,3075,84,1010,1554,196.738013024896,113.54213618551404,0.0026159057445444,False
0.17,0.8530822583855027,3.6000000000000005,9767.0,48.31008,0.3,68900.0,0.33,276.0,2700.0,49.75587643790355,4.218959734083742,11391.191282026104,28.441433997550384,10.831177956742977,21.31444244035317,6.6122182226592345,4659,108,1520,2373,244.4840722856031,140.82911629633873,0.0037114390617426,False
0.18,0.519333323847094,3.6000000000000005,9768.0,48.31008,0.08,68900.0,0.33,276.0,2700.0,24.258802576632394,2.171077719659758,5861.9098430813465,15.136282427462689,3.637030438767544,9.122520149169706,1.4659527191077864,41837,262,10282,23702,148.7453701090513,85.81474175949761,0.0019657040668423,False
0.19,0.6272771762953218,3.6000000000000005,9769.0,48.31008,0.3,68900.0,0.33,276.0,2700.0,31.427058071694397,2.9712050608035803,8022.253664169667,19.133248941612,5.483988835662092,12.293809130082394,2.512783774858512,3174,86,1032,1620,168.97092428686247,97.46790629077826,0.0023027228311507,False
0.2,0.6726326813753785,3.6000000000000005,9770.0,48.31008,0.2,68900.0,0.33,276.0,2700.0,34.39785124272975,3.4230299634535144,9242.18090132449,20.90005523196094,6.3916587902377096,13.497796010768807,2.968628826784195,7194,130,2370,3633,165.83671133668284,95.5433111091529,0.0023877102585856,False
0.21,0.5419951258912198,3.6000000000000005,9771.0,48.31008,0.05,68900.0,0.33,276.0,2700.0,24.84574961862358,2.5894075169122117,6991.40029566297,15.951121824235372,3.9892543645271457,8.894627794388207,1.3998468476149344,163711,424,26726,103514,151.34630290740034,85.45804015933518,0.0018149112891809,False
0.22,0.7872009299002471,3.6000000000000005,9772.0,48.31008,0.1,68900.0,0.33,276.0,2700.0,42.46585724459972,4.648943177855682,12552.14658021034,25.593260734356317,9.05183810819069,16.872596510243405,4.402894930335008,46801,288,11534,26518,177.78286998499303,102.59320206899244,0.0026607172035896,False
0.23,0.6612411869714598,3.6000000000000005,9773.0,48.31008,0.1,68900.0,0.33,276.0,2700.0,32.54284273520762,3.7169444093380575,10035.749905212757,20.45144200084765,6.1561342115742335,12.091400734359972,2.439189802236175,35947,248,8860,20351,973.2091867656565,527.2823580065262,0.0020883389397079,True
0.24,0.8261319629221447,3.6000000000000005,9774.0,48.31008,0.3,68900.0,0.33,276.0,2700.0,44.838315358889815,5.351644925171298,14449.441297962505,27.2631375598404,10.08059162240616,17.575177799049417,4.728946697234861,4462,104,1464,2260,171.90323161701306,99.24671311683056,0.0026031815616019,False
0.25,0.5512862672790321,3.6000000000000005,9775.0,48.31008,0.08,68900.0,0.33,276.0,2700.0,24.244556757899947,2.9978446712625977,8094.180612409013,16.28892957279081,4.139026122635311,7.955627185109137,1.1411814513727134,53051,260,10110,32510,122.30042058046762,70.58736554683223,0.001607201459345,False
0.26,0.7927643588798747,3.6000000000000005,9776.0,48.31008,0.2,68900.0,0.33,276.0,2700.0,41.4472189012194,5.351327368838862,14448.583895864927,25.82956124092464,9.194881356536175,15.61765766029476,3.843553987697313,8354,144,2762,4205,152.77420712456257,88.10531905482054,0.0023068108561866,False
0.27,0.9417001621861432,3.6000000000000005,9777.0,48.31008,0.3,68900.0,0.33,276.0,2700.0,53.307811932213056,7.155330632048363,19319.39270653058,32.44460319282339,13.52751690145403,20.86320873938967,6.372186269405667,4932,112,1618,2499,172.97678594609735,99.8569637936505,0.0027575882098406,False
0.28,0.9237583258986828,3.6000000000000005,9778.0,48.31008,0.3,68900.0,0.33,276.0,2700.0,51.38746080547606,7.148268351478903,19300.32454899304,31.61817512424965,12.95282705759918,19.76928568122641,5.804558706120277,4738,110,1562,2389,164.4085690949465,94.83951657015172,0.0026070580475071,False
0.29,0.7069028265760176,3.6000000000000005,9779.0,48.31008,0.1,68900.0,0.33,276.0,2700.0,33.88358157553458,4.862039126300245,13127.505641010664,22.269326476838,7.131284984028532,11.614255098696578,2.2692458577282864,44941,254,9262,26978,131.67195697668478,75.98746376912511,0.0018598984949756,False
0.3,0.8845906332658149,3.6000000000000005,9780.0,48.31008,0.2,68900.0,0.33,276.0,2700.0,47.3597992434907,7.047421218758988,19028.037290649267,29.842161131858838,11.74932312471934,17.517638111631864,4.701901905960352,9432,154,3126,4737,148.10964511720655,85.27489505765307,0.0023214901895199,False
0.31,0.6359396123948048,3.6000000000000005,9781.0,48.31008,0.08,68900.0,0.33,276.0,2700.0,28.17428579478911,4.304620173696911,11622.47446898166,19.466696576669364,5.651172255031553,8.707589218119747,1.346552081334642,67470,282,11618,42129,116.01455339144628,66.9166897806422,0.0015778007540096,False
0.32,0.7527581775381611,3.6000000000000005,9782.0,48.31008,0.05,68900.0,0.33,276.0,2700.0,36.28984305623069,5.73774575028169,15491.913525760565,24.147658327014508,8.19531660547915,12.142184729216186,2.457570855197459,332597,520,38508,222667,168.63407404251225,94.42633964814137,0.0018433802637307,False
0.33,1.0229529716436718,3.6000000000000005,9783.0,48.31008,0.2,68900.0,0.33,276.0,2700.0,57.99690806155872,9.494223553362486,25634.403594078714,36.28851325699454,16.31877280681289,21.70839480456418,6.824549253450405,12020,176,3842,6145,157.5294677313697,90.8999644059931,0.0025602068462851,False
0.34,0.8022911638650323,3.6000000000000005,9784.0,48.31008,0.1,68900.0,0.33,276.0,2700.0,39.378386380476606,6.612007579576563,17852.42046485672,26.236008332678463,9.442888809495717,13.14237804779814,2.830881229919152,57560,276,10794,35351,128.85881094465367,74.12570722513864,0.0018828303038951,False
0.3500000000000001,0.6750762734037319,3.6000000000000005,9785.0,48.31008,0.05,68900.0,0.33,276.0,2700.0,29.677710246580805,5.103802103136528,13780.265678468624,20.99671219227715,6.442848063122918,8.680998054303654,1.3390459599863904,291309,462,32038,196262,147.1769045696029,82.84695070817733,0.0015326202290895,False
0.36,0.6882637041821739,3.6000000000000005,9786.0,48.31008,0.08,68900.0,0.33,276.0,2700.0,30.300200222390465,5.3563199421330285,14462.063843759175,21.520935017816484,6.723192524551327,8.779265204573978,1.3668725824182983,82266,294,12700,52650,110.6254269800316,63.82691848308873,0.0015298809430554,False
0.37,0.7129041269386234,3.6000000000000005,9787.0,48.31008,0.2,68900.0,0.33,276.0,2700.0,31.746050011127167,5.766931856937007,15570.71601372992,22.51214681609056,7.265658067300427,9.233903195036609,1.4987262103634196,8002,122,2150,4389,113.3178146690822,65.41621895646328,0.0015457716112422,False
0.38,0.7300279525624989,3.6000000000000005,9788.0,48.31008,0.08,68900.0,0.33,276.0,2700.0,32.66704706522024,6.091815294333283,16447.901294699863,23.209975012446183,7.657116371720699,9.457072052774052,1.5653010773874163,92350,306,13702,59585,124.293785289907,71.03127305620453,0.0015608621251132,False
0.39,0.7402048393137262,3.6000000000000005,9789.0,48.31008,0.2,68900.0,0.33,276.0,2700.0,33.090823369918674,6.3284731340551375,17086.877461948872,23.62819373850709,7.895447533713635,9.462629631411584,1.5669743996584975,8653,124,2206,4834,111.03109349163864,64.09907557896452,0.0015465964741494,False
0.4,0.8415594079135771,3.6000000000000005,9790.0,48.31008,0.08,68900.0,0.33,276.0,2700.0,40.373371430866015,7.940632999620041,21439.709098974112,27.935408452990647,10.506370198263063,12.437962977875369,2.5657371986430224,117644,346,16916,76314,415.4044784044462,230.66389077015108,0.0017460516392975,True
0.4100000000000001,0.7330239102990564,3.6000000000000005,9791.0,48.31008,0.05,68900.0,0.33,276.0,2700.0,31.95068311894725,6.405542234532142,17294.96403323678,23.3328234176972,7.726836443919213,8.617859701250048,1.3212942093870712,362971,482,34412,248921,140.70863663240436,78.85071313637508,0.0014832566971252,False
0.42,0.8065687789119967,3.6000000000000005,9792.0,48.31008,0.2,68900.0,0.33,276.0,2700.0,37.04108917718425,7.623459182862589,20583.33979372899,26.41924851738071,9.555508105065517,10.62184065980354,1.932048922202928,10283,136,2546,5804,110.9700890781935,64.0684378827411,0.0016001346962998,False
0.43,0.9177448192106612,3.6000000000000005,9793.0,48.31008,0.2,68900.0,0.33,276.0,2700.0,45.36499892345592,9.586955697137045,25884.78038227001,31.34299418305945,12.763518806693098,14.022004740396476,3.1765631095560547,12167,150,3010,6870,119.50272284819717,68.97683081364876,0.0018121753630829,False
0.44,1.1282676638319526,3.6000000000000005,9794.0,48.31008,0.3,68900.0,0.33,276.0,2700.0,63.038744391671855,13.690114813765542,36963.309997166965,41.51765131465238,20.41339255399539,21.521093077019472,6.7232777402298485,5846,122,1928,2946,131.79882825719395,76.07343123823459,0.0022515268894453,False
0.45,1.0494181239268412,3.6000000000000005,9795.0,48.31008,0.2,68900.0,0.33,276.0,2700.0,55.649992971914735,12.33039666497524,33292.07099543315,37.576351243679554,17.296156428157243,18.07364172823518,4.965759763182003,14857,168,3648,8413,126.79065742814085,73.18762310601127,0.0020400010383943,False
0.46,0.7827135917075588,3.6000000000000005,9796.0,48.31008,0.08,68900.0,0.33,276.0,2700.0,34.01155511080797,7.618797633799291,20570.75361125809,25.40323275476445,8.937419040972497,8.60832235604352,1.3186214071732056,112386,312,14222,74257,107.09792779484576,60.55020848360191,0.0014567621128211,False
0.4700000000000001,1.169012784217388,3.6000000000000005,9797.0,48.31008,0.3,68900.0,0.33,276.0,2700.0,65.5669963368085,15.19079775643422,41015.1539423724,43.61553381664001,22.147631820022223,21.95146252016849,6.956834063588003,6129,126,2010,3084,129.02129187488973,74.42843678213072,0.0022215096352621,False
0.4800000000000001,0.8261862667452675,3.6000000000000005,9798.0,48.31008,0.2,68900.0,0.33,276.0,2700.0,36.60205812448681,8.552870606712965,23092.75063812501,27.26549342859152,10.08207217897199,9.33656469589529,1.5292015722590246,9723,130,2374,5514,103.3251126486144,59.61220007732021,0.0014845577752377,False
0.49,1.1504980182927462,3.6000000000000005,9799.0,48.31008,0.2,68900.0,0.33,276.0,2700.0,63.07936267137763,15.20804036508606,41061.708985732366,42.65707438395408,21.34898653945373,20.422288287423548,6.140946174367665,17114,184,4184,9710,127.55531240537772,73.5794457069021,0.0021291739154851,False
0.5,0.8554782869815785,3.6000000000000005,9800.0,48.31008,0.2,68900.0,0.33,276.0,2700.0,38.17575107789005,9.28213838167336,25061.773630518077,28.547074591985567,10.899450976047673,9.628676485904482,1.6173125943743116,10160,134,2480,5768,102.93492650922757,59.2540129214153,0.0014927382703465,False
0.03,0.3596312081702976,3.6000000000000005,9803.0,51.32946,0.035,68900.0,0.33,276.0,2700.0,18.581435926236185,0.2786649902257771,752.3954736095982,9.75993287432006,1.657572127680428,8.821503051916126,1.3789071374546509,122819,520,40434,62162,708.3815142270909,404.3439098489808,0.0070172607700439,True
0.04,0.6162548857833499,3.6000000000000005,9804.0,51.32946,0.1,68900.0,0.33,276.0,2700.0,35.91917801523373,0.7182495190181218,1939.273701348929,18.711688744748837,5.275422691489474,17.2074892704849,4.5571731724713525,29915,264,9814,15188,892.113654516349,508.7084221973477,0.0100656039770902,True
0.05,0.6977783045996774,3.6000000000000005,9805.0,51.32946,0.2,68900.0,0.33,276.0,2700.0,41.827330350864486,1.045421459383811,2822.6379403362894,21.90187092892339,6.929766044372333,19.925459421941092,5.884344584988522,8695,146,2862,4396,681.3408255115263,392.1737329678542,0.0095206133920572,True
0.06,0.5817955664077205,3.6000000000000005,9806.0,51.32946,0.1,68900.0,0.33,276.0,2700.0,32.63763830172236,0.9786767597095136,2642.427251215687,17.413447219486905,4.653084592230821,15.224191082235455,3.674407832521307,26934,250,8846,13659,549.5536805240015,314.8302897504919,0.0064254115486499,True
0.0699999999999999,0.4709007778915351,3.6000000000000005,9807.0,51.32946,0.2,68900.0,0.33,276.0,2700.0,24.525933518954872,0.8576892956432386,2315.761098236744,13.438086459007051,2.9453036633182923,11.08784705994782,2.087614367675054,5047,108,1656,2557,349.604794998439,201.84427892277864,0.004345663427372,True
0.08,0.6784805719860745,3.6000000000000005,9808.0,51.32946,0.2,68900.0,0.33,276.0,2700.0,39.16994194716818,1.5657253475942992,4227.458438504607,21.13162033762955,6.514556691846206,18.038321609538627,4.948831344251907,8252,140,2708,4184,436.8179006088084,251.978109626924,0.0059398245847848,True
0.09,0.6175239976951974,3.6000000000000005,9809.0,51.32946,0.2,68900.0,0.33,276.0,2700.0,34.189372880559176,1.5369949655955133,4149.886407107886,18.760071846701383,5.299200616070599,15.42930103385779,3.7622056504750856,7213,130,2366,3658,354.0513198811916,203.0602401535983,0.0047511058386541,True
0.0999999999999999,0.4631314845942189,3.6000000000000005,9810.0,51.32946,0.05,68900.0,0.33,276.0,2700.0,23.0420564519508,1.1500084274951463,3105.022754236896,13.17115791605486,2.8419371335406827,9.870898535895936,1.691928706045536,101515,408,24978,57544,290.85002439794755,162.6786378389784,0.0030748712274118,True
0.11,0.6141508270348898,3.6000000000000005,9811.0,51.32946,0.2,68900.0,0.33,276.0,2700.0,33.22915670355778,1.82481597881439,4927.003142798853,18.63156366000349,5.23613651253926,14.597593043554289,3.41132053372487,6940,126,2278,3517,288.5752984507458,166.03954471953057,0.0039204095546805,True
0.12,0.4843302307100063,3.6000000000000005,9812.0,51.32946,0.04,68900.0,0.33,276.0,2700.0,23.812029750791098,1.4251026703105276,3847.777209838424,13.903057814783752,3.1288868941977714,9.908971936007346,1.7037842238872438,205467,520,40046,125304,227.9523706479479,126.01183350228176,0.0027473245497303,False
0.13,0.8109122818399168,3.6000000000000005,9813.0,51.32946,0.3,68900.0,0.33,276.0,2700.0,47.83394602862074,3.104605105820384,8382.433785715037,26.605781699512747,9.670665120441203,21.22816432910799,6.566060014620821,4414,106,1450,2233,322.8535663186277,186.0957628954034,0.0047432259794074,True
0.14,0.6218060649489139,3.6000000000000005,9814.0,51.32946,0.2,68900.0,0.33,276.0,2700.0,32.738935402598486,2.2859784580209297,6172.14183665651,18.923618331424397,5.379882499481682,13.815317071174093,3.0939040414607524,6933,126,2268,3525,228.57519105921912,131.95900441771727,0.0031891171354,False
0.15,0.7276799688307176,3.6000000000000005,9815.0,51.32946,0.3,68900.0,0.33,276.0,2700.0,40.37424297103004,3.020999639356657,8156.699026262974,23.11385427558777,7.602732600050534,17.26038869544227,4.581732960693877,4082,98,1336,2072,254.48119632291227,146.9246134103056,0.0036257749699544,False
0.16,0.6821961981484634,3.6000000000000005,9816.0,51.32946,0.3,68900.0,0.33,276.0,2700.0,36.51770757488495,2.912837963651018,7864.662501857749,21.279198453268595,6.5933479583435695,15.238509121616357,3.6805099946925512,3348,90,1096,1698,226.97482691066065,131.04193078078524,0.0031577387480213,False
0.17,0.6687856052424921,3.6000000000000005,9817.0,51.32946,0.3,68900.0,0.33,276.0,2700.0,35.15680242534828,2.9780384430165494,8040.703796144683,20.748187183387973,6.311546929798079,14.408615241960309,3.33350848678153,3234,88,1058,1641,210.7337066280214,121.2307133117954,0.0029163542364331,False
0.18,0.5931325187870465,3.6000000000000005,9818.0,51.32946,0.2,68900.0,0.33,276.0,2700.0,29.32691483176692,2.627207822621867,7093.461121079041,17.837268401268176,4.85289938265527,11.48964643049874,2.225691560033403,6120,118,2008,3102,179.44698605435536,103.60238846763993,0.0024379835191436,False
0.19,0.5742096311172529,3.6000000000000005,9819.0,51.32946,0.2,68900.0,0.33,276.0,2700.0,27.67728567326373,2.614976682952658,7060.437043972176,17.131658118739225,4.522057039676071,10.545627554524504,1.9070803567234127,5925,118,1948,2997,161.2538574681879,92.86213821834966,0.0022151797758051,False
0.2,0.8288613204557079,3.6000000000000005,9820.0,51.32946,0.3,68900.0,0.33,276.0,2700.0,46.57572464354285,4.64081730353514,12530.206719544878,27.3816373282196,10.1551641438281,19.194087315323248,5.514346840292959,4593,106,1502,2334,218.3932719114124,125.91827100871478,0.0032778126541037,False
0.21,0.6958249332844919,3.6000000000000005,9821.0,51.32946,0.2,68900.0,0.33,276.0,2700.0,35.77856782948271,3.73735342905242,10090.854258441534,21.8234782276252,6.887060138588262,13.955089601857512,3.1497067095358418,7348,132,2424,3706,174.05943395926786,100.30870537178384,0.0025306400913655,False
0.22,0.8654857162321963,3.6000000000000005,9822.0,51.32946,0.2,68900.0,0.33,276.0,2700.0,48.8262046759579,5.34858139530509,14441.169767323743,28.98986069050831,11.187347281549634,19.836343985449588,5.838765886244544,10086,160,3330,5085,202.90458080115184,117.0217407857292,0.0031662542685215,False
0.23,0.7035219310282859,3.6000000000000005,9823.0,51.32946,0.3,68900.0,0.33,276.0,2700.0,35.66141300010764,4.075579989801564,11004.065972464225,22.13292969822152,7.056225369861042,13.52848330188612,2.980645380059478,3220,88,1058,1627,166.43232833318473,95.98870487206872,0.0023640121745404,False
0.24,0.7571049586794366,3.6000000000000005,9824.0,51.32946,0.2,68900.0,0.33,276.0,2700.0,39.38530902158865,4.697284164695147,12682.667244676895,24.328453850938725,8.300673958574626,15.05685517064992,3.603389793879479,8222,140,2702,4163,167.41605167077591,96.49185649751062,0.0024872722277928,False
0.25,0.7181109369400644,3.6000000000000005,9825.0,51.32946,0.2,68900.0,0.33,276.0,2700.0,36.065616113009405,4.475477090651274,12083.78814475844,22.72355440699017,7.383424622428481,13.34206170601923,2.907947531777207,7308,132,2418,3675,154.17150518547194,88.91729728271946,0.0022560913366476,False
0.26,0.7845029549284732,3.6000000000000005,9826.0,51.32946,0.1,68900.0,0.33,276.0,2700.0,40.7999753031616,5.267185701091344,14221.401392946627,25.47894731729519,8.982942379783687,15.321027985866412,3.715756678692343,46612,282,11152,26702,164.2169252042577,94.75239121794334,0.0024344377938896,False
0.27,0.8494863264141159,3.6000000000000005,9827.0,51.32946,0.3,68900.0,0.33,276.0,2700.0,45.61067505469295,6.11621715358315,16513.786314674508,28.28316058032094,10.729189162524928,17.32751447437201,4.612972008941776,4426,104,1452,2242,168.05314366921024,96.82959902991588,0.0025766619358119,False
0.28,0.8495088000404385,3.6000000000000005,9828.0,51.32946,0.2,68900.0,0.33,276.0,2700.0,45.24191438699412,6.287891852891436,16977.308002806876,28.28414873824364,10.729824798810752,16.95776564875048,4.4419329459193175,9115,150,3014,4588,161.58359126885665,93.26827388595714,0.0024947115204469,False
0.29,0.621590792593209,3.6000000000000005,9829.0,51.32946,0.08,68900.0,0.33,276.0,2700.0,27.797495667194813,3.97955666959098,10744.803007895644,18.91538535796921,5.375809653771706,8.882110309225602,1.3962529841807263,64394,282,11574,39911,127.21505121569776,73.37238349683452,0.00172345280746,False
0.3,0.7985639277352766,3.6000000000000005,9830.0,51.32946,0.3,68900.0,0.33,276.0,2700.0,40.47754237461496,6.015082688427631,16240.723258754604,26.07671965809224,9.34539797303652,14.400822716522722,3.330315284608888,3745,96,1234,1888,144.35601232759043,83.05468688465918,0.0021775797914061,False
0.31,0.961314832136888,3.6000000000000005,9831.0,51.32946,0.2,68900.0,0.33,276.0,2700.0,53.42052882751023,8.21778784376869,22188.027178175464,33.357341629032284,14.17284281109354,20.063187198477948,5.95505496732485,10876,168,3580,5482,164.59033182052175,94.99440394886804,0.0026569648024708,False
0.32,1.004592571215224,3.6000000000000005,9832.0,51.32946,0.3,68900.0,0.33,276.0,2700.0,56.77997040242493,9.016166125672736,24343.648539316386,35.40540818391591,15.660621216828837,21.37456221850902,6.6444550911561,5560,118,1836,2800,167.98061996435032,96.74682410859148,0.002726402980907,False
0.33,0.8810689087685086,3.6000000000000005,9833.0,51.32946,0.3,68900.0,0.33,276.0,2700.0,45.9653638739267,7.509018762403201,20274.35065848864,29.684361816119655,11.64450520914662,16.28100205780704,4.135486446743418,4259,102,1406,2144,144.98010986190266,83.53291027261018,0.0022571644532213,False
0.34,0.8314242280068143,3.6000000000000005,9834.0,51.32946,0.3,68900.0,0.33,276.0,2700.0,41.6435854926595,6.997091428647663,18892.146857348693,27.49308082835667,10.22548352333428,14.150504664302826,3.228392094686618,3968,98,1318,1985,135.34820734910411,78.13433524682216,0.0020557344165212,False
0.3500000000000001,1.016930587234507,3.6000000000000005,9835.0,51.32946,0.2,68900.0,0.33,276.0,2700.0,56.67300372671824,9.827978462160583,26535.54184783357,35.99791273364612,16.101104941844227,20.675090993072125,6.273126479683644,11987,170,3672,6255,161.4258065649588,93.19643810036354,0.0025674205088125,False
0.36,0.8502955172942885,3.6000000000000005,9836.0,51.32946,0.3,68900.0,0.33,276.0,2700.0,42.429797751484536,7.539647497369956,20357.048242898883,28.318748435721545,10.752090035703285,14.11104931576299,3.2124425383333284,3904,98,1296,1954,129.44357176160534,74.72754432072361,0.002011122463623,False
0.37,0.8487244532343133,3.6000000000000005,9837.0,51.32946,0.2,68900.0,0.33,276.0,2700.0,41.95808520201636,7.656158367251503,20671.627591579057,28.24966877769724,10.707653740218015,13.708416424319118,3.051495372966514,10718,144,2838,5919,134.9519800724354,77.88069611169179,0.0019827410206664,False
0.38,0.870049818483078,3.6000000000000005,9838.0,51.32946,0.3,68900.0,0.33,276.0,2700.0,43.29510338598193,8.11114599527795,21900.094187250463,29.192638504110416,11.320122520193213,14.102464881871516,3.208976524915263,4131,100,1370,2070,125.40041260521237,72.25015912559502,0.0019768000171958,False
0.39,1.0659774168109488,3.6000000000000005,9839.0,51.32946,0.3,68900.0,0.33,276.0,2700.0,59.42350177560482,11.463345423164078,30951.03264254301,38.39110672983207,17.925130611203752,21.032395045772752,6.4617851880396735,5654,120,1874,2837,149.04168878845843,86.03870839668792,0.002471315372303,False
0.4,0.9784368384800144,3.6000000000000005,9840.0,51.32946,0.2,68900.0,0.33,276.0,2700.0,51.45049675484528,10.156058064415886,27421.356773922893,34.1619921234759,14.750865528589598,17.288504631369385,4.594807464173712,13600,162,3370,7677,140.23623031530713,80.90232037434595,0.0021969252690751,False
0.4100000000000001,1.094826176008603,3.6000000000000005,9841.0,51.32946,0.3,68900.0,0.33,276.0,2700.0,61.21086013443797,12.403878522707688,33490.472011310754,39.8269938830512,19.053327900761165,21.383866251386777,6.649449378053477,5619,120,1862,2820,145.7369743292764,84.10290959876582,0.0024473380665143,False
0.42,0.7984931801816966,3.6000000000000005,9842.0,51.32946,0.08,68900.0,0.33,276.0,2700.0,36.43523523137733,7.496229854243141,20239.82060645648,26.07369953851458,9.343553215749091,10.361535692862752,1.8473233615059528,110269,324,15170,71980,125.5647635753359,71.1380731329474,0.0016898575714326,False
0.43,1.020806260330989,3.6000000000000005,9843.0,51.32946,0.2,68900.0,0.33,276.0,2700.0,53.93486262114532,11.429476392140264,30859.586258778712,36.18482258592636,16.240983162571474,17.750040035218966,4.81150677043121,14773,168,3652,8345,136.85347993450023,78.99897428800227,0.0021802695675315,False
0.44,0.7717715117348719,3.6000000000000005,9844.0,51.32946,0.05,68900.0,0.33,276.0,2700.0,33.82968812995667,7.264122436188205,19613.130577708154,24.941983565063047,8.661981093202348,8.887704564893625,1.397858657014143,402740,494,35682,278097,155.91120784950004,88.85636982536761,0.0015774401888498,False
0.45,1.1010459765055836,3.6000000000000005,9845.0,51.32946,0.3,68900.0,0.33,276.0,2700.0,60.19201827187561,13.352352357466431,36051.35136515937,40.13931252194757,19.302014632969986,20.05270574992804,5.949662275503554,5686,120,1886,2845,134.96170060343078,77.79828227456964,0.0022773937581834,False
0.46,0.9568179092319866,3.6000000000000005,9846.0,51.32946,0.2,68900.0,0.33,276.0,2700.0,47.486718868844186,10.718085298147615,28938.83030499857,33.14722994838568,14.023310035950471,14.339488920458509,3.3052247378028543,12822,154,3188,7222,123.3253272090534,71.18728224130092,0.0019138474275166,False
0.4700000000000001,1.121227257495892,3.6000000000000005,9847.0,51.32946,0.3,68900.0,0.33,276.0,2700.0,61.21915582640388,14.16905523648915,38256.44913852071,41.159382961208905,20.12235332690376,20.05977286519497,5.953298090414609,5672,120,1858,2859,132.4786067776725,76.43928014054205,0.0022444117796996,False
0.4800000000000001,1.0658494818218496,3.6000000000000005,9848.0,51.32946,0.3,68900.0,0.33,276.0,2700.0,55.94941358797445,13.196235917949998,35629.836978465,38.3847856163103,17.92021944973294,17.564627971664144,4.723983531782942,5648,116,1766,2913,124.1952556934942,71.2019059696934,0.0020811794738071,False
0.49,1.1508156025685006,3.6000000000000005,9849.0,51.32946,0.2,68900.0,0.33,276.0,2700.0,63.108187322337805,15.215102404571322,41080.77649234257,42.67344224147229,21.36253635454776,20.43474508086552,6.147433949976438,17051,184,4180,9663,135.56202516993935,78.1979029573895,0.0022607757789897,False
0.5,1.0095296586723197,3.6000000000000005,9850.0,51.32946,0.2,68900.0,0.33,276.0,2700.0,50.4298176112444,12.345655015011944,33333.26854053225,35.642041173820864,15.83600470032914,14.787776437423531,3.4903496853171987,13259,156,3228,7531,120.49821868439204,69.43988126361712,0.0019040306003646,False
0.05,0.6695676988888657,3.6000000000000005,9855.0,54.34884,0.2,68900.0,0.33,276.0,2700.0,39.61710131844762,0.9901657335733918,2673.4474806481576,20.779031166384087,6.327786015607621,18.838070152063537,5.337620282034229,8359,142,2754,4222,698.9093155263606,403.078962793765,0.009576237214842,True
0.06,0.3882409785718342,3.6000000000000005,9856.0,54.34884,0.08,68900.0,0.33,276.0,2700.0,19.45451005465692,0.583182912297592,1574.5938632034984,10.67594637486292,1.9498559885270987,8.778563679794,1.3666730762295067,24912,234,8186,12627,361.40990036363166,207.84171949406695,0.0042510744556912,True
0.0699999999999999,0.4426071995759805,3.6000000000000005,9857.0,54.34884,0.08,68900.0,0.33,276.0,2700.0,22.646147731966312,0.7918967930987004,2138.121341366491,12.473305234134482,2.578788105799986,10.17284249783183,1.7868913127012855,29195,254,9596,14795,347.3620797952045,199.53829175044368,0.0042794319911621,True
0.08,0.5771989363624368,3.6000000000000005,9858.0,54.34884,0.1,68900.0,0.33,276.0,2700.0,31.59539397919806,1.2627434288754968,3409.4072579638414,17.242526948070484,4.573434449589539,14.352867031127577,3.310691020714042,26501,246,8708,13433,405.2036971232415,232.40369176829407,0.0051657488817393,True
0.09,0.5678290436082236,3.6000000000000005,9859.0,54.34884,0.1,68900.0,0.33,276.0,2700.0,30.57316257234276,1.374265501725629,3710.516854659198,16.895763023628177,4.413500114575621,13.67739954871458,3.039234612849992,25527,240,8392,12933,351.842373260221,201.9891803619626,0.0045436228258696,True
0.0999999999999999,0.5205928539466236,3.6000000000000005,9860.0,54.34884,0.1,68900.0,0.33,276.0,2700.0,26.917788426367537,1.343795026215981,3628.246570783149,15.181231989592316,3.6561233455582536,11.73655643677522,2.312328319342273,22172,224,7300,11216,279.9828156191376,161.03214246976944,0.0037202407803455,True
0.11,0.6019221680654121,3.6000000000000005,9861.0,54.34884,0.05,68900.0,0.33,276.0,2700.0,32.33600503871829,1.775692637248225,4794.370120570207,18.168084142903776,5.011135170917669,14.167920895814516,3.235442533669444,141947,490,34818,80594,292.1704080815042,167.94182299316705,0.0040530516146045,True
0.12,0.4937000844253268,3.6000000000000005,9862.0,54.34884,0.1,68900.0,0.33,276.0,2700.0,24.437969598837796,1.4626590611933294,3949.1794652219896,14.230157145333784,3.2606872256687573,10.207812453504008,1.798028164475428,20213,212,6670,10202,223.19253577545365,128.77886072733213,0.0029643541082232,False
0.13,0.6161446486858173,3.6000000000000005,9863.0,54.34884,0.2,68900.0,0.33,276.0,2700.0,32.673714460978914,2.119190053923673,5721.813145593917,18.70748802164536,5.273360200772888,13.966226439333555,3.1541701468492143,6934,126,2276,3514,258.3259696638176,148.80600191328725,0.0035732964116935,False
0.14,0.5533758943894916,3.6000000000000005,9864.0,54.34884,0.2,68900.0,0.33,276.0,2700.0,27.862882387204483,1.9446547469433508,5250.567816747047,16.365203179903897,4.17314358405941,11.497679207300584,2.22848883711606,5990,116,1964,3038,219.40964350590244,126.12249975695188,0.0029435239427624,False
0.15,0.577403027165392,3.6000000000000005,9865.0,54.34884,0.2,68900.0,0.33,276.0,2700.0,29.21327426020352,2.1839269860446864,5896.602862320653,17.250104558610687,4.576954264001852,11.963169701592829,2.3930272779571657,6233,120,2050,3152,212.87864040642384,122.86512711169551,0.0029060131788463,False
0.16,0.7328206304638082,3.6000000000000005,9866.0,54.34884,0.3,68900.0,0.33,276.0,2700.0,40.40469944978757,3.2237973136436078,8704.25274683774,23.32448085129876,7.722094199374342,17.080218598488806,4.498296885730735,3721,94,1220,1885,257.6886199537666,148.61926958913892,0.0036492101046019,False
0.17,0.5279307285398191,3.6000000000000005,9867.0,54.34884,0.08,68900.0,0.33,276.0,2700.0,25.15003108835136,2.127462879371804,5744.14977430387,15.44389563569694,3.768484191012949,9.706135452654422,1.6410213116411456,43984,270,10844,24906,177.8943874150504,102.70242768664713,0.0023619490778696,False
0.18,0.7066802645780175,3.6000000000000005,9868.0,54.34884,0.3,68900.0,0.33,276.0,2700.0,37.65937760651933,3.377129472349584,9118.249575343876,22.26033873873057,7.126329678421295,15.399038867788756,3.7492002060717113,3484,92,1146,1759,225.13365255456603,129.9220854976407,0.0031331274252129,False
0.19,0.8771768253640625,3.6000000000000005,9869.0,54.34884,0.3,68900.0,0.33,276.0,2700.0,50.987894749094345,4.829484545156657,13039.608271922973,29.51033028556526,11.529309993248624,21.477564463529085,6.699825448091968,4950,110,1620,2514,256.0031753532986,147.5378577537847,0.0039097076737808,False
0.2,0.879662004020545,3.6000000000000005,9870.0,54.34884,0.2,68900.0,0.33,276.0,2700.0,50.79991632011692,5.063236471192549,13670.738472219882,29.621409209934345,11.60278642955974,21.178507110182576,6.53954995836719,10194,162,3348,5166,237.4805212040765,137.05274294023445,0.0037371631931371,False
0.21,0.8361351206439553,3.6000000000000005,9871.0,54.34884,0.3,68900.0,0.33,276.0,2700.0,46.78778417138563,4.8933211449521625,13211.96709137084,27.69835625979575,10.355483771678571,19.08942791158988,5.462162626726409,4615,106,1510,2344,222.49224592486337,128.22003040996793,0.0033561412856875,False
0.22,0.6282027371651189,3.6000000000000005,9872.0,54.34884,0.08,68900.0,0.33,276.0,2700.0,30.496043167242984,3.3322636293464454,8997.111799235403,19.168787047954897,5.5017142668739085,11.327256119288087,2.169450637527463,57221,300,12868,33495,171.09457096052407,98.5885267677134,0.002302539241992,False
0.23,0.90654752259686,3.6000000000000005,9873.0,54.34884,0.2,68900.0,0.33,276.0,2700.0,51.88800249858424,5.9416377821263655,16042.422011741186,30.83302225786536,12.415420097860272,21.05498024071888,6.4737823157339065,10762,166,3544,5440,215.90271343775456,124.35402845106206,0.0034175315825825,False
0.24,0.7558426839528138,3.6000000000000005,9874.0,54.34884,0.3,68900.0,0.33,276.0,2700.0,39.28782152744802,4.685585665398278,12651.081296575352,24.27590317298077,8.269997937049414,15.011918354467252,3.584412271651136,3550,92,1172,1786,179.0909559093479,103.1646282166222,0.0026250345565294,False
0.25,0.7183924728336203,3.6000000000000005,9875.0,54.34884,0.1,68900.0,0.33,276.0,2700.0,36.08674792053589,4.478118566592092,12090.920129798647,22.735004781848343,7.389823730422232,13.35174313868755,2.91170516383014,40778,264,9960,23172,167.2829722950403,96.5511136083986,0.0024053910211188,False
0.26,0.8768840432031686,3.6000000000000005,9876.0,54.34884,0.3,68900.0,0.33,276.0,2700.0,48.2329235768473,6.233468976670481,16830.366237010297,29.497254152322625,11.520671809260763,18.735669424524676,5.287202832590283,4628,106,1526,2333,189.6886976270993,109.51493437565148,0.0029338092326716,False
0.27,0.9416235653899198,3.6000000000000005,9877.0,54.34884,0.3,68900.0,0.33,276.0,2700.0,53.30124098551356,7.154443554243914,19316.99759645857,32.441057832666736,13.525031884577276,20.860183152846822,6.370588330333361,4932,112,1618,2499,195.560636676623,112.80745762157008,0.0031019604940435,False
0.28,0.8429284709251268,3.6000000000000005,9878.0,54.34884,0.3,68900.0,0.33,276.0,2700.0,44.71063602153257,6.213512881726818,16776.48478066241,27.99535611627318,10.544656563378412,16.715279905259393,4.331143681651594,4159,100,1374,2092,216.60911579010337,124.0524997925858,0.0029930548299102,False
0.29,0.852514178398792,3.6000000000000005,9879.0,54.34884,0.3,68900.0,0.33,276.0,2700.0,45.11645818544636,6.490806234737397,17525.17683379097,28.416408583466065,10.815028055898033,16.7000496019803,4.324221821160636,4112,100,1354,2075,167.08631285942388,96.28490273805612,0.0025717785786157,False
0.3,0.7043166861359849,3.6000000000000005,9880.0,54.34884,0.08,68900.0,0.33,276.0,2700.0,33.36464448501707,4.948148004987948,13359.999613467458,22.164966983097973,7.073828358633565,11.199677501919094,2.1256803536456177,79186,310,13826,49355,143.53420006860074,82.8302219130573,0.0020277494006028,False
0.31,0.6180875218132914,3.6000000000000005,9881.0,54.34884,0.05,68900.0,0.33,276.0,2700.0,26.943117726582027,4.113789123124821,11107.230632437017,18.781568386754422,5.309778425547981,8.161549339827602,1.1959893024231605,242325,438,28956,161479,161.31505773020697,92.0848617568176,0.0017479539022356,False
0.32,0.8793099216297697,3.6000000000000005,9882.0,54.34884,0.3,68900.0,0.33,276.0,2700.0,46.18806269127296,7.32146089188846,19767.944408098843,29.605662902343237,11.592360025077191,16.582399788929727,4.270899133188733,4275,102,1414,2148,155.694448089528,89.66952287277654,0.0024482043590366,False
0.33,0.7250793173347534,3.6000000000000005,9883.0,54.34884,0.08,68900.0,0.33,276.0,2700.0,33.905490755126095,5.519139697801104,14901.67718406298,23.00755166079944,7.542759785217077,10.89793909432666,2.0236200874159733,85835,314,14248,54053,311.4398868862818,176.20235939673609,0.0019404131565847,True
0.34,0.912611412308138,3.6000000000000005,9884.0,54.34884,0.1,68900.0,0.33,276.0,2700.0,48.18128082237512,8.108499634699308,21892.94901368813,31.10880609721716,12.603223838695056,17.072474725157964,4.494724203995748,70011,308,13034,43100,159.26576756330908,91.40568532948168,0.0024586620939131,False
0.3500000000000001,0.6544867612505294,3.6000000000000005,9885.0,54.34884,0.05,68900.0,0.33,276.0,2700.0,28.23936731432109,4.852092089991079,13100.648642975912,20.1869833219772,6.018890244337419,8.052383992343888,1.1667981543463393,276814,450,30438,186545,151.62889562650716,86.30288263889945,0.0016714802067667,False
0.36,1.0352504851491644,3.6000000000000005,9886.0,54.34884,0.3,68900.0,0.33,276.0,2700.0,57.88835007873955,10.322186916275864,27869.904673944828,36.8847411616403,16.768693454012304,21.00360891709925,6.4465065377364414,5436,118,1796,2736,249.79502844144037,144.21919271038865,0.0028408471071418,False
0.37,0.9833885330832608,3.6000000000000005,9887.0,54.34884,0.1,68900.0,0.33,276.0,2700.0,52.99863311418122,9.698659731001214,26186.38127370328,34.39607106603406,14.920604570058982,18.60256204814716,5.221944839057768,79898,326,14204,49628,184.72976051332387,102.45106964445051,0.0025059321570104,False
0.38,0.9341053508981584,3.6000000000000005,9888.0,54.34884,0.3,68900.0,0.33,276.0,2700.0,48.48564216414497,9.09734836312847,24562.840580446868,32.093787206078446,13.282439371007728,16.391854958066524,4.185091007879258,4354,104,1446,2179,142.0854782710418,81.7115410012451,0.0022791634347281,False
0.39,0.7462146202757671,3.6000000000000005,9889.0,54.34884,0.2,68900.0,0.33,276.0,2700.0,33.52830513927211,6.413782079079202,17317.211613513846,23.87638786578716,8.038193144175747,9.651917273484951,1.6244110650965444,9077,126,2292,5085,126.96998140077042,73.09214888555537,0.0017555026043598,False
0.4,0.8439605763739648,3.6000000000000005,9890.0,54.34884,0.3,68900.0,0.33,276.0,2700.0,40.55957622290666,7.977873958028175,21540.259686676072,28.040580438123275,10.573574058800016,12.518995784783389,2.595700100771841,3846,96,1276,1926,125.19294324285146,71.33674877125443,0.0066080180110226,False
0.4100000000000001,0.9566894797463182,3.6000000000000005,9891.0,54.34884,0.3,68900.0,0.33,276.0,2700.0,49.26276493650421,9.9545190071313,26877.201319254516,33.14123674660756,14.01905333911343,16.12152818989665,4.064534331982129,4646,106,1546,2321,135.61901311568153,78.16167644961891,0.0021978263897224,False
0.42,0.7213211203586196,3.6000000000000005,9892.0,54.34884,0.05,68900.0,0.33,276.0,2700.0,30.81091371601231,6.31512233601648,17050.830307244498,22.854234244811742,7.456581083834258,7.956679471200562,1.1414587478177785,352474,468,32584,242354,156.6523138535384,89.1496966145696,0.0016136900268029,False
0.43,1.0527821426098531,3.6000000000000005,9893.0,54.34884,0.3,68900.0,0.33,276.0,2700.0,56.70227342850477,12.024469715722557,32466.068232450903,37.74131092820413,17.422841359778527,18.96096250030064,5.39837164405597,5530,118,1838,2765,144.63320971078585,83.40096798741152,0.0023736022214938,False
0.44,0.8577711421004359,3.6000000000000005,9894.0,54.34884,0.2,68900.0,0.33,276.0,2700.0,40.29130492167582,8.685678130366417,23451.330951989326,28.64830138118612,10.965021306089442,11.6430035404897,2.2793431757230245,10741,140,2654,6068,126.67265833177596,73.03592076656511,0.0018563330731656,False
0.45,1.0193557489340677,3.6000000000000005,9895.0,54.34884,0.2,68900.0,0.33,276.0,2700.0,53.06693874350542,11.749209463583137,31722.86555167447,36.11482540390672,16.188547437261928,16.952113339598696,4.439337973678791,14184,164,3514,8001,139.3905813082363,80.4638212755886,0.0022183084141877,False
0.46,1.1101565592294411,3.6000000000000005,9896.0,54.34884,0.3,68900.0,0.33,276.0,2700.0,60.61658729568979,13.7379550363221,37092.47859806967,40.59854290228029,19.66979750457651,20.018044393409497,5.931842468254411,5633,120,1852,2833,141.60280457260615,81.16086474252111,0.0028318503125922,False
0.4700000000000001,0.8789302652582223,3.6000000000000005,9897.0,54.34884,0.1,68900.0,0.33,276.0,2700.0,40.93986984846028,9.403423031672403,25389.242185515493,29.58868688473167,11.581123269163667,11.351182963728608,2.177700237491264,73522,278,11038,47319,178.33857863787492,99.43833129254116,0.00182068355916,False
0.4800000000000001,0.901842292584886,3.6000000000000005,9898.0,54.34884,0.1,68900.0,0.33,276.0,2700.0,42.39771166724678,9.94382745697537,26848.3341338335,30.61966659672839,12.270845798075806,11.778045070518392,2.327018341100436,77526,284,11530,49969,140.105582272549,78.75842758394266,0.0018421148974585,False
0.49,1.020052456683983,3.6000000000000005,9899.0,54.34884,0.1,68900.0,0.33,276.0,2700.0,51.66853614986007,12.41238786731418,33513.44724174829,36.148439759830175,16.213720624991353,15.520096390029892,3.801332757677173,96411,322,14110,62350,148.60947637714762,83.47799347227063,0.0020819823697209,False
0.5,0.999768460135198,3.6000000000000005,9900.0,54.34884,0.2,68900.0,0.33,276.0,2700.0,49.6179618101325,12.142691064733937,32785.26587478163,35.174781854035984,15.490378113563876,14.443179956096516,3.347687048829938,13343,156,3262,7568,127.6999064976574,73.69695641886005,0.001992993104086,False
0.05,0.4839415663339501,3.6000000000000005,9905.0,57.36822,0.05,68900.0,0.33,276.0,2700.0,26.07137825713032,0.6515226570404037,1759.11117400909,13.889537296855632,3.1234858985019005,12.181840960274684,2.4719632414614967,84847,436,27952,42913,626.982610656811,359.10774006111626,0.0068396807555748,True
0.06,0.7478221787379549,3.6000000000000005,9906.0,57.36822,0.2,68900.0,0.33,276.0,2700.0,45.44624419167046,1.362934936408,3679.9243283016,23.94293128100431,8.07662931105019,21.50331291066615,6.71369437464219,9368,152,3074,4751,703.3079873294964,401.9685789188191,0.009779047824794,True
0.0699999999999999,0.4834853457994951,3.6000000000000005,9907.0,57.36822,0.1,68900.0,0.33,276.0,2700.0,25.374963748452952,0.8874053536757308,2395.9944549244733,13.873671537860886,3.1171528257142094,11.501292210592066,2.2297474720384787,21062,216,6912,10688,406.24957800311626,233.11381034533505,0.0050040200170014,True
0.08,0.6872100699871121,3.6000000000000005,9908.0,57.36822,0.1,68900.0,0.33,276.0,2700.0,39.84693079256953,1.592804901410358,4300.573233807967,21.4788906089029,6.700539483670113,18.36804018366663,5.107734582259755,33120,280,10880,16794,537.4343669771679,307.8159900803277,0.0067421934264866,True
0.09,0.6295752719649549,3.6000000000000005,9909.0,57.36822,0.2,68900.0,0.33,276.0,2700.0,35.08502371362181,1.5772992530833398,4258.707983325017,19.221526933329127,5.528060282416504,15.863496780292682,3.9507610293331634,7237,130,2374,3670,403.4769987001014,231.3397545557006,0.0054357047460295,True
0.0999999999999999,0.7019560089357301,3.6000000000000005,9910.0,57.36822,0.1,68900.0,0.33,276.0,2700.0,40.23921400285433,2.0098663050403283,5426.639023608886,22.06985243997397,7.021616321351821,18.16936156288036,5.011750016311492,33179,282,10928,16781,417.8113867488056,239.846218222034,0.0056328742050178,True
0.11,0.7497780761927942,3.6000000000000005,9911.0,57.36822,0.2,68900.0,0.33,276.0,2700.0,43.63903699309567,2.3973593947378267,6472.870365792132,24.02398145538706,8.123538476648339,19.615055537708614,5.726179081910512,9284,150,3044,4712,388.29341155204304,222.8510156874001,0.005601418289578,True
0.12,0.7169493220979981,3.6000000000000005,9912.0,57.36822,0.3,68900.0,0.33,276.0,2700.0,40.65701410599276,2.435801731622631,6576.664675381104,22.676331318107422,7.357056035168084,17.980682787885335,4.921254303545453,4152,98,1346,2127,348.1548697635448,200.6251753878672,0.0048889311020247,True
0.13,0.6804424605142254,3.6000000000000005,9913.0,57.36822,0.3,68900.0,0.33,276.0,2700.0,37.46766068757625,2.430796558652492,6563.150708361726,21.209499852250676,6.5560909550155495,16.258160835325576,4.125294396363058,3531,92,1156,1791,307.55131646517907,177.56377633966537,0.0042537266179598,True
0.14,0.4895128077568171,3.6000000000000005,9914.0,57.36822,0.08,68900.0,0.33,276.0,2700.0,23.52459890092961,1.6409749029041052,4430.632237841084,14.083707626638022,3.2014083867548657,9.440891274291593,1.5604334838507603,33346,258,10030,17551,209.05398597805188,120.63356365902618,0.0027070200621148,False
0.15,0.6117023842731582,3.6000000000000005,9915.0,57.36822,0.1,68900.0,0.33,276.0,2700.0,31.66068779274572,2.367483000985353,6392.204102660454,18.53846408986936,5.190632200582234,13.122223702876362,2.823149199596881,25914,244,8578,13037,233.72572901946228,134.8394767655109,0.0032811272083282,False
0.16,0.8532846107388836,3.6000000000000005,9916.0,57.36822,0.3,68900.0,0.33,276.0,2700.0,50.172023557771205,4.005183242282303,10813.99475416222,28.45035010878138,10.836934049926604,21.721673448989826,6.831750807644299,4683,108,1528,2385,311.339017156566,179.6318186630507,0.0046627267130504,True
0.17,0.7008449760886746,3.6000000000000005,9917.0,57.36822,0.1,68900.0,0.33,276.0,2700.0,37.57372438429542,3.1834768095270523,8595.387385723041,22.02513605193331,6.99712083392166,15.548588332362108,3.8136440243946073,32754,270,10286,16903,240.00553043873904,138.49117411340745,0.0034486216092528,False
0.18,0.6882050922564891,3.6000000000000005,9918.0,57.36822,0.1,68900.0,0.33,276.0,2700.0,36.25947068776258,3.25113784966147,8778.07219408597,21.518595424092027,6.721931209671864,14.740875263670551,3.4707933600103944,34329,262,9792,18455,224.2718362679946,129.4490418060092,0.0032072893725839,False
0.19,0.6456386979545308,3.6000000000000005,9919.0,57.36822,0.3,68900.0,0.33,276.0,2700.0,32.75745274843792,3.097592555094133,8363.499898754158,19.842286440364177,5.841800938848534,12.915166308073744,2.7442083837544016,3102,86,1012,1578,205.87020551043733,118.85402645022832,0.0028296171696632,False
0.2,0.6492751911289485,3.6000000000000005,9920.0,57.36822,0.3,68900.0,0.33,276.0,2700.0,32.68258099582887,3.2515029387637515,8779.057934662129,19.983716332698965,5.914214331754589,12.698864663129909,2.662711392990838,3125,86,1020,1589,198.0410441676148,114.28533775130072,0.0027220561566074,False
0.22,0.695804848249375,3.6000000000000005,9922.0,57.36822,0.3,68900.0,0.33,276.0,2700.0,35.430028617267254,3.875002028849117,10462.505477892617,21.82267267305056,6.886621821351501,13.607355944216692,3.011619792502384,3216,88,1056,1626,192.8292620865736,111.20814747195762,0.0027125132706253,False
0.23,0.6563205247483239,3.6000000000000005,9923.0,57.36822,0.1,68900.0,0.33,276.0,2700.0,32.185738757013965,3.6758774518457695,9924.86911998358,20.25866799276309,6.055974110935385,11.927070764250873,2.380096659089615,35328,246,8720,19984,174.9386379352176,100.87531578370346,0.0024579433097226,False
0.24,0.6029849700738612,3.6000000000000005,9924.0,57.36822,0.08,68900.0,0.33,276.0,2700.0,28.07446393431137,3.3399827542218805,9017.953436399075,18.208216372284465,5.030465571027121,9.86624756202691,1.6904828168052406,60167,284,11790,36616,159.29214813829654,91.8903596892546,0.0021636251665272,False
0.25,0.6043784028605146,3.6000000000000005,9925.0,57.36822,0.1,68900.0,0.33,276.0,2700.0,27.854862858719784,3.449132933865081,9312.65892143572,18.26087648630691,5.055874180204934,9.593986372412877,1.606741246339853,30760,226,7488,17502,154.2832433301531,89.00538900934973,0.0020976932847876,False
0.26,0.7732434241598483,3.6000000000000005,9926.0,57.36822,0.2,68900.0,0.33,276.0,2700.0,39.92336613247183,5.153226508901668,13913.711574034502,25.003854958438893,8.698739036672757,14.919511174032934,3.545512527771089,8467,144,2800,4261,178.29319866821197,102.79601060022738,0.0026590533575496,False
0.27,0.7809986167011362,3.6000000000000005,9927.0,57.36822,0.1,68900.0,0.33,276.0,2700.0,40.17058325154137,5.381804760157669,14530.872852425706,25.33074135419401,8.893915302749905,14.839841897347362,3.512110542592236,47989,282,11116,27815,178.07895322166902,102.74363147092714,0.0026203720629965,False
0.28,0.6115235440687693,3.6000000000000005,9928.0,57.36822,0.05,68900.0,0.33,276.0,2700.0,27.41169858117962,3.791661640077408,10237.486428209002,18.531669775694315,5.187317385435595,8.880028805485306,1.3956557453581864,228643,444,29428,150733,166.77741638513294,93.97378569705964,0.0019475227791897,False
0.29,0.8518524876324778,3.6000000000000005,9929.0,57.36822,0.3,68900.0,0.33,276.0,2700.0,45.06300293734292,6.483055223762467,17504.249104158658,28.38726959450793,10.796234821833272,16.675733342834988,4.313179598070805,4102,100,1352,2068,176.21257959339047,101.55900576300934,0.0027121090404288,False
0.3,0.9560881728578962,3.6000000000000005,9930.0,57.36822,0.2,68900.0,0.33,276.0,2700.0,53.36276240794223,7.947865693426724,21459.237372252155,33.11318208824328,13.999133720351672,20.24958031969895,6.051268026924948,10806,168,3574,5433,189.5613791210852,109.4263876310785,0.0030334185377737,False
0.31,0.9993774971263544,3.6000000000000005,9931.0,57.36822,0.3,68900.0,0.33,276.0,2700.0,56.72152705122598,8.729442568444584,23569.49493480038,35.15611670288676,15.47662972383187,21.565410348339228,6.7471871553872855,5221,116,1726,2626,217.50018770309853,125.57044061005904,0.0031269911564263,False
0.32,0.8653822783562714,3.6000000000000005,9932.0,57.36822,0.3,68900.0,0.33,276.0,2700.0,45.05929190336711,7.140857565823514,19280.315427723486,28.985271131699303,11.184348869305866,16.074020771667808,4.0434913034823525,4283,102,1416,2153,163.8694781992691,94.49204655968045,0.0025369803750831,False
0.33,0.9868362973747477,3.6000000000000005,9933.0,57.36822,0.1,68900.0,0.33,276.0,2700.0,54.83826496541732,8.97304744249797,24227.22809474452,34.559419389229944,15.03947562306834,20.27884557618737,6.0664281805703695,78591,334,14590,48466,184.33790532183093,105.07013680562434,0.0029280264791038,False
0.34,0.8007488645836045,3.6000000000000005,9934.0,57.36822,0.1,68900.0,0.33,276.0,2700.0,39.25965618352297,6.591823446094446,17797.923304455002,26.17005365871629,9.402475901303411,13.08960252480668,2.810652455208968,57317,274,10722,35228,151.8977211721021,87.58635970216852,0.0022303515767934,False
0.3500000000000001,0.9826907768012868,3.6000000000000005,9935.0,57.36822,0.2,68900.0,0.33,276.0,2700.0,53.70446553930494,9.308484279363258,25132.907554280795,34.363049088255224,14.89661601675336,19.34141645104972,5.588131737390102,11278,164,3462,5881,176.74510073786965,101.8896086819606,0.002753289841305,False
0.36,0.7478504811403277,3.6000000000000005,9936.0,57.36822,0.1,68900.0,0.33,276.0,2700.0,34.607408560067825,6.13161744291495,16555.367095870366,23.944103414924832,8.077306970112348,10.663305145142992,1.9456895271973973,51732,254,9402,31987,138.9908869677558,80.21386931573787,0.0019783536076862,False
0.37,0.7970282196021359,3.6000000000000005,9937.0,57.36822,0.08,68900.0,0.33,276.0,2700.0,37.96185798642964,6.916856332367956,18675.512097393483,26.01119057836415,9.305402066927815,11.950667408065485,2.388545734559859,105066,334,15846,67589,147.83753309146496,83.26652905156138,0.0020768508441258,False
0.38,0.967828926290587,3.6000000000000005,9938.0,57.36822,0.2,68900.0,0.33,276.0,2700.0,51.301200358416494,9.632304420040608,26007.22193410964,33.662603823006975,14.391129349595843,17.63859653540952,4.758824929555235,13265,162,3394,7412,163.43139510059171,94.3476104365796,0.0025307155831447,False
0.39,0.8733944427555612,3.6000000000000005,9939.0,57.36822,0.2,68900.0,0.33,276.0,2700.0,43.21207958784896,8.302118096551688,22415.71886068956,29.341568715815885,11.418009906951209,13.870510872033076,3.1158918103995195,11462,146,2856,6456,147.10135947440276,84.91447529481664,0.0021998777829879,False
0.4,0.8644662942106878,3.6000000000000005,9940.0,57.36822,0.1,68900.0,0.33,276.0,2700.0,42.16155032653211,8.29826877875324,22405.32570263375,28.944640469955875,11.157817430624409,13.216909856576232,2.859548651871167,66825,286,11420,41787,142.56806794744955,82.25896778863428,0.002137240455622,False
0.4100000000000001,0.9647077188644384,3.6000000000000005,9941.0,57.36822,0.3,68900.0,0.33,276.0,2700.0,49.93007878897263,10.091318346887348,27246.55953659584,33.51620534025922,14.286289914259171,16.41387344871341,4.194971567371825,4712,108,1570,2351,144.39388038132105,83.2204387508561,0.0023441528588662,False
0.42,0.8407460191229326,3.6000000000000005,9942.0,57.36822,0.08,68900.0,0.33,276.0,2700.0,39.64145490976168,8.169535986703808,22057.74716410028,27.89981460783748,10.483662327110236,11.741640301924196,2.3141263404064265,121080,344,16732,78988,650.8623565155693,343.67278310237475,0.001998204422197,True
0.43,0.7782640429359933,3.6000000000000005,9943.0,57.36822,0.08,68900.0,0.33,276.0,2700.0,34.616999826492425,7.276135891289897,19645.566906482723,25.215304769431903,8.824804399747196,9.401695057060522,1.5486685084572986,107566,316,14538,70391,137.13318977654097,77.41690701544019,0.00180662051956,False
0.44,0.8284473397951062,3.6000000000000005,9944.0,57.36822,0.2,68900.0,0.33,276.0,2700.0,38.04627987107793,8.191772619234886,22117.78607193419,27.36365159814715,10.143832398539413,10.682628272930778,1.952059779304525,10408,138,2588,5864,130.0953368016452,75.08929244750372,0.0018858428856322,False
0.45,0.8809491544574259,3.6000000000000005,9945.0,57.36822,0.1,68900.0,0.33,276.0,2700.0,41.76063247491792,9.205290553150942,24854.28449350754,29.67900141686381,11.640950699816203,12.081631058054109,2.4356601466652634,72930,282,11252,46692,137.91282422709023,78.84302039091881,0.0019910643826848,False
0.46,1.0461096700956725,3.6000000000000005,9946.0,57.36822,0.3,68900.0,0.33,276.0,2700.0,54.98873882999855,12.443549889213118,33597.58470087542,37.41439367448089,17.172104795340104,17.574345155517655,4.728554906126986,5294,114,1712,2686,142.0522415008264,81.91377871440702,0.0023476986231247,False
0.4700000000000001,1.0908526335141573,3.6000000000000005,9947.0,57.36822,0.2,68900.0,0.33,276.0,2700.0,58.51514066451086,13.53361167344423,36540.75151829943,39.62797695261603,18.89546918065482,18.88716371189483,5.361857507210591,15523,174,3834,8772,149.83477110052414,86.50509446869954,0.0024522188605828,False
0.4800000000000001,1.0253063102239115,3.6000000000000005,9948.0,57.36822,0.3,68900.0,0.33,276.0,2700.0,52.47357873327292,12.362035552821633,33377.49599261841,36.40231753927255,16.404305847787356,16.07126119400038,4.042270294965723,4961,110,1612,2507,139.3849572307396,80.37819960196794,0.0022105204866924,False
0.49,0.9617721523825158,3.6000000000000005,9949.0,57.36822,0.1,68900.0,0.33,276.0,2700.0,46.8468564408544,11.231076338607863,30323.90611424124,33.37873767267599,14.188102690982465,13.468118768178414,2.9570263523746,86516,302,12686,55931,144.28189082612826,80.88959002370191,0.0020550458899823,False
0.5,1.145672096891047,3.6000000000000005,9950.0,57.36822,0.2,68900.0,0.33,276.0,2700.0,62.25224881951464,15.301262817079497,41313.40960611464,42.4086649454555,21.143726488859297,19.843583874059146,5.842463671779802,16789,180,4058,9568,148.7346581580104,85.86418900605568,0.0024715378974211,False
0.04,0.3947486825169258,3.6000000000000005,9954.0,60.3876,0.1,68900.0,0.33,276.0,2700.0,20.49284019052652,0.4097227625239746,1106.2514588147314,10.887178670650206,2.0200186282698884,9.605661519876312,1.610295865745914,17208,194,5646,8733,635.3004892462623,363.2178025117042,0.0070067606854965,True
0.05,0.5026589788842079,3.6000000000000005,9955.0,60.3876,0.08,68900.0,0.33,276.0,2700.0,27.358729573903176,0.6837064399597796,1846.007387891405,14.544973452394515,3.3895823987122804,12.81375612150866,2.7058759587525008,35420,280,11624,17978,684.2707856728586,391.82900917109896,0.0075268394447083,True
0.06,0.5029859646124363,3.6000000000000005,9956.0,60.3876,0.1,68900.0,0.33,276.0,2700.0,27.042589771188453,0.8108253037935377,2189.228320242552,14.556501914372229,3.394340282196721,12.486087856816226,2.583514978403183,22213,222,7284,11281,558.7755940862123,319.9339950802567,0.0063596873096796,True
0.0699999999999999,0.4400444929907824,3.6000000000000005,9957.0,60.3876,0.1,68900.0,0.33,276.0,2700.0,22.477872475985016,0.7860071591393505,2122.219329676246,12.386913331693048,2.546933418135617,10.090959144291968,1.7609262589962664,18624,202,6102,9465,391.0772371072465,224.8189846540241,0.0047236506657745,True
0.08,0.4509538539753546,3.6000000000000005,9958.0,60.3876,0.08,68900.0,0.33,276.0,2700.0,22.87582124866575,0.9139605196538788,2467.693403065473,12.755825183322695,2.6840763041400475,10.119996065343054,1.7701157844861686,29665,256,9766,15010,342.3013621940169,196.72652606417088,0.004296910279178,True
0.09,0.4529935387538528,3.6000000000000005,9959.0,60.3876,0.2,68900.0,0.33,276.0,2700.0,22.69165078713295,1.019597471391342,2752.913172756624,12.82513123479161,2.710164830079956,9.86651955234134,1.690567358688614,4763,104,1566,2408,313.7342202634516,181.1307880020059,0.0038774041150665,True
0.0999999999999999,0.6192123214123129,3.6000000000000005,9960.0,60.3876,0.2,68900.0,0.33,276.0,2700.0,33.9564657972237,1.6957288947587916,4578.468015848737,18.82449955281686,5.3309280676371165,15.13196624440684,3.635199172878325,7218,130,2362,3669,374.3461054904603,214.87423446343809,0.0050864695382235,True
0.11,0.5791008184109669,3.6000000000000005,9961.0,60.3876,0.2,68900.0,0.33,276.0,2700.0,30.689292265179397,1.6851234347035284,4549.833273699527,17.313181786989723,4.606294876240084,13.37611047818967,2.921171441536556,6508,122,2132,3304,318.54443872799385,183.77536152064735,0.0042986040657672,True
0.12,0.7315806955403164,3.6000000000000005,9962.0,60.3876,0.3,68900.0,0.33,276.0,2700.0,41.80745757006131,2.5048283394667434,6763.036516560207,23.273616641494492,7.693204899142143,18.53384092856681,5.188376559675399,4079,98,1334,2072,370.3439659816581,213.8180042841381,0.0052761057960348,True
0.13,0.692314755499321,3.6000000000000005,9963.0,60.3876,0.3,68900.0,0.33,276.0,2700.0,38.375568680498176,2.4898105781924103,6722.488561119508,21.68284876435897,6.810702757910287,16.692719916139204,4.320892179717877,3542,92,1162,1793,332.5068205434251,191.9660270360315,0.0045756937065596,True
0.14,0.7885318639684231,3.6000000000000005,9964.0,60.3876,0.3,68900.0,0.33,276.0,2700.0,45.60449985228262,3.186567969498823,8603.733517646822,25.649719901670068,9.08593861759463,19.954779950612554,5.899370648095808,4293,104,1406,2178,340.52718976615523,196.24512296902685,0.0050246466004305,True
0.15,0.6676234967792156,3.6000000000000005,9965.0,60.3876,0.2,68900.0,0.33,276.0,2700.0,35.77771134171967,2.676259767158401,7225.901371327684,20.70238467809409,6.287461902901133,15.075326663625582,3.611202135742732,7484,134,2464,3782,269.7463087218449,155.6802499013924,0.003835186682028,False
0.16,0.5791255338771822,3.6000000000000005,9966.0,60.3876,0.08,68900.0,0.33,276.0,2700.0,29.00198352949235,2.3115800400199835,6241.266108053956,17.314100563900386,4.606722790953576,11.687882965591964,2.2951427509335924,50149,290,12368,28395,224.79839819256236,129.74942714677934,0.0030686131687323,False
0.17,0.8197095678583428,3.6000000000000005,9967.0,60.3876,0.3,68900.0,0.33,276.0,2700.0,46.98566905755905,3.983492106754469,10755.428688237069,26.9850367957925,9.906390573622096,20.00063226176655,5.922898466867628,4518,106,1480,2292,296.6019215937845,171.12841794712227,0.0044137180808467,True
0.18,0.4979004104980292,3.6000000000000005,9968.0,60.3876,0.08,68900.0,0.33,276.0,2700.0,22.83820951150056,2.043224343797893,5516.705728254312,14.37750578704861,3.3207678267100538,8.460703724451948,1.2775434829121606,39475,254,9748,22333,180.38388317500912,104.0905054162487,0.0023488591044905,False
0.19,0.79493639930639,3.6000000000000005,9969.0,60.3876,0.2,68900.0,0.33,276.0,2700.0,44.20400517023114,4.185015035164646,11299.540594944545,25.922027398202182,9.25108460640485,18.28197777202896,5.066069571240204,8929,148,2946,4504,252.94700625696456,145.90323154073624,0.0038300020538476,False
0.2,0.7986981414182734,3.6000000000000005,9970.0,60.3876,0.2,68900.0,0.33,276.0,2700.0,44.1289654788901,4.396141387069863,11869.581745088628,26.082449408554893,9.3488982101227,18.04651607033521,4.952756823052837,9148,150,3022,4609,243.12676293462445,140.33919041188832,0.0036761832193405,False
0.21,0.8591795190746697,3.6000000000000005,9971.0,60.3876,0.3,68900.0,0.33,276.0,2700.0,48.69053624573878,5.093110112759307,13751.397304450127,28.71054503173808,11.005412739516924,19.979991214000695,5.912302626757617,4533,106,1484,2301,252.93380434301508,145.86063320231656,0.003851866619387,False
0.22,0.7091386201094367,3.6000000000000005,9972.0,60.3876,0.3,68900.0,0.33,276.0,2700.0,36.43032567242808,3.98503470491681,10759.593703275386,22.35968376678476,7.181175586873898,14.070641905643312,3.196140881957088,3347,90,1098,1694,206.069741123338,118.9087390722366,0.0029220277829744,False
0.23,0.7495499839647383,3.6000000000000005,9973.0,60.3876,0.1,68900.0,0.33,276.0,2700.0,39.15853627961943,4.477749166945338,12089.922750752412,24.0145246195044,8.11805987173132,15.144011660115034,3.640310704785983,43317,276,10658,24548,415.1612887786412,213.57307456977168,0.0030090502546161,True
0.24,0.8675362223555754,3.6000000000000005,9974.0,60.3876,0.2,68900.0,0.33,276.0,2700.0,48.224090730651824,5.757937969781559,15546.432518410207,29.08089755029331,11.246884486174414,19.143193180358512,5.488946516392855,9686,156,3196,4886,221.0929905689508,127.51221065904704,0.0034570685589908,False
0.25,0.8220422718258087,3.6000000000000005,9975.0,60.3876,0.1,68900.0,0.33,276.0,2700.0,44.13734148325079,5.484442761931083,14807.995457213923,27.08592701026539,9.96945632293475,17.051414472985403,4.485013561003667,48995,292,11860,27959,207.24665091633184,119.55063745274954,0.0031327817959605,False
0.26,0.7125600830694705,3.6000000000000005,9976.0,60.3876,0.3,68900.0,0.33,276.0,2700.0,35.308596079225296,4.553306401979626,12293.92728534499,22.498201899708228,7.257915300123664,12.810394179517068,2.7046088981440386,3258,88,1068,1650,175.2117104756229,100.97900943504904,0.0025386536376161,False
0.27,0.9251009173099562,3.6000000000000005,9977.0,60.3876,0.3,68900.0,0.33,276.0,2700.0,51.89071908372525,6.964023097502509,18802.862363256776,31.679736857560663,12.995318669019706,20.21098222616459,6.031295571517197,4752,110,1568,2394,211.60574602832392,122.15256103518618,0.0033723827505196,False
0.28,0.7719167017283834,3.6000000000000005,9978.0,60.3876,0.3,68900.0,0.33,276.0,2700.0,39.1158138301926,5.43023777493923,14661.64199233592,24.948084161885067,8.665602862500723,14.167729668307532,3.235365087561493,3781,96,1244,1909,176.36353799150868,101.8120753731025,0.0026132903282591,False
0.29,0.6373639259990505,3.6000000000000005,9979.0,60.3876,0.08,68900.0,0.33,276.0,2700.0,28.895170456871224,4.138719514094067,11174.54268805398,19.52170395444441,5.678938103622001,9.373466502426815,1.5402185895279343,67475,288,12116,41837,151.58053337502943,87.44146482966568,0.0020808250681704,False
0.3,0.7972055687774386,3.6000000000000005,9980.0,60.3876,0.1,68900.0,0.33,276.0,2700.0,40.37185502000831,5.999229585236625,16197.919880138888,26.01875508816145,9.310015800893634,14.35309993184686,3.310786215657009,56037,280,11068,34035,187.4232838191976,104.6493218132632,0.0025873354744372,False
0.31,0.6937203246023541,3.6000000000000005,9981.0,60.3876,0.1,68900.0,0.33,276.0,2700.0,32.26896123942719,4.939294867615825,13336.096142562728,21.73912339061653,6.841219043321308,10.529837848810658,1.9019241757054832,45803,246,8788,28005,154.14528719310982,88.93344008120732,0.0021587222908319,False
0.32,0.9256073247653844,3.6000000000000005,9982.0,60.3876,0.3,68900.0,0.33,276.0,2700.0,50.01032884446881,7.933023476399783,21419.16338627941,31.7029688833522,13.01136740611392,18.30735996111661,5.078343929714136,4707,108,1556,2367,184.00204194928835,106.19602560022388,0.0029012076455057,False
0.33,0.9786939898197686,3.6000000000000005,9983.0,60.3876,0.3,68900.0,0.33,276.0,2700.0,54.135223170560366,8.857045546347756,23914.02297513894,34.174133137852955,14.759651891636269,19.96109003270741,5.902606345288511,5105,114,1686,2570,188.56235804441727,108.82579393809158,0.0030233055206611,False
0.34,0.8099930365375752,3.6000000000000005,9984.0,60.3876,0.1,68900.0,0.33,276.0,2700.0,39.97308589192572,6.71310649652292,18125.38754061189,26.566264847788474,9.646226045065829,13.406821044137246,2.9331195485429067,57813,276,10790,35578,160.95582048650223,92.88729625358854,0.0023794824278669,False
0.3500000000000001,1.0326600037797469,3.6000000000000005,9985.0,60.3876,0.2,68900.0,0.33,276.0,2700.0,58.05647362276997,10.070085693969636,27189.23137371802,36.75882926892127,16.67330734183169,21.297644353848703,6.603221647862055,13119,176,3908,6921,224.38391886570693,129.54169851788882,0.0041225603663864,False
0.36,0.824890460092006,3.6000000000000005,9986.0,60.3876,0.1,68900.0,0.33,276.0,2700.0,40.44075546567751,7.181619885924698,19390.373691996683,27.209297521676195,10.046777785254797,13.23145794400131,2.865157899330097,60054,278,10904,37120,159.28826321777095,91.90189107297608,0.0023192893448622,False
0.37,0.7772092202338756,3.6000000000000005,9987.0,60.3876,0.1,68900.0,0.33,276.0,2700.0,36.46542994554032,6.640017144803432,17928.046290969265,25.17082698815059,8.798230184380385,11.294602957389731,2.158213039576953,55548,262,9870,34485,147.3345981610911,84.99925580915385,0.0021257888908148,False
0.38,0.7109105482978443,3.6000000000000005,9988.0,60.3876,0.2,68900.0,0.33,276.0,2700.0,31.292444006471676,5.830640713171103,15742.729925561978,22.431383655945783,7.22085885269959,8.86106035052589,1.3902181395284865,8272,122,2140,4592,137.2906415397933,79.2255774146755,0.0018928128125036,False
0.39,1.036579801502311,3.6000000000000005,9989.0,60.3876,0.3,68900.0,0.33,276.0,2700.0,56.82827466301858,10.957276136209764,29584.645567766365,36.949418855171736,16.81776792725815,19.878855807846847,5.860491791048384,5229,116,1734,2622,172.66679865770416,99.6709697804375,0.002809816959471,False
0.4,1.067372829797062,3.6000000000000005,9990.0,60.3876,0.3,68900.0,0.33,276.0,2700.0,59.15258863549023,11.696476440544847,31580.486389471087,38.46007911493664,17.97875017687666,20.692509520553592,6.282273736331812,5439,118,1804,2727,171.278732150849,98.8403597682243,0.0028495681718256,False
0.4100000000000001,0.9482570658653576,3.6000000000000005,9991.0,60.3876,0.2,68900.0,0.33,276.0,2700.0,48.56446798264285,9.811368131589749,26490.69395529232,32.74864268609612,13.741249227923944,15.815825296546734,3.929881096334196,12916,156,3180,7304,158.50516520805792,91.47334581352494,0.0024436897287717,False
0.42,0.8830749509607041,3.6000000000000005,9992.0,60.3876,0.2,68900.0,0.33,276.0,2700.0,42.94343029869819,8.862950818380519,23929.9672096274,29.77420914128268,11.704143393252986,13.16922115741551,2.841192574872468,11274,144,2770,6385,146.4773274313165,84.50604903876618,0.0022087731503703,False
0.43,0.925390101761816,3.6000000000000005,9993.0,60.3876,0.1,68900.0,0.33,276.0,2700.0,45.98239286343871,9.719695394233272,26243.17756442984,31.693002738266166,13.004481874450528,14.289390125172543,3.284786480217255,78355,300,12558,49764,162.42504759471828,93.73026104815288,0.0023922885946233,False
0.44,0.9586084851185512,3.6000000000000005,9994.0,60.3876,0.3,68900.0,0.33,276.0,2700.0,48.34126368018731,10.456669057237962,28233.006454542498,33.23083090705959,14.082737501509714,15.11043277312772,3.626068444271752,4673,106,1548,2339,155.49340484628794,89.3865752145784,0.0040322893325876,False
0.45,1.0413263088683875,3.6000000000000005,9995.0,60.3876,0.2,68900.0,0.33,276.0,2700.0,54.95025051785832,12.17295461281254,32866.97745459386,37.18072188051602,16.993697332817774,17.769528637342304,4.820742720005233,14824,168,3656,8382,157.4296805207246,90.885997053584,0.0025264377761815,False
0.46,1.0888459608791938,3.6000000000000005,9996.0,60.3876,0.2,68900.0,0.33,276.0,2700.0,58.72111965135917,13.301997478125868,35915.393190939845,39.52762251674879,18.81604950989895,19.19349713461039,5.5140520317730815,15609,174,3832,8839,160.54806231324417,92.6593652012159,0.002623366193423,False
0.4700000000000001,0.9912688509755948,3.6000000000000005,9997.0,60.3876,0.1,68900.0,0.33,276.0,2700.0,49.97523716404824,11.526734350835566,31122.18274725603,34.76986404466185,15.193128323133934,15.205373119386389,3.666393972298368,90610,314,13510,58429,160.74456059854714,90.57072749941696,0.0023133046869321,False
0.4800000000000001,0.8925465698423913,3.6000000000000005,9998.0,60.3876,0.1,68900.0,0.33,276.0,2700.0,41.67010635848246,9.769202182871934,26376.845893754224,30.19979346373318,11.9881670613587,11.470312894749275,2.2189648784867657,76277,282,11398,49122,137.07325458866876,78.6442835650257,0.0020230357476202,False
0.04,0.4521388807893066,3.6000000000000005,10004.0,63.40698,0.08,68900.0,0.33,276.0,2700.0,24.252944431729222,0.4849248473472879,1309.2970878376775,12.796078251295391,2.6992161460132733,11.456866180433831,2.214291298665985,31619,264,10360,16073,793.6688026251959,453.5713545333763,0.0085992159017562,True
0.05,0.699195260134588,3.6000000000000005,10005.0,63.40698,0.2,68900.0,0.33,276.0,2700.0,41.93940030041529,1.0482232081225815,2830.202661930971,21.958796203118585,6.960840345942778,19.98060409729671,5.912617137820196,8690,146,2860,4394,848.1397430480332,489.15851388775553,0.0117906130084534,True
0.06,0.5696517141792613,3.6000000000000005,10006.0,63.40698,0.08,68900.0,0.33,276.0,2700.0,31.75514460546315,0.9522019488214424,2570.9452618178943,16.963044122489606,4.444356827571736,14.792100482973543,3.492154878750294,40781,306,13404,20669,669.2546515470591,382.91878282423977,0.0077398909080485,True
0.0699999999999999,0.6680780079588711,3.6000000000000005,10007.0,63.40698,0.2,68900.0,0.33,276.0,2700.0,38.743457125225554,1.3553026218627786,3659.317079029502,20.72029441262421,6.296875438073488,18.023162712601344,4.941572816210709,7964,138,2622,4025,615.1185346776259,351.94336132403294,0.0081488080458579,True
0.08,0.4770795995173494,3.6000000000000005,10008.0,63.40698,0.2,68900.0,0.33,276.0,2700.0,24.614550737013168,0.9835096991881044,2655.476187807882,13.651454391581304,3.028993889683448,10.963096345431865,2.045484190495343,5040,108,1652,2556,385.3397659409983,222.29776165285844,0.0048149679027035,True
0.09,0.7860196980373378,3.6000000000000005,10009.0,63.40698,0.1,68900.0,0.33,276.0,2700.0,47.374479553756174,2.130324765889376,5751.876867901315,25.543189330868174,9.021636109556075,21.831290222888,6.891311343666701,39007,308,12828,19759,602.7510064201665,345.0959407264045,0.0079032408175697,True
0.0999999999999999,0.7558679280745634,3.6000000000000005,10010.0,63.40698,0.3,68900.0,0.33,276.0,2700.0,44.51792116555861,2.223801663175539,6004.264490573955,24.276953736969112,8.270610774164942,20.2409674285895,6.046809110989402,4100,100,1342,2081,481.0753174824302,275.60648331424534,0.0068402761700951,True
0.11,0.5143817201475517,3.6000000000000005,10011.0,63.40698,0.1,68900.0,0.33,276.0,2700.0,26.16176766738009,1.436109581824619,3877.495870926472,14.959958228883558,3.562518364750063,11.201809438496532,2.126408782925444,21671,222,7142,10952,292.13566487904194,168.585226946339,0.0039230217695875,True
0.12,0.4877053944112247,3.6000000000000005,10012.0,63.40698,0.08,68900.0,0.33,276.0,2700.0,24.036994284153486,1.4386005423122774,3884.221464243149,14.020629708419394,3.1760103219367104,10.016364575734093,1.737409779624433,31224,262,10328,15720,257.4388062695971,148.59016843450206,0.00341160223634,False
0.13,0.7028654483152883,3.6000000000000005,10013.0,63.40698,0.2,68900.0,0.33,276.0,2700.0,39.18835587083653,2.542641745564421,6865.132713023938,22.106478268629445,7.041704167171854,17.081877602207086,4.499062421607433,8245,140,2700,4189,340.02336490326775,195.58183242826723,0.0048932593241305,True
0.14,0.4801949098433163,3.6000000000000005,10014.0,63.40698,0.05,68900.0,0.33,276.0,2700.0,22.908762595027504,1.5978663614909574,4314.239176025585,13.759396571493076,3.071690479884693,9.149366023534428,1.4738241183937355,113032,406,24870,66609,227.63226913113616,130.16517495976694,0.0029353485107756,False
0.15,0.8231392021136923,3.6000000000000005,10015.0,63.40698,0.3,68900.0,0.33,276.0,2700.0,48.05349535238715,3.5969435679584563,9711.747633487832,27.1334168818658,9.999193740422456,20.920078470521357,6.402250172463999,4706,108,1542,2387,351.9900702203139,203.1473595429009,0.0052256113912927,True
0.16,0.7860186169790522,3.6000000000000005,10016.0,63.40698,0.3,68900.0,0.33,276.0,2700.0,44.62810299415029,3.561669597192617,9616.507912420066,25.54314352179823,9.021608495904372,19.08495947235206,5.459938898711755,4317,104,1414,2190,316.9962468689459,182.9150468321164,0.004643481148398,True
0.17,0.8328129121803088,3.6000000000000005,10017.0,63.40698,0.2,68900.0,0.33,276.0,2700.0,48.06667908376532,4.075377958981586,11003.520489250282,27.55353426067173,10.263704699315513,20.51314482309359,6.188326740333925,9866,158,3246,4991,306.03664070158965,176.6743838736664,0.0047247514792909,True
0.18,0.7023506324958488,3.6000000000000005,10018.0,63.40698,0.1,68900.0,0.33,276.0,2700.0,37.3297720260686,3.347464970109023,9038.155419294362,22.085742551458907,7.030328740270449,15.24402947460969,3.6828637701614255,36418,270,10260,19668,253.3435674019289,146.20607526338176,0.0036362480285176,False
0.19,0.5613877933711934,3.6000000000000005,10019.0,63.40698,0.2,68900.0,0.33,276.0,2700.0,26.792522586201347,2.5309241896818127,6833.495312140894,16.658663021844053,4.305434446933952,10.133859564357294,1.7745102572521394,5641,112,1862,2842,196.3286135015696,113.34345292833288,0.0026717044202256,False
0.2,0.7077139318805585,3.6000000000000005,10020.0,63.40698,0.1,68900.0,0.33,276.0,2700.0,37.025587060431135,3.685803545223973,9951.669572104724,22.30209193990432,7.14936103986529,14.723495120526811,3.463557494641317,40652,266,10046,22991,231.23124267189093,133.40973656309862,0.0033441854777383,False
0.21,0.5167601348527184,3.6000000000000005,10021.0,63.40698,0.05,68900.0,0.33,276.0,2700.0,23.16584413860433,2.4130174415101893,6515.147092077511,15.044575511759382,3.598199948706546,8.121268626844953,1.1851825071963566,152615,406,24944,96473,186.4403622715186,105.30469364500702,0.002266360937177,False
0.22,0.5261160307420545,3.6000000000000005,10022.0,63.40698,0.05,68900.0,0.33,276.0,2700.0,23.480550166433808,2.5605593992568947,6913.510377993615,15.378811482253022,3.7405172541651504,8.101738684180786,1.1799578549082557,160648,410,25168,102522,228.43335781393665,127.91819149479306,0.0037171512405503,False
0.23,0.5459947005824537,3.6000000000000005,10023.0,63.40698,0.08,68900.0,0.33,276.0,2700.0,24.49868974325931,2.791866815263843,7538.040401212375,16.096272591080883,4.053342204340473,8.402417152178426,1.2614753890766304,49940,262,10432,29874,169.47874736618564,97.81319818975562,0.0022293797408474,False
0.24,0.7301273135869806,3.6000000000000005,10024.0,63.40698,0.1,68900.0,0.33,276.0,2700.0,37.31921797450087,4.449353239044622,12013.25374542048,23.21404566662658,7.659422740846256,14.105172307874296,3.210069501801634,40847,266,10012,23191,951.5167362343134,549.1647342812768,0.0029507645651562,True
0.25,0.590004657281798,3.6000000000000005,10025.0,63.40698,0.1,68900.0,0.33,276.0,2700.0,26.86345001006578,3.325206327783332,8978.057085014996,17.720013608465237,4.797290319932122,9.143436401600542,1.4720839921487905,30022,224,7280,17106,167.9881300209021,96.97073847335938,0.0022605800888882,False
0.26,0.8273255196913569,3.6000000000000005,10026.0,63.40698,0.3,68900.0,0.33,276.0,2700.0,44.19212577876392,5.708165262919649,15412.046209883052,27.31493485215798,10.113162632733978,16.877190926605945,4.404997369814329,4179,100,1378,2106,209.26218604203228,120.8139993166559,0.0031855478490184,False
0.27,0.8999002665722733,3.6000000000000005,10027.0,63.40698,0.3,68900.0,0.33,276.0,2700.0,49.76579072354957,6.677157768878792,18028.325975972737,30.531768883911788,12.21146697420974,19.234021839637784,5.534309205330948,4654,108,1524,2362,217.3068244727187,125.28517255967424,0.0034192599868419,False
0.28,0.9697538513389744,3.6000000000000005,10028.0,63.40698,0.3,68900.0,0.33,276.0,2700.0,55.333459167543246,7.700708122168328,20791.911929854483,33.753013414683025,14.456014339794248,21.58044575286022,6.75530621762592,5283,116,1746,2658,224.6461918693482,129.500865588183,0.0036324110218977,False
0.29,0.8365138685251154,3.6000000000000005,10029.0,63.40698,0.3,68900.0,0.33,276.0,2700.0,43.83002776610802,6.304273823933391,17021.539324620157,27.71488428488995,10.365977595286914,16.115143481218073,4.061703771353523,4166,100,1376,2096,192.2627033812352,110.93047992747093,0.0029370384509449,False
0.3,0.8616576927877185,3.6000000000000005,10030.0,63.40698,0.1,68900.0,0.33,276.0,2700.0,45.48876669640888,6.766766336696485,18270.26910908051,28.820189709520303,11.076698284905904,16.66857698688857,4.309931948209418,62592,300,12290,38083,195.80333255623205,112.4928441202259,0.0029770619274323,False
0.31,0.8770931031381147,3.6000000000000005,10031.0,63.40698,0.2,68900.0,0.33,276.0,2700.0,46.37521146126946,7.125763652001376,19239.561860403715,29.506590893193877,11.52683947924502,16.868620568075585,4.401075827243644,9192,152,3040,4620,190.78118307249096,110.14724947380392,0.0029329393382087,False
0.32,0.990845689064711,3.6000000000000005,10032.0,63.40698,0.3,68900.0,0.33,276.0,2700.0,55.57921749441496,8.824045660391125,23824.92328305604,34.74975223682445,15.178419296458085,20.829465257590503,6.354373636066958,5254,116,1734,2647,205.18905612047212,118.46314552280045,0.0033162386150024,False
0.33,0.8190251595266249,3.6000000000000005,10033.0,63.40698,0.3,68900.0,0.33,276.0,2700.0,41.022142692717146,6.6933872675036215,18072.145622259777,26.95546185891314,9.88793191094538,14.066680833804009,3.19454464344176,3962,98,1312,1988,187.92526503180676,107.47497196550546,0.0025819482302173,False
0.34,1.0174717399270676,3.6000000000000005,10034.0,63.40698,0.3,68900.0,0.33,276.0,2700.0,57.11559911856635,9.627333745051804,25993.80111163987,36.023987916777656,16.120592364242484,21.09161120178869,6.49325861919068,5524,118,1826,2779,198.23400540359071,114.44617024225094,0.003244678684438,False
0.3500000000000001,1.038239772315518,3.6000000000000005,10035.0,63.40698,0.3,68900.0,0.33,276.0,2700.0,58.55022657587611,10.156492460763207,27422.529644060654,37.03024684925133,16.879169960598386,21.519979726624776,6.722677499835179,5479,118,1808,2761,197.22161903674035,113.8511941911534,0.0032452414509918,False
0.36,0.9777806536366238,3.6000000000000005,10036.0,63.40698,0.1,68900.0,0.33,276.0,2700.0,52.90088028613639,9.4244423536073,25445.99435473971,34.13101887264344,14.728459109818768,18.769861413492954,5.304016756211469,78692,326,14208,48728,194.7638963395167,110.01996667569566,0.0029709526768575,False
0.37,0.8328166312873904,3.6000000000000005,10037.0,63.40698,0.2,68900.0,0.33,276.0,2700.0,40.714068758882014,7.426015325271653,20050.241378233462,27.55369622921673,10.26380717416036,13.160372529665288,2.837791848888706,10366,142,2742,5727,171.53273957548336,98.93036759690972,0.0062759901357554,False
0.38,0.8502969517052186,3.6000000000000005,10038.0,63.40698,0.1,68900.0,0.33,276.0,2700.0,41.736098049854704,7.814934981413897,21100.324449817523,28.31881153508878,10.752130656470836,13.417286514765925,2.9371956750569392,64825,284,11414,40296,161.18593234051625,92.96642464362571,0.0024129500164999,False
0.39,0.9410501859659928,3.6000000000000005,10039.0,63.40698,0.3,68900.0,0.33,276.0,2700.0,48.69484232355816,9.37125683001499,25302.39344104048,32.414523069585655,13.506438457163991,16.280319253972507,4.1351816271490005,4331,104,1436,2171,162.89127252375138,93.65439023535563,0.0026248934132321,False
0.4,0.9556229567247284,3.6000000000000005,10040.0,63.40698,0.2,68900.0,0.33,276.0,2700.0,49.53882893089496,9.773724499625828,26389.056148989737,33.09148313418511,13.98373398138632,16.447345796709847,4.2100094817604905,13516,160,3358,7623,170.2321267868484,98.2588330772876,0.0026425434733059,False
0.4100000000000001,1.0107801158702154,3.6000000000000005,10041.0,63.40698,0.3,68900.0,0.33,276.0,2700.0,53.82706341609739,10.89020019544793,29403.54052770941,35.70207240832686,15.880611076412189,18.124991007770525,4.990410880964257,5249,114,1748,2621,166.00452534556047,95.65072553841313,0.0027428360281219,False
0.42,0.9098288905740836,3.6000000000000005,10042.0,63.40698,0.2,68900.0,0.33,276.0,2700.0,45.07689033773622,9.310977426578498,25139.639051761944,30.98214312744357,12.51683917596276,14.094747210292642,3.205861749384262,12247,150,3038,6906,158.22250589315055,91.34146961114236,0.0024000371626573,False
0.43,0.7863135852403627,3.6000000000000005,10043.0,63.40698,0.2,68900.0,0.33,276.0,2700.0,35.2106856097843,7.403778334697408,19990.201503683,25.55564367978304,9.029144756059347,9.65504193000126,1.6253664213619388,9484,130,2376,5328,141.5142208150795,81.36058071257536,0.0020112895695878,False
0.44,0.8084243222459679,3.6000000000000005,10044.0,63.40698,0.08,68900.0,0.33,276.0,2700.0,36.538154198929206,7.859984971362167,21221.959422677854,26.498877431963056,9.604604029610808,10.03927676696615,1.7446190582486407,114930,324,15122,75511,153.6031365825581,86.71296281117098,0.0020421909063162,False
0.45,1.0058632471241755,3.6000000000000005,10045.0,63.40698,0.2,68900.0,0.33,276.0,2700.0,51.92238997792158,11.491685991326776,31027.5521765823,35.4662527208987,15.705648668601304,16.45613725702288,4.213962677274527,13782,162,3414,7771,160.7787151759743,92.82547745060472,0.0025482109689692,False
0.46,0.843654711036618,3.6000000000000005,10046.0,63.40698,0.1,68900.0,0.33,276.0,2700.0,38.554896365552246,8.663766122390475,23392.168530454284,28.02717538006229,10.564999467336142,10.527720985489957,1.9012333449456664,68249,270,10400,43801,141.6133203883969,81.7561622136015,0.0020658583617022,False
0.4700000000000001,1.0726802726674605,3.6000000000000005,10047.0,63.40698,0.3,68900.0,0.33,276.0,2700.0,56.919569974273415,13.15865256123848,35528.36191534389,38.72286211546871,18.18357188932814,18.196707858804707,5.024919328089659,5526,116,1784,2804,156.8173537917583,90.2831095460592,0.0026307077292025,False
0.4800000000000001,0.9612956762055388,3.6000000000000005,10048.0,63.40698,0.2,68900.0,0.33,276.0,2700.0,47.154040791544034,11.085346446806698,29930.435406378085,33.356445520247306,14.172203828730217,13.797595271296728,3.086857381923517,12730,154,3162,7173,149.1616931698104,86.05838839492355,0.0022978294974406,False
0.49,1.1626828812013097,3.6000000000000005,10049.0,63.40698,0.2,68900.0,0.33,276.0,2700.0,64.18892199000388,15.4798823981495,41795.68247500365,43.28688259983235,21.87259041732252,20.902039390171524,6.39270801917302,17519,186,4268,9957,168.7484585991986,97.39430888787894,0.0028282132726957,False
0.5,0.8901820189191365,3.6000000000000005,10050.0,63.40698,0.08,68900.0,0.33,276.0,2700.0,40.83217573616311,9.946244546241632,26854.860274852406,30.09333689973647,11.916884000514091,10.738838836426638,1.97063945427246,141329,344,16852,94189,161.86215233132114,91.07141550230136,0.0020567301589982,False
0.04,0.4910218408497114,3.6000000000000005,10054.0,66.42636,0.1,68900.0,0.33,276.0,2700.0,26.89456870891054,0.5377573328916568,1451.9447988074735,14.136435097355209,3.2227009441861623,12.758133611555332,2.6849436112945053,22179,224,7284,11247,887.144161234816,506.65894511215794,0.0099219152451823,True
0.05,0.5525025843985174,3.6000000000000005,10055.0,66.42636,0.1,68900.0,0.33,276.0,2700.0,30.872773527497174,0.7715575387996291,2083.2053547589985,16.33331309017395,4.158865614980032,14.539460437323225,3.387308076180403,25356,240,8314,12879,816.1707505216643,465.58444450816046,0.0092607829174184,True
0.06,0.6463501755388508,3.6000000000000005,10056.0,66.42636,0.2,68900.0,0.33,276.0,2700.0,37.45325972052929,1.12314540227376,3032.492586139152,19.869930957482826,5.855928114345061,17.583328763046463,4.732782712071301,8047,138,2644,4075,698.7531681951046,399.2481273212862,0.0094551911777736,True
0.0699999999999999,0.3945395118077848,3.6000000000000005,10057.0,66.42636,0.05,68900.0,0.33,276.0,2700.0,19.54484772379261,0.6833512928126181,1845.0484905940689,10.880372683512697,2.0177420612125494,8.664475040279916,1.3343907683999312,64236,374,21220,32400,380.0680097362182,218.64827598556735,0.0045912207290469,True
0.08,0.4220220032723458,3.6000000000000005,10058.0,66.42636,0.08,68900.0,0.33,276.0,2700.0,20.990373296598374,0.8385426015715104,2264.065024243078,11.784015738609869,2.329135518161275,9.20635755798851,1.490592916589765,27164,244,8956,13724,341.95977222808546,197.0902806756235,0.0043817192378921,True
0.09,0.5282714255892139,3.6000000000000005,10059.0,66.42636,0.1,68900.0,0.33,276.0,2700.0,27.78336168204096,1.2487244616620952,3371.556046487657,15.456123966499048,3.773747963682841,12.327237715541914,2.525023502020746,23036,228,7582,11657,388.9208404714126,223.71119401314675,0.0050963734910074,True
0.0999999999999999,0.713943706894508,3.6000000000000005,10060.0,66.42636,0.1,68900.0,0.33,276.0,2700.0,41.177983831489776,2.056804796472089,5553.37295047464,22.554301539828,7.289083153144233,18.62368229166178,5.232278356672144,33939,284,11180,17163,501.3885211223599,287.8718674361252,0.0066609464468887,True
0.11,0.5415717540601117,3.6000000000000005,10061.0,66.42636,0.1,68900.0,0.33,276.0,2700.0,28.03824267055756,1.53931570699938,4156.152408898326,15.935780535220138,3.98250435656594,12.10246213533742,2.44318864956656,23513,230,7748,11885,322.5969726966761,185.6641317941012,0.0043632826375746,True
0.12,0.4828920198953277,3.6000000000000005,10062.0,66.42636,0.2,68900.0,0.33,276.0,2700.0,23.716342778191557,1.4193614519545583,3832.275920277308,13.853045557669724,3.108927336406518,9.863297220521828,1.68956588445196,4963,106,1632,2509,276.33557510029306,159.53700531865385,0.0035343203449644,True
0.13,0.59407582702378,3.6000000000000005,10063.0,66.42636,0.2,68900.0,0.33,276.0,2700.0,31.076200220052502,2.01535162826346,5441.449396311342,17.872678652218607,4.869742124491703,13.2035215678339,2.854390496228243,6375,122,2096,3225,305.3591956424121,176.2119134800202,0.0041811046704345,True
0.14,0.6855545257560238,3.6000000000000005,10064.0,66.42636,0.3,68900.0,0.33,276.0,2700.0,37.49316211129441,2.618774327629633,7070.690684600009,21.412883835615933,6.6650348783021744,16.080278275678477,4.0462605506725415,3505,92,1152,1771,337.55095353565184,194.86965450690613,0.004645200048436,True
0.15,0.8064668370720516,3.6000000000000005,10065.0,66.42636,0.3,68900.0,0.33,276.0,2700.0,46.679267495788245,3.493876478713541,9433.466492526562,26.414876285846685,9.552815101120572,20.26439120994156,6.05893862240703,4227,104,1384,2145,358.0314323498588,206.67560637648185,0.0053361632820029,True
0.16,0.4961472607050092,3.6000000000000005,10066.0,66.42636,0.05,68900.0,0.33,276.0,2700.0,23.33935959061241,1.8585701249095896,5018.139337255892,14.315950877081043,3.295615874189547,9.023408713531367,1.4370457492799575,132970,410,24822,81921,225.04895145581105,127.3768565422569,0.0028431243103176,False
0.17,0.4941638275324513,3.6000000000000005,10067.0,66.42636,0.08,68900.0,0.33,276.0,2700.0,22.899318352766024,1.9361522968470608,5227.611201487064,14.246403611169605,3.267290129842603,8.652914741596419,1.331137832995542,39102,254,9666,22113,205.9910892136628,118.81816177806716,0.0026866670000438,False
0.18,0.808830756738375,3.6000000000000005,10068.0,66.42636,0.3,68900.0,0.33,276.0,2700.0,45.70924367487658,4.101617418501737,11074.36702995469,26.51633074263592,9.615377634082344,19.19291293224066,5.513760215580607,4296,104,1402,2187,306.3480334567361,176.7072111540144,0.0045231241122638,True
0.19,0.7971437896071694,3.6000000000000005,10069.0,66.42636,0.2,68900.0,0.33,276.0,2700.0,44.38164943597649,4.20189124041045,11345.106349108211,26.01611991915078,9.308408465192612,18.365529516825717,5.106517224782164,9417,152,3094,4770,278.94329746969817,160.9840510506713,0.0042287104450105,True
0.2,0.6748578757363919,3.6000000000000005,10070.0,66.42636,0.3,68900.0,0.33,276.0,2700.0,34.56269034201784,3.43951387338264,9286.687458133129,20.98806730501092,6.438263374191741,13.57462303700692,2.998749500809101,3291,88,1076,1671,235.4195485890842,135.2732531858053,0.0032969538585419,False
0.21,0.8219642603882478,3.6000000000000005,10071.0,66.42636,0.3,68900.0,0.33,276.0,2700.0,45.63096524936947,4.771855158140534,12884.008926979444,27.08255077958923,9.967343442524156,18.54841446978024,5.195488284383622,4500,104,1480,2274,265.08399517671944,152.85344499831888,0.0040101132124314,False
0.22,0.5458422180596495,3.6000000000000005,10072.0,66.42636,0.05,68900.0,0.33,276.0,2700.0,24.79531989102922,2.7051840689629327,7303.996986199918,16.090731392292543,4.050888226563334,8.704588498736676,1.3457041576004012,171866,422,26872,109766,222.78599276826185,124.5786547929326,0.0024213606756902,False
0.23,0.677524795676295,3.6000000000000005,10073.0,66.42636,0.3,68900.0,0.33,276.0,2700.0,33.73326022787759,3.853842420995105,10405.374536686784,21.09371469542519,6.494377706226296,12.639545532452397,2.640535285231191,3296,88,1082,1667,205.2858839597345,118.47405524275608,0.0029282005545327,False
0.24,0.549088287044201,3.6000000000000005,10074.0,66.42636,0.05,68900.0,0.33,276.0,2700.0,24.40076709895236,2.899139133978799,7827.675661742757,16.20881938808447,4.103311439928813,8.19194771086789,1.204172305950014,177590,416,26004,114916,202.26159240498427,113.19618513170386,0.0022771954649738,False
0.25,0.7641706994702071,3.6000000000000005,10075.0,66.42636,0.3,68900.0,0.33,276.0,2700.0,39.57580987474322,4.914251310868009,13268.478539343623,24.62335229944788,8.473613606515746,14.952457575295345,3.559362295647737,3616,92,1186,1831,211.45466172634755,122.05138749713088,0.0031396659965826,False
0.26,0.654631250358213,3.6000000000000005,10076.0,66.42636,0.1,68900.0,0.33,276.0,2700.0,31.075986091949936,4.003067103633831,10808.281179811343,20.192628558982765,6.0218074513757465,10.883357532967173,2.0187403477419155,35572,242,8550,20339,184.98313778306155,106.734714104807,0.0025636538665723,False
0.28,0.9555870525582206,3.6000000000000005,10078.0,66.42636,0.3,68900.0,0.33,276.0,2700.0,54.106743858089104,7.52896797884405,20328.213542878933,33.089808691664004,13.9825458893261,21.0169351664251,6.453577910482049,5249,114,1730,2648,231.63328993583983,133.6271322886059,0.003736234818823,False
0.29,0.614224056758601,3.6000000000000005,10079.0,66.42636,0.04,68900.0,0.33,276.0,2700.0,27.289118302270897,3.905841951677009,10545.773269527925,18.63435046701968,5.237500998836123,8.65476783525122,1.3316590471591137,426898,552,45112,289122,228.6066520301776,128.94133616881467,0.0022055503660448,False
0.3,0.7224093061535941,3.6000000000000005,10080.0,66.42636,0.1,68900.0,0.33,276.0,2700.0,34.69547694916722,5.147772874610411,13898.986761448112,22.898590785730807,7.481474868274623,11.796886163436415,2.333701993664212,47467,256,9400,28799,179.00301798004992,103.27530110561476,0.0025462954014768,False
0.31,0.9246389919539776,3.6000000000000005,10081.0,66.42636,0.3,68900.0,0.33,276.0,2700.0,50.30869477418141,7.735453565502726,20885.72462685736,31.65855112026512,12.980689888615514,18.65014365391629,5.245236323112787,4742,108,1564,2390,207.1864250758028,119.485426345947,0.0032747496201242,False
0.32,0.7372191691595229,3.6000000000000005,10082.0,66.42636,0.1,68900.0,0.33,276.0,2700.0,35.1299544099056,5.552163566869677,14990.841630548128,23.50522794360697,7.825085164264809,11.624726466298624,2.2729215973951327,50808,258,9650,31139,173.7426414587067,99.83749142537934,0.0024739643752508,False
0.33,0.7365728249565617,3.6000000000000005,10083.0,66.42636,0.2,68900.0,0.33,276.0,2700.0,34.75233762239461,5.65886943090039,15278.947463431054,23.47863754765709,7.809901290283842,11.273700074737524,2.151031859383452,7612,130,2392,3924,169.72149250539414,97.92970732595307,0.0023936523544461,False
0.34,0.8809774171772491,3.6000000000000005,10084.0,66.42636,0.1,68900.0,0.33,276.0,2700.0,45.594518232653314,7.668749994446599,20705.624985005816,29.68026647003488,11.641789526994751,15.914251762618434,3.973039532548154,65627,298,12236,40401,188.7638604972894,108.9085101142294,0.0028817682240975,False
0.3500000000000001,0.766860164998922,3.6000000000000005,10085.0,66.42636,0.1,68900.0,0.33,276.0,2700.0,36.34877368717453,6.271238205240436,16932.343154149177,24.735930551948684,8.539988610647876,11.612843135225845,2.2687504054074408,54384,264,10044,33504,166.4787661414817,96.0807553912069,0.0024066811439847,False
0.36,0.6725145218592242,3.6000000000000005,10086.0,66.42636,0.08,68900.0,0.33,276.0,2700.0,29.19159583797988,5.15677115293912,13923.282112935623,20.8953852033116,6.3891895257303055,8.296210634668281,1.2324183727911855,79174,288,12200,50728,158.22155267444288,88.41359201750943,0.0020536015999256,False
0.37,0.9695011092853244,3.6000000000000005,10087.0,66.42636,0.2,68900.0,0.33,276.0,2700.0,51.81790642827933,9.480225294110152,25596.60829409741,33.741137352783724,14.447485034690889,18.076769075495605,4.967259740580735,12261,162,3388,6669,195.1754306050456,112.37890431914892,0.0029974050141979,False
0.38,0.7715181892578737,3.6000000000000005,10088.0,66.42636,0.08,68900.0,0.33,276.0,2700.0,35.71352840185308,6.670646748293568,18010.746220392633,24.931340723415477,8.65566407621395,10.782187678437609,1.9850173279203824,99923,322,14836,64469,166.32724882772516,93.99604806642331,0.0022743948390318,False
0.39,0.7793713925290944,3.6000000000000005,10089.0,66.42636,0.2,68900.0,0.33,276.0,2700.0,35.97458936936165,6.890807503946646,18605.180260655943,25.26202749335129,8.852752423574316,10.712561876010362,1.96194491962767,9762,134,2464,5472,158.14345630916316,91.23678897024254,0.0022450111107645,False
0.4,1.0958048891741017,3.6000000000000005,10090.0,66.42636,0.3,68900.0,0.33,276.0,2700.0,61.6987484595851,12.20570840536386,32955.412694482424,39.87607414516853,19.0923311198023,21.822674314416567,6.88662271443844,5546,120,1842,2777,192.32380439928957,110.87227837354386,0.0032390348802199,False
0.4100000000000001,0.7281194532220923,3.6000000000000005,10091.0,66.42636,0.08,68900.0,0.33,276.0,2700.0,31.59924420099704,6.333497256352353,17100.442592151354,23.13183515635265,7.612894729209597,8.467409044644388,1.2793974728572444,93906,300,13298,61019,150.89727918669308,86.47090108026067,0.0020246772110373,False
0.42,1.0899073854319736,3.6000000000000005,10092.0,66.42636,0.3,68900.0,0.33,276.0,2700.0,60.37312455518976,12.523186612243746,33812.60385305811,39.580692140715634,18.85803326114713,20.792432414474128,6.334846648903385,5612,120,1862,2813,186.7303562514714,107.59517793151436,0.0030851850092109,False
0.43,1.1230290685225015,3.6000000000000005,10093.0,66.42636,0.3,68900.0,0.33,276.0,2700.0,62.96239536024724,13.3703959310468,36100.06901382636,41.25095392345639,20.19659724150536,21.71144143679085,6.82620131045856,5782,122,1920,2896,185.4628090935379,106.85868014344112,0.0031391971274841,False
0.44,1.1332636442273332,3.6000000000000005,10094.0,66.42636,0.3,68900.0,0.33,276.0,2700.0,63.49347357732774,13.790155234609824,37233.41913344653,41.7726396976217,20.62145062333832,21.72083387970604,6.831295388728494,5777,122,1916,2895,183.4810014962968,105.67353156307632,0.0031132353891761,False
0.45,0.8606532612684568,3.6000000000000005,10095.0,66.42636,0.2,68900.0,0.33,276.0,2700.0,40.18363257297702,8.850465575214248,23896.25705307847,28.775730893800446,11.047772708010667,11.407901679176572,2.1973071327964213,11006,140,2722,6209,152.90263288551523,88.15090367335065,0.0022357044905898,False
0.46,0.772445815034176,3.6000000000000005,10096.0,66.42636,0.05,68900.0,0.33,276.0,2700.0,33.26443787662684,7.446960669937634,20106.79380883161,24.97032094162481,8.678809108362584,8.29411693500203,1.23184843842495,412463,490,35466,285594,185.77597293062416,104.15553853999413,0.0019784248771025,False
0.4700000000000001,0.8775853743995217,3.6000000000000005,10097.0,66.42636,0.1,68900.0,0.33,276.0,2700.0,40.83554316935446,9.378906262082566,25323.046907622927,29.528580358604614,11.541370138104927,11.30696281074984,2.162463876022361,73628,278,11020,47420,152.81762508150035,87.31051066182067,0.0022212609599807,False
0.4800000000000001,1.0485282812277616,3.6000000000000005,10098.0,66.42636,0.1,68900.0,0.33,276.0,2700.0,54.45432848426367,12.837415493059416,34661.02183126042,37.53276404390245,17.26273878069646,16.921564440361216,4.425323287637044,98399,328,14466,63584,167.05151667914183,96.10918513511064,0.0026402976993828,False
0.49,1.0245026410534874,3.6000000000000005,10099.0,66.42636,0.2,68900.0,0.33,276.0,2700.0,52.043727479077006,12.50430974297228,33761.63630602515,36.36343753082225,16.375066051868323,15.680289948254751,3.870756308896043,14151,164,3482,8006,160.9845188447121,92.85397051314268,0.0025460713724891,False
0.5,0.9333465570496716,3.6000000000000005,10100.0,66.42636,0.1,68900.0,0.33,276.0,2700.0,44.22071436901911,10.793379204455627,29142.123852030192,32.058817007937435,13.25810007120048,12.161897361081678,2.464720866744852,82545,290,11980,53439,151.0766024216192,86.48255629402506,0.0022676006877518,False
0.04,0.3486461228145582,3.6000000000000005,10104.0,69.44574,0.05,68900.0,0.33,276.0,2700.0,17.59219742746127,0.3517099072626707,949.6167496092112,9.41368361505796,1.5522629971395727,8.178513812403308,1.200553089876902,57257,352,18850,28976,654.7661097167352,375.5169772647511,0.007006512669099,True
0.05,0.593272550677416,3.6000000000000005,10105.0,69.44574,0.1,68900.0,0.33,276.0,2700.0,33.839961409061154,0.8457372358387276,2283.4905367645647,17.842523556265718,4.855397537007422,15.997437852795436,4.009660301168694,28216,256,9264,14314,936.3439213263824,534.792312787638,0.0105460405745367,True
0.06,0.5787939534674262,3.6000000000000005,10106.0,69.44574,0.2,68900.0,0.33,276.0,2700.0,32.41882142131119,0.9721122532972184,2624.70308390249,17.30177561644245,4.600983817825959,15.117045804868743,3.628871564528741,7061,128,2310,3590,649.0371708619339,374.6140940250415,0.0086511346593408,True
0.0699999999999999,0.5590511735455448,3.6000000000000005,10107.0,69.44574,0.1,68900.0,0.33,276.0,2700.0,30.640499658815,1.0716991105385263,2893.5875984540216,16.572910666848735,4.26660969669416,14.06758899196626,3.194910586155633,25183,240,8276,12763,593.8372228529802,340.08002540526417,0.0071877141534455,True
0.08,0.5758996820211599,3.6000000000000005,10108.0,69.44574,0.1,68900.0,0.33,276.0,2700.0,31.50157632502209,1.2589907227084491,3399.274951312813,17.1943119680565,4.551063347952213,14.307264356965586,3.2920726252437635,26348,246,8654,13361,517.6288074121841,296.8554629234326,0.0065817379969863,True
0.09,0.4895679598019014,3.6000000000000005,10109.0,69.44574,0.1,68900.0,0.33,276.0,2700.0,25.129926324651237,1.1293198705796623,3049.163650565088,14.085633699241336,3.2021851851459133,11.0442926254099,2.072865314566251,20739,216,6818,10506,381.5407396408353,219.39851075804572,0.0048749538884791,True
0.0999999999999999,0.6044351455290221,3.6000000000000005,10110.0,69.44574,0.2,68900.0,0.33,276.0,2700.0,32.87064962336389,1.6414380860657984,4431.882832377656,18.263021919008654,5.0569104119344574,14.607627704355233,3.415472325868659,6693,124,2188,3405,425.5285017405969,244.6815816072676,0.0056835665199708,True
0.11,0.7637276825161917,3.6000000000000005,10111.0,69.44574,0.3,68900.0,0.33,276.0,2700.0,44.76215999060887,2.4591311596022,6639.654130925939,24.604825505672967,8.462709148006377,20.157334484935905,6.003577988404178,4068,100,1330,2067,485.1837505537497,278.18370306916114,0.0069473669779558,True
0.12,0.6480023467692684,3.6000000000000005,10112.0,69.44574,0.2,68900.0,0.33,276.0,2700.0,35.38064119511763,2.119219356969572,5721.892263817844,19.93417527330288,5.8888097044833305,15.446465921814752,3.769590347513759,7503,134,2466,3798,370.5631908109164,213.7467508001593,0.0052210272497876,True
0.13,0.6844449216480091,3.6000000000000005,10113.0,69.44574,0.2,68900.0,0.33,276.0,2700.0,37.77294856758888,2.450640270853321,6616.728731303967,21.36868232555397,6.641299580383602,16.404266242034915,4.190659309530281,7991,138,2622,4052,361.97513480987845,208.97241002921837,0.005188070636146,True
0.14,0.5042402417738225,3.6000000000000005,10114.0,69.44574,0.08,68900.0,0.33,276.0,2700.0,24.50686114613862,1.7097332600687378,4616.279802185592,14.600748604410397,3.412625914771233,9.906112541728222,1.7028926547024954,34655,264,10410,18246,261.2423551784892,150.748180912136,0.0033866772179244,False
0.15,0.6236845543632424,3.6000000000000005,10115.0,69.44574,0.1,68900.0,0.33,276.0,2700.0,32.52960700826732,2.432651942149471,6568.160243803571,18.9955095561476,5.415497825767319,13.534097452119724,2.982845883617848,26662,248,8838,13399,287.75465405509306,166.07559898118774,0.0040633566140237,True
0.16,0.7868738199320162,3.6000000000000005,10116.0,69.44574,0.3,68900.0,0.33,276.0,2700.0,44.69715960140918,3.5671941257733244,9631.424139587976,25.579391312988864,9.043468565971246,19.11776828842032,5.476274440197921,4311,104,1412,2187,347.5615484443628,200.55848830372244,0.0050926831305575,True
0.17,0.5262667207157484,3.6000000000000005,10117.0,69.44574,0.2,68900.0,0.33,276.0,2700.0,25.037775057338028,2.1179211167356744,5718.387015186321,15.38421282855646,3.742835093819982,9.653562228781569,1.6249139770843075,5175,110,1702,2616,224.8559355944287,129.4104539259048,0.0029925944899684,False
0.18,0.7075684072729171,3.6000000000000005,10118.0,69.44574,0.3,68900.0,0.33,276.0,2700.0,37.72710646847135,3.383225069925265,9134.707688798217,22.296212101153834,7.14611596452322,15.430894367317514,3.762890894597955,3496,92,1150,1765,288.59337223578405,166.54067080860173,0.0040095615302673,True
0.19,0.648965001844217,3.6000000000000005,10119.0,69.44574,0.2,68900.0,0.33,276.0,2700.0,33.000275104989,3.1206606789666407,8425.783833209929,19.971639536456056,5.908017470187965,13.028635568532945,2.7873567912213244,6951,128,2292,3507,243.79603465627983,140.5349263785758,0.0034463227001021,False
0.2,0.6107627004716166,3.6000000000000005,10120.0,69.44574,0.08,68900.0,0.33,276.0,2700.0,29.91428035897634,2.9746728750784737,8031.616762711879,18.502773568096256,5.173228676811934,11.411506790880086,2.1985558017334608,52073,294,12540,29753,224.67357028159017,129.61603907439735,0.0030894325132108,False
0.21,0.5374526004782786,3.6000000000000005,10121.0,69.44574,0.1,68900.0,0.33,276.0,2700.0,24.540989140564143,2.557407666715973,6905.000700133127,15.786754143054178,3.9171695067737966,8.754234997509965,1.3597618400578235,27243,212,6744,15395,196.4735192914356,113.3465327434776,0.0025801137489507,False
0.22,0.7258965838676845,3.6000000000000005,10122.0,69.44574,0.08,68900.0,0.33,276.0,2700.0,37.70017880288139,4.124718549266665,11136.740083019997,23.0409394243436,7.561576729401738,14.65923937853779,3.436858180135073,70347,336,15846,41164,239.42229738557847,138.1465919945294,0.0034721451291626,False
0.23,0.9220375617910764,3.6000000000000005,10123.0,69.44574,0.3,68900.0,0.33,276.0,2700.0,53.211095960573736,6.093793530255158,16453.242531688928,31.539339310729574,12.898487476287936,21.671756649844163,6.804693946032777,4960,112,1626,2515,282.97175754414417,163.26515664332294,0.0044635102358598,True
0.24,0.7311996915827755,3.6000000000000005,10124.0,69.44574,0.1,68900.0,0.33,276.0,2700.0,37.40064817165344,4.4591248627029305,12039.637129297913,23.257994981042984,7.684340535168509,14.14265319061046,3.2252156724655787,41069,266,10026,23340,223.43351366763352,128.83497866695598,0.0032473619595749,False
0.25,0.909896870630793,3.6000000000000005,10125.0,69.44574,0.2,68900.0,0.33,276.0,2700.0,51.38395138581283,6.390268999751707,17253.72629932961,30.985235323736543,12.518945448912724,20.39871606207628,6.128676449161017,10534,164,3482,5305,256.7066371380806,148.15159068233086,0.0040646653566646,False
0.26,0.8949282815071149,3.6000000000000005,10126.0,69.44574,0.3,68900.0,0.33,276.0,2700.0,49.73483434742294,6.4287173768453165,17357.536917482354,30.307164689965568,12.06022209707842,19.42766965745737,5.631504720233105,4628,108,1514,2351,244.84022567374384,141.17208860488034,0.0038440992813569,False
0.27,0.6448640794778044,3.6000000000000005,10127.0,69.44574,0.2,68900.0,0.33,276.0,2700.0,30.057293838778623,4.016510689434711,10844.578861473718,19.81220304480873,5.826442389701541,10.245090793969895,1.809931700266831,6206,120,2066,3101,176.712208349444,102.0121138785615,0.0025373850357549,False
0.28,0.712312738974344,3.6000000000000005,10128.0,69.44574,0.1,68900.0,0.33,276.0,2700.0,34.61544516530373,4.800186161854787,12960.502637007929,22.488178293346152,7.252351742404425,12.12726687195758,2.4521655805496376,42829,256,9458,25208,482.84490506456456,257.18907263799497,0.0027695251827296,True
0.29,0.8140064576177026,3.6000000000000005,10129.0,69.44574,0.3,68900.0,0.33,276.0,2700.0,42.042206960048496,6.04503980705477,16321.607479047878,26.73895130642085,9.7531940487678,15.303255653627645,3.7081542417130295,3958,98,1312,1984,206.6309065028429,118.95818620952932,0.0031065422864765,False
0.3,0.6683370826146345,3.6000000000000005,10130.0,69.44574,0.05,68900.0,0.33,276.0,2700.0,30.767001165975906,4.558501507131764,12307.954069255762,20.730505413855283,6.302244863885149,10.036495752120622,1.743743356753385,270249,472,32716,179833,412.68939884889215,223.9711894302532,0.0024411993950114,True
0.31,0.6861101767292361,3.6000000000000005,10131.0,69.44574,0.1,68900.0,0.33,276.0,2700.0,31.72006633081486,4.85421615678087,13106.38362330835,21.4350300353432,6.676939120464176,10.285036295471665,1.822722963683305,44728,242,8646,27305,223.52622309003948,128.61959609925765,0.0024519467331398,False
0.32,0.7595590206283279,3.6000000000000005,10132.0,69.44574,0.1,68900.0,0.33,276.0,2700.0,36.8013013708867,5.819579080626646,15712.863517691943,24.43073529706608,8.360502962994197,12.37056607382062,2.540923882367551,52294,262,9894,32075,185.06233067837212,106.79488753542932,0.0026715535758915,False
0.33,1.0198648545371891,3.6000000000000005,10133.0,69.44574,0.3,68900.0,0.33,276.0,2700.0,57.72426826513789,9.44923798695305,25512.94256477323,36.13938723884412,16.206939949238343,21.584881026293765,6.757701962285294,5476,118,1812,2752,223.4854305863377,129.02723970249536,0.0036598775302672,False
0.34,0.7283002405267318,3.6000000000000005,10134.0,69.44574,0.1,68900.0,0.33,276.0,2700.0,33.81709836667569,5.666588617230408,15299.789266522102,23.13923322175698,7.617077340064657,10.677865144918703,1.9504887228342491,49619,252,9268,30515,171.4423757424736,98.98223091269382,0.0024329434470195,False
0.3500000000000001,0.8627212222998453,3.6000000000000005,10135.0,69.44574,0.3,68900.0,0.33,276.0,2700.0,43.76825867697468,7.569648078455461,20438.049811829744,28.867291997583457,11.107374452024173,14.900966679391216,3.537726373568712,4141,100,1366,2086,183.65143104704572,105.95764302462634,0.0028345571867753,False
0.36,0.8242571367306692,3.6000000000000005,10136.0,69.44574,0.3,68900.0,0.33,276.0,2700.0,40.39158503335095,7.172769208105909,19366.47686188596,27.18184721812509,10.029554194480044,13.20973781522586,2.8567849863741364,3900,96,1286,1965,171.3951200154887,98.88760657874576,0.0026332060911021,False
0.37,0.6945827486889071,3.6000000000000005,10137.0,69.44574,0.05,68900.0,0.33,276.0,2700.0,30.439482478456547,5.525216863392944,14918.085531160948,21.773676754932083,6.859982285437301,8.665805723524464,1.3347654220443568,313582,468,32748,212648,206.40787098531396,117.07849936567769,0.0021765000322307,False
0.38,0.8325836747044553,3.6000000000000005,10138.0,69.44574,0.1,68900.0,0.33,276.0,2700.0,40.35474770111532,7.552478415153394,20391.691720914165,27.54355155135624,10.257389540900792,12.811196149759072,2.7049111257473983,62688,280,11052,38966,175.22585131489586,100.67276932333556,0.0025817502823239,False
0.39,0.929832535865819,3.6000000000000005,10139.0,69.44574,0.2,68900.0,0.33,276.0,2700.0,47.76986208283856,9.190885683074658,24815.391344301577,31.897056541279262,13.145729014839326,15.872805541559302,3.954843331764668,12753,156,3180,7179,186.4195800386985,107.51641837962454,0.0028610844515069,False
0.4,0.7170259557421428,3.6000000000000005,10140.0,69.44574,0.05,68900.0,0.33,276.0,2700.0,31.11339265239506,6.088637243925854,16439.320558599808,22.67944565820645,7.358793924403493,8.43394699418861,1.2701566804776387,340898,472,33268,233056,198.37312853365495,111.18083242786734,0.0021229300876295,False
0.4100000000000001,0.9592714944555448,3.6000000000000005,10141.0,69.44574,0.2,68900.0,0.33,276.0,2700.0,49.47729901751147,9.998498493737822,26995.94593309212,33.261806874156,14.104780120743891,16.21549214335547,4.106281627006069,13565,160,3348,7665,183.4463840882064,105.89055731275808,0.0028463571259416,False
0.42,1.1196510460669484,3.6000000000000005,10142.0,69.44574,0.3,68900.0,0.33,276.0,2700.0,63.05646208129527,13.086687492725895,35334.05623035992,41.07934424621445,20.057540524242363,21.97711783508082,6.970853031516466,5777,122,1916,2897,196.56415579956092,113.42287875148286,0.0033355527045481,False
0.43,0.8715729669361545,3.6000000000000005,10143.0,69.44574,0.2,68900.0,0.33,276.0,2700.0,41.69884690137311,8.798733012389237,23756.579133450938,29.260426750735867,11.3646388607525,12.438420150637242,2.565905848363263,11010,142,2716,6222,163.49495571544398,94.39339761188847,0.0024572042077661,False
0.44,0.836844471964918,3.6000000000000005,10144.0,69.44574,0.1,68900.0,0.33,276.0,2700.0,38.68474637930143,8.33223525104405,22497.035177818936,27.72931430123408,10.375142616596069,10.955432078067354,2.0429073655520167,66070,270,10502,42027,158.47421722944335,91.2827910507212,0.0023196812896672,False
0.45,1.0003822234954547,3.6000000000000005,10145.0,69.44574,0.2,68900.0,0.33,276.0,2700.0,51.46005659710711,11.387660980643524,30746.684647737515,35.20409157207241,15.511976100002146,16.255965025034698,4.124315119358622,13873,162,3430,7834,175.84878961253605,101.5239308971836,0.0027738427012344,False
0.46,0.9159261849165926,3.6000000000000005,10146.0,69.44574,0.1,68900.0,0.33,276.0,2700.0,44.18491389209324,9.958670153494896,26888.409414436217,31.259951601118782,12.706592887234343,12.924962290974452,2.7479227337394505,78915,292,12010,50672,179.6502262478909,102.10280984472276,0.0024740115818798,False
0.4700000000000001,0.8434830708134929,3.6000000000000005,10147.0,69.44574,0.08,68900.0,0.33,276.0,2700.0,38.22052008910168,8.764375838223133,23663.81476320246,28.01965399121546,10.560189522197362,10.200866097886216,1.7958136839742291,128729,334,16018,85292,179.3779798816455,101.23738487826766,0.0022273374971688,False
0.4800000000000001,0.97418283460579,3.6000000000000005,10148.0,69.44574,0.2,68900.0,0.33,276.0,2700.0,48.20845648036661,11.338406212124124,30613.696772735133,33.96138687279789,14.605967130734282,14.247069607568726,3.267560918610158,12706,154,3124,7192,164.95474040170163,95.13338654054066,0.0025548724327459,False
0.49,1.1858141348863596,3.6000000000000005,10149.0,69.44574,0.3,68900.0,0.33,276.0,2700.0,66.31579586375496,16.00096649721851,43202.609542489976,44.49275073093263,22.887790979538607,21.82304513282233,6.8868244823200975,6217,126,2002,3160,190.32005672077472,109.82007270519291,0.0031372051852244,False
0.5,0.972458558216326,3.6000000000000005,10150.0,69.44574,0.2,68900.0,0.33,276.0,2700.0,47.37199452337671,11.58119924304502,31269.237956221557,33.88020503618094,14.547478313895024,13.491789487195769,2.9662790708500038,12506,152,3064,7084,160.8143460997469,92.82220576548548,0.0024694826059832,False
0.06,0.4672827540374091,3.6000000000000005,10156.0,72.46512,0.1,68900.0,0.33,276.0,2700.0,24.610612657640875,0.7378659903871049,1992.238174045183,13.31359377102593,2.896909653904314,11.297018886614945,2.159043663517209,20526,214,6736,10416,593.455402724139,340.07300526495897,0.0070056479474184,True
0.0699999999999999,0.7294422274090703,3.6000000000000005,10157.0,72.46512,0.2,68900.0,0.33,276.0,2700.0,43.56687848631379,1.524122369500862,4115.130397652328,23.185983879853367,7.643528732071225,20.380894606460423,6.119406362570363,8969,148,2944,4547,780.3574484857266,446.24274476428775,0.0103752377126321,True
0.08,0.7610669225531317,3.6000000000000005,10158.0,72.46512,0.2,68900.0,0.33,276.0,2700.0,45.727966271090544,1.8280463205511932,4935.725065488222,24.49365735470377,8.397389548738042,21.23430891638677,6.569343228186849,9356,152,3064,4754,701.1481171931863,401.0374235899536,0.0096741595385899,True
0.09,0.7338948362225779,3.6000000000000005,10159.0,72.46512,0.2,68900.0,0.33,276.0,2700.0,43.14316017401002,1.939915393800806,5237.771563262177,23.36857781113431,7.747173173033125,19.774582362875712,5.807257779232319,9213,150,3020,4677,598.3713592254503,342.8588810031142,0.008290280736265,True
0.0999999999999999,0.5970869399732661,3.6000000000000005,10160.0,72.46512,0.1,68900.0,0.33,276.0,2700.0,32.33479493246621,1.6146453515209176,4359.542449106478,17.985860546123405,4.923729123177174,14.348934386342805,3.3090837716562564,26618,248,8762,13469,433.838503484292,249.32802043430445,0.0058374984568991,True
0.11,0.7818795917390358,3.6000000000000005,10161.0,72.46512,0.3,68900.0,0.33,276.0,2700.0,46.238267446200574,2.540317069659739,6858.856088081295,25.367970631520592,8.916247451174423,20.870296814679985,6.375930381514683,4497,106,1472,2283,517.6649575132881,298.8738104401142,0.0074634465626745,True
0.12,0.7365757135004972,3.6000000000000005,10162.0,72.46512,0.3,68900.0,0.33,276.0,2700.0,42.20267238398159,2.5285412283017705,6827.061316414781,23.478756358084013,7.809969109531594,18.723916025897573,5.281427881229824,4069,98,1328,2071,445.92665493813456,257.39382550648975,0.006470262801562,True
0.13,0.5055426697304706,3.6000000000000005,10163.0,72.46512,0.2,68900.0,0.33,276.0,2700.0,24.913574912863044,1.614780983296141,4359.908654899581,14.646735738016949,3.431672280778617,10.266839174846096,1.8168912974824765,4979,106,1634,2522,292.10695825279254,168.64634574770832,0.0037794710397036,True
0.14,0.6840284251728197,3.6000000000000005,10164.0,72.46512,0.3,68900.0,0.33,276.0,2700.0,37.37696218137809,2.6106403325355005,7048.728897845852,21.352099014284512,6.632403053112231,16.024863167093578,4.021762720576731,3520,92,1152,1786,365.4468381793242,210.9859902677226,0.0050505012525019,True
0.15,0.7710008905391084,3.6000000000000005,10165.0,72.46512,0.3,68900.0,0.33,276.0,2700.0,43.80244329817182,3.2781146638923064,8850.909592509228,24.90961245279017,8.642772745893826,18.892830845381653,5.364658082001519,4249,102,1390,2158,379.09013148311385,218.8674638417626,0.0055016436190195,True
0.16,0.7244962638673733,3.6000000000000005,10166.0,72.46512,0.3,68900.0,0.33,276.0,2700.0,39.75669692362703,3.171957111550384,8564.284201186038,22.98374245609334,7.529352093880822,16.772954467533694,4.357394982330438,3859,94,1262,1960,337.91976705198897,195.08288362522055,0.0047967086199481,True
0.17,0.7643666702998877,3.6000000000000005,10167.0,72.46512,0.3,68900.0,0.33,276.0,2700.0,42.51515024016373,3.603498007275848,9729.444619644788,24.63154929562418,8.478439868465733,17.883600944539555,4.874941861189885,4047,98,1322,2058,330.9302261541324,191.03828759146325,0.0048462108280952,True
0.18,0.5490163772780456,3.6000000000000005,10168.0,72.46512,0.2,68900.0,0.33,276.0,2700.0,26.264355813480456,2.351577510976084,6349.2592796354265,16.206200530954973,4.102145961678441,10.058155282525483,1.7505684507023571,5564,112,1838,2801,230.0822386148194,132.62818304851734,0.0031204843367787,False
0.2,0.5845654019691546,3.6000000000000005,10170.0,72.46512,0.2,68900.0,0.33,276.0,2700.0,28.07380859506308,2.7906256986871645,7534.689386455344,17.51669669372426,4.701459925113001,10.557111901338818,1.910834226425837,5961,118,1962,3012,226.6514246098301,130.37272184636538,0.0030535034660122,False
0.21,0.5127985043712615,3.6000000000000005,10171.0,72.46512,0.05,68900.0,0.33,276.0,2700.0,22.905023503027284,2.385631274774607,6441.204441891439,14.90371069742877,3.5388780571705327,8.001312805598515,1.1532467823959256,151385,406,24694,95732,214.41559991987523,119.5359302970877,0.0025697227880623,False
0.22,0.7619359663217755,3.6000000000000005,10172.0,72.46512,0.2,68900.0,0.33,276.0,2700.0,40.47892480808835,4.430380609839437,11962.02764656648,24.52994695900585,8.418691376286064,15.948977849082496,3.9883107664466273,8424,142,2770,4263,259.1832690348011,149.56298819219265,0.0038204407177708,False
0.23,0.8607592958313042,3.6000000000000005,10173.0,72.46512,0.3,68900.0,0.33,276.0,2700.0,48.04748436148326,5.499978196359755,14849.941130171335,28.780423069033503,11.050824178820486,19.267061292449757,5.550845982460731,4743,108,1554,2406,279.2811589679627,161.24101159667032,0.0042692275205631,True
0.24,0.606749731352181,3.6000000000000005,10174.0,72.46512,0.1,68900.0,0.33,276.0,2700.0,28.33653282774505,3.371431021433918,9102.86375787158,18.350605071520803,5.099283076947422,9.985927756224244,1.7278520555135044,31567,230,7768,17879,201.1386655845594,116.10425691845217,0.0027485920656273,False
0.25,0.6181104580933765,3.6000000000000005,10175.0,72.46512,0.1,68900.0,0.33,276.0,2700.0,28.81171583310098,3.5687395556620314,9635.596800287483,18.78244349733498,5.31020921489717,10.029272335766,1.7414696592351384,32111,230,7770,18308,198.8892885350648,114.72130129525895,0.0027127137144887,False
0.26,0.904053012458064,3.6000000000000005,10176.0,72.46512,0.3,68900.0,0.33,276.0,2700.0,50.50056126399362,6.528261875999508,17626.30706519867,30.719840983481244,12.338648009656364,19.780720280512373,5.810386133656856,4610,108,1510,2339,259.63722064304454,149.76462208481382,0.004020835205341,False
0.27,0.5865776968947922,3.6000000000000005,10177.0,72.46512,0.08,68900.0,0.33,276.0,2700.0,26.01206725061717,3.4704051000326257,9370.09377008809,17.59182871369469,4.736784261810017,8.420238536922483,1.2663791617773916,59376,272,11110,36499,195.85141809161144,113.02342487907173,0.0024226246852943,False
0.28,0.7764015277093403,3.6000000000000005,10178.0,72.46512,0.1,68900.0,0.33,276.0,2700.0,39.46166229825508,5.478656560467978,14792.37271326354,25.13678863183323,8.777913642952221,14.324873666421848,3.2992570824842438,48756,276,10686,28757,218.1682781169096,125.916455655683,0.0031875076855999,False
0.29,0.6593824224394049,3.6000000000000005,10179.0,72.46512,0.08,68900.0,0.33,276.0,2700.0,30.44838227125808,4.363935227180146,11782.625113386395,20.3785507117636,6.118187553875597,10.069831559494478,1.7542523266954504,70644,296,12668,43828,187.4415008396326,108.18654683521734,0.0025870345287821,False
0.3,0.7294928559041027,3.6000000000000005,10180.0,72.46512,0.2,68900.0,0.33,276.0,2700.0,35.22100120665724,5.226601513233976,14111.824085731734,23.18805726790492,7.644702656026896,12.032943938752322,2.41810114279292,7170,130,2366,3605,188.42853464180192,108.74352040271454,0.0027865200608239,False
0.31,0.8287069518067811,3.6000000000000005,10181.0,72.46512,0.3,68900.0,0.33,276.0,2700.0,42.48887373077337,6.5233813037744754,17613.129520191083,27.374930151773903,10.150937795164923,15.113943578999468,3.6275564913904494,3969,98,1314,1992,206.37911504934675,118.70967978005092,0.003125951623746,False
0.32,0.9123350246213958,3.6000000000000005,10182.0,72.46512,0.2,68900.0,0.33,276.0,2700.0,48.90356518721725,7.755941291239542,20941.041486346763,31.096215969121825,12.59462748766295,17.807349218095432,4.838686196423407,10004,158,3264,5058,223.68471675483784,129.0295518459403,0.0034295818671992,False
0.33,0.8480611922721626,3.6000000000000005,10183.0,72.46512,0.3,68900.0,0.33,276.0,2700.0,43.31144744861945,7.071122552227501,19092.03089101425,28.22052382791915,10.688926503688895,15.090923620700298,3.617803951461396,3961,98,1314,1984,198.96663757987568,114.34926113180104,0.0030452504555951,False
0.34,0.8564173963321324,3.6000000000000005,10184.0,72.46512,0.3,68900.0,0.33,276.0,2700.0,43.62089223664475,7.33323357512513,19799.73065283785,28.588519161790305,10.926279259484854,15.032373074854444,3.593045684359724,3954,98,1310,1983,192.65030782142605,110.78602249365474,0.0030030467925679,False
0.3500000000000001,0.8326912642221274,3.6000000000000005,10185.0,72.46512,0.3,68900.0,0.33,276.0,2700.0,41.39430526346808,7.154206231091644,19316.35682394744,27.548236636871625,10.260353190357714,13.846068626596452,3.10614695926607,3946,98,1308,1978,184.769266628185,106.42846475245074,0.0028369692840316,False
0.36,0.7810995316979229,3.6000000000000005,10186.0,72.46512,0.1,68900.0,0.33,276.0,2700.0,37.08838130680393,6.578192537327454,17761.119850784125,25.335004949370525,8.896471769560462,11.753376357433408,2.3182792322330075,56044,266,10196,34638,180.8703345733801,104.38960110147778,0.0026194144179864,False
0.37,0.8446270890445842,3.6000000000000005,10187.0,72.46512,0.3,68900.0,0.33,276.0,2700.0,41.63644872594715,7.596655619178692,20510.97017178247,28.06979961079108,10.59227319780782,13.566649115156068,2.995617578629126,3863,96,1282,1934,180.07188860617836,103.660737920071,0.0027624034960112,False
0.38,1.0385697478724467,3.6000000000000005,10188.0,72.46512,0.3,68900.0,0.33,276.0,2700.0,57.393031439964105,10.78975232553466,29132.331278943584,37.04632240877432,16.891391689121235,20.34670903118979,6.101639363586575,5210,116,1730,2609,210.29169066577956,121.11955797156143,0.0034558757269506,False
0.06,0.4673743478117511,3.6000000000000005,10206.0,75.4845,0.05,68900.0,0.33,276.0,2700.0,24.6167697253202,0.7380507024174877,1992.736896527217,13.316741364944455,2.898129240356254,11.30002836037574,2.1600785379387664,80040,422,26400,40434,635.7969174778295,364.2232299468948,0.007297034896294,True
0.0699999999999999,0.6529739820573459,3.6000000000000005,10207.0,75.4845,0.2,68900.0,0.33,276.0,2700.0,37.58526078174167,1.314765749840839,3549.867524570265,20.12791004577494,5.988396485657132,17.457350735966727,4.673630735816293,8010,138,2622,4071,716.1346566987237,409.3980213410092,0.009431976917846,True
0.08,0.7426917627946391,3.6000000000000005,10208.0,75.4845,0.2,68900.0,0.33,276.0,2700.0,44.239176046538326,1.7684947115691187,4774.93572123662,23.73078951701782,7.954336585244568,20.508386529520507,6.185841873675449,9077,150,2976,4607,736.0407849418062,421.29206634513486,0.009772211659356,True
0.09,0.4864723863571114,3.6000000000000005,10209.0,75.4845,0.2,68900.0,0.33,276.0,2700.0,24.92095172403445,1.1199160135519033,3023.773236590139,13.977645387847526,3.158749276515277,10.943306336186929,2.038833262963374,5298,110,1730,2697,415.8986596734197,240.11688411293608,0.0052608204789844,True
0.0999999999999999,0.4025466347007945,3.6000000000000005,10210.0,75.4845,0.05,68900.0,0.33,276.0,2700.0,19.1353923996108,0.9546752248781446,2577.6231071709904,11.141692722147251,2.1059076780459285,7.99369967746355,1.151232453167784,84314,370,20724,47820,307.670781974008,177.57975681709024,0.0038692579459913,True
0.11,0.8063200213892907,3.6000000000000005,10211.0,75.4845,0.3,68900.0,0.33,276.0,2700.0,48.251917929626494,2.6510678462481785,7157.883184870082,26.40857989789908,9.548937445234497,21.843338031727416,6.897869598986317,4390,106,1442,2221,545.9472967977175,314.3545182728328,0.0080819396330171,True
0.12,0.7683501094780437,3.6000000000000005,10212.0,75.4845,0.3,68900.0,0.33,276.0,2700.0,44.746083032558936,2.6811458672166006,7239.093841484821,24.798376342681017,8.576890287262882,19.94770668987792,5.895744420046282,4345,104,1422,2206,480.93343135214354,277.44907995846376,0.0070116967939028,True
0.13,0.5861460564022505,3.6000000000000005,10213.0,75.4845,0.08,68900.0,0.33,276.0,2700.0,30.508159911232656,1.978429008190159,5341.758322113429,17.575704201061455,4.729194396362944,12.9324557101712,2.750765388172785,39561,298,13018,19960,340.96009052299127,196.75423194081512,0.0046743178368657,True
0.14,0.5725419278692183,3.6000000000000005,10214.0,75.4845,0.1,68900.0,0.33,276.0,2700.0,29.20484496067849,2.0385921270865346,5504.198743133644,17.06990311382879,4.493538022012689,12.1349418468497,2.454945894926154,23770,232,7860,11974,307.7918119249037,177.49087215602566,0.0042499876332932,True
0.15,0.590713380119672,3.6000000000000005,10215.0,75.4845,0.1,68900.0,0.33,276.0,2700.0,30.156006501339554,2.254631904129819,6087.506141150511,17.74656010341333,4.8098583045719785,12.409446397926224,2.55522640044216,24561,238,8136,12349,297.64470230597584,171.73775559411348,0.004141860720718,True
0.16,0.672736169984844,3.6000000000000005,10216.0,75.4845,0.3,68900.0,0.33,276.0,2700.0,35.80564311743503,2.8558728070553965,7710.85657904957,20.90414570935569,6.393821919546787,14.901497408079344,3.5379491124913907,3406,90,1120,1720,333.761916170203,192.55777686987983,0.0045656112715837,True
0.17,0.5248595620683199,3.6000000000000005,10217.0,75.4845,0.2,68900.0,0.33,276.0,2700.0,24.9429550043664,2.1098614122330845,5696.625813029328,15.333796712967589,3.721222543276538,9.609158291398812,1.6113611310434537,5229,110,1720,2643,246.93742714870555,142.56596995188232,0.0032426963688807,False
0.18,0.710115208485412,3.6000000000000005,10218.0,75.4845,0.3,68900.0,0.33,276.0,2700.0,37.92154281246406,3.400724340884606,9181.955720388438,22.399191001775307,7.203031083333538,15.522351810688754,3.802306742448931,3466,92,1140,1750,310.44466316295694,179.09654278817828,0.0043760997876311,True
0.19,0.5295818133613219,3.6000000000000005,10219.0,75.4845,0.08,68900.0,0.33,276.0,2700.0,24.633444554439503,2.3258117766644366,6279.691796993979,15.50318371677731,3.794032308080452,9.130260837662194,1.4682205314160153,42468,264,10410,24091,226.78062897676816,130.81573494389855,0.0029988894412663,False
0.2,0.6481981847783242,3.6000000000000005,10220.0,75.4845,0.3,68900.0,0.33,276.0,2700.0,32.60415183325324,3.243660022506177,8757.882060766678,19.941794939219943,5.892714319775147,12.662356894033294,2.649054297268969,3122,86,1018,1589,258.2415502287652,149.09306060057733,0.0035758052544236,False
0.21,0.8142660625543763,3.6000000000000005,10221.0,75.4845,0.3,68900.0,0.33,276.0,2700.0,45.00676448497835,4.70631407787946,12707.048010274542,26.750135331914617,9.760137064205898,18.25662915306373,5.053822986326438,4441,104,1456,2251,299.0981640659254,172.361297378009,0.0045024676980087,True
0.22,0.7175217019423767,3.6000000000000005,10222.0,75.4845,0.3,68900.0,0.33,276.0,2700.0,37.06379841374434,4.054716706461591,10947.735107446297,22.69959601834761,7.3700421678890224,14.364202395396738,3.315325461427431,3668,92,1204,1856,257.7458194500834,148.6804052240105,0.0037031736182682,False
0.23,0.5910470890467805,3.6000000000000005,10223.0,75.4845,0.2,68900.0,0.33,276.0,2700.0,27.56384614811168,3.144359801822026,8489.77146491947,17.759064145923386,4.815782576381377,9.80478200218829,1.671422774559351,5625,114,1864,2823,206.0706164188713,118.9381625726873,0.0028623518932238,False
0.24,0.907946479830761,3.6000000000000005,10224.0,75.4845,0.3,68900.0,0.33,276.0,2700.0,51.611675487511306,6.164448140605885,16644.00997963589,30.896564394017165,12.458598618022284,20.71511109349414,6.294150477416397,4888,110,1608,2470,290.557022187171,167.65689769353182,0.0045778357136917,True
0.25,0.9182294771039802,3.6000000000000005,10225.0,75.4845,0.1,68900.0,0.33,276.0,2700.0,52.091402802037614,6.478700426779751,17492.491152305327,31.36513868713032,12.778714802239955,20.72626411490729,6.300014375460206,57623,324,13978,32842,283.93165396320694,163.7418655639298,0.004491704314063,True
0.26,0.898571619360972,3.6000000000000005,10226.0,75.4845,0.3,68900.0,0.33,276.0,2700.0,50.04007315782298,6.468398422197311,17464.67573993274,30.47168781393925,12.17094094281142,19.56838534388373,5.702542520614109,4623,108,1518,2340,267.84385336169106,154.55417087249523,0.0042018443380815,False
0.27,0.825059406091122,3.6000000000000005,10227.0,75.4845,0.3,68900.0,0.33,276.0,2700.0,43.64335486322148,5.850628927734495,15796.698104883137,27.216621896473736,10.051375305911652,16.426732966747746,4.200746378177157,4143,100,1370,2082,240.0899791597428,138.61085307024868,0.0036554148199497,False
0.28,0.8148901554529023,3.6000000000000005,10228.0,75.4845,0.2,68900.0,0.33,276.0,2700.0,42.47129165863849,5.900004670921562,15930.012611488217,26.7770287730107,9.776840025194865,15.694262885627792,3.876835354273303,8670,146,2874,4353,236.318501037606,136.30507344825537,0.0034854707328838,False
0.29,0.9695791576714424,3.6000000000000005,10229.0,75.4845,0.2,68900.0,0.33,276.0,2700.0,54.920022680364205,7.912323086500549,21363.27233355148,33.744804586420734,14.450118619116898,21.17521809394347,6.537795532616349,11008,170,3646,5533,262.80620884335855,149.85313514598502,0.0088163721186268,False
0.3,0.7510025565991456,3.6000000000000005,10230.0,75.4845,0.08,68900.0,0.33,276.0,2700.0,36.83225029513518,5.468288876505665,14764.379966565297,24.07477147336524,8.15298646306843,12.75747882176994,2.6846975865627654,86748,328,15246,53993,306.240334990144,168.86673376580433,0.0030144257129901,True
0.31,0.8986585750310473,3.6000000000000005,10231.0,75.4845,0.3,68900.0,0.33,276.0,2700.0,48.145246991593886,7.400119159201663,19980.32172984449,30.47561856916293,12.17359079974294,17.66962842243096,4.773471640541277,4460,106,1474,2243,229.74659829214372,132.60939535448674,0.0035933016023083,False
0.32,0.8890247677204615,3.6000000000000005,10232.0,75.4845,0.2,68900.0,0.33,276.0,2700.0,46.98117840467875,7.448359406033342,20110.570396290022,30.041286473105963,11.882088571270009,16.939891931572788,4.433729165236665,9283,152,3068,4665,219.97716137310508,126.89340246346816,0.0034532856726831,False
0.33,0.6495555097249206,3.6000000000000005,10233.0,75.4845,0.05,68900.0,0.33,276.0,2700.0,28.506031606061825,4.628228938205498,12496.218133154844,19.994632234578503,5.919817668978278,8.511399371483321,1.29158873077278,267732,454,30616,179510,245.13284235254,139.02430916366256,0.0024064109594273,False
0.34,1.0170572135155411,3.6000000000000005,10234.0,75.4845,0.3,68900.0,0.33,276.0,2700.0,57.07919246932492,9.621144614680771,25977.09045963809,36.00401350070127,16.10566360991316,21.075178968623653,6.4845189952323885,5520,118,1824,2778,236.0582975591856,136.28275091947532,0.0038605255890158,False
0.3500000000000001,0.656366734816165,3.6000000000000005,10235.0,75.4845,0.05,68900.0,0.33,276.0,2700.0,28.36981457509709,4.874920360626144,13162.284973690588,20.2604755079642,6.056910307120617,8.10933906713289,1.1819899464944736,276483,450,30238,186414,221.58521454828897,125.8085811771303,0.0023278540169374,False
0.36,0.7816132695336152,3.6000000000000005,10236.0,75.4845,0.1,68900.0,0.33,276.0,2700.0,37.127151253768616,6.585171127781095,17779.962045008957,25.356714018067954,8.909492896271413,11.770437235700662,2.324321768490318,56106,266,10212,34664,187.975761982581,108.5038948165614,0.0027307635899732,False
0.37,1.0534338343435743,3.6000000000000005,10237.0,75.4845,0.3,68900.0,0.33,276.0,2700.0,59.10173270819051,10.82773315589372,29234.879520913048,37.77330049274869,17.447447483217964,21.328432215441826,6.6197143273242425,5696,120,1886,2861,228.4373673863641,131.8608891501513,0.0037473082943284,False
0.06,0.6592698079880832,3.6000000000000005,10256.0,78.50388,0.2,68900.0,0.33,276.0,2700.0,38.44219013017493,1.1528133145629564,3112.5959493199825,20.374137335679,6.115892883076407,18.06805279449593,4.963079568513451,7986,138,2630,4035,878.5437839794495,502.26005173797006,0.0114497930762124,True
0.0699999999999999,0.3934922125837127,3.6000000000000005,10257.0,78.50388,0.08,68900.0,0.33,276.0,2700.0,19.478569350782944,0.6810315497572802,1838.7851843446565,10.846312244494296,2.006364893485032,8.632257106288648,1.3253333437277517,24855,234,8168,12597,436.4592853156752,250.905118774558,0.0054100032067564,True
0.08,0.4119743296155391,3.6000000000000005,10258.0,78.50388,0.08,68900.0,0.33,276.0,2700.0,20.34542388629395,0.8127446251593311,2194.410487930194,11.451440010178963,2.212406504338148,8.893983876114985,1.3996618791788162,26425,242,8710,13354,395.3409954276182,227.56454353552036,0.005040350416709,True
0.09,0.5444741233157239,3.6000000000000005,10259.0,78.50388,0.1,68900.0,0.33,276.0,2700.0,28.91654634103298,1.2997177713168346,3509.237982555453,16.04104111540765,4.028908577385928,12.875505225625329,2.7291908060690933,24284,234,7974,12317,478.26684616267306,274.8069385720051,0.0062420218096795,True
0.0999999999999999,0.4099422425599587,3.6000000000000005,10260.0,78.50388,0.05,68900.0,0.33,276.0,2700.0,19.60239347732005,0.9780252787641645,2640.668252663244,11.384486855930437,2.1892042262193727,8.217906621389613,1.2111789474552084,84889,372,20848,48145,323.9975459120868,187.01054632795527,0.0041044317814409,True
0.11,0.5257401431334741,3.6000000000000005,10261.0,78.50388,0.2,68900.0,0.33,276.0,2700.0,26.941130929967684,1.478974561266936,3993.2313154207272,15.365340616989288,3.734739081371101,11.575790312978397,2.255764520104165,5747,116,1882,2918,382.00460257705817,220.38408111317128,0.0049844849020971,True
0.12,0.4540998984678804,3.6000000000000005,10262.0,78.50388,0.08,68900.0,0.33,276.0,2700.0,21.822622165451165,1.3057382151901349,3525.4931810133635,12.862767755063818,2.724374855533876,8.959854410387347,1.4186366403437412,28257,248,9346,14230,785.8229042916349,426.1391857799628,0.003899671778079,True
0.13,0.4839933237822875,3.6000000000000005,10263.0,78.50388,0.08,68900.0,0.33,276.0,2700.0,23.473185815987566,1.5211556919992335,4107.120368397931,13.891337570780562,3.124204832099287,9.581848245207004,1.6030491401000533,30327,258,9998,15278,298.7081095206182,172.45729108983673,0.0038981657806517,True
0.14,0.5117192239920922,3.6000000000000005,10264.0,78.50388,0.1,68900.0,0.33,276.0,2700.0,25.009854088047263,1.7449427660023429,4711.345468206325,14.865402788096938,3.522813449758501,10.144451299950328,1.7778706837561582,20833,216,6888,10495,291.32925995664004,168.0679343456621,0.0038855304210358,True
0.15,0.8167009748998236,3.6000000000000005,10265.0,78.50388,0.3,68900.0,0.33,276.0,2700.0,47.52116533120275,3.557018816369633,9603.95080419801,26.85511609888327,9.82539907821582,20.666049232319484,6.268380261846186,4559,106,1490,2318,431.5672475940256,248.85551563753705,0.0064106768784567,True
0.16,0.7389564413007876,3.6000000000000005,10266.0,78.50388,0.3,68900.0,0.33,276.0,2700.0,40.88456580161488,3.2621866217897866,8807.903878832423,23.576750806891948,7.865982258302731,17.30781499472293,4.603795636512944,4041,98,1318,2058,370.6504048022365,213.9934425900665,0.0053263337854327,True
0.17,0.8114778801639595,3.6000000000000005,10267.0,78.50388,0.2,68900.0,0.33,276.0,2700.0,46.31097869448409,3.926143425893079,10600.587249911312,26.630106399735627,9.685720184606184,19.680872294748465,5.759576758713106,9774,156,3210,4953,370.8698697068675,214.1050366648801,0.0056615385440451,True
0.18,0.8101090430317532,3.6000000000000005,10268.0,78.50388,0.1,68900.0,0.33,276.0,2700.0,45.81330057114861,4.1109825391662165,11099.652855748784,26.571250606248423,9.649308193501131,19.242049964900183,5.538325654334916,42939,300,12286,23064,354.33131622761977,204.4439827864474,0.0053646794031659,True
0.19,0.6721119605896679,3.6000000000000005,10269.0,78.50388,0.1,68900.0,0.33,276.0,2700.0,34.705418940578824,3.282649343347674,8863.15322703872,20.87947737406718,6.380781055009591,13.825941566511643,3.0981317116619165,37247,258,9470,20868,286.2457457484729,165.20043595875046,0.004075630275286,True
0.2,0.6270226178675451,3.6000000000000005,10270.0,78.50388,0.2,68900.0,0.33,276.0,2700.0,31.07395919690188,3.0906407588707845,8344.730048951118,19.123478616690207,5.479119549487679,11.950480580211671,2.3884787906168947,6394,122,2106,3229,255.77430245046028,147.6289917879012,0.0035789143157003,False
0.21,0.7883548927318357,3.6000000000000005,10271.0,78.50388,0.2,68900.0,0.33,276.0,2700.0,42.927669933610034,4.488009149985792,12117.624704961638,25.642210089991725,9.08140001946745,17.28545984361831,4.5933908694816585,8909,148,2940,4493,299.2436246972029,172.75272033918785,0.0044969430493624,True
0.22,0.8039187925281173,3.6000000000000005,10272.0,78.50388,0.3,68900.0,0.33,276.0,2700.0,43.79825303115034,4.795506714376268,12947.868128815924,26.30567685631722,9.485647976875152,17.49257617483312,4.690141262498884,4158,102,1364,2106,294.9648955463147,170.0397943475923,0.004418120872049,True
0.23,0.7467292387295761,3.6000000000000005,10273.0,78.50388,0.1,68900.0,0.33,276.0,2700.0,38.9411583625011,4.452750706476813,12022.426907487396,23.897682959037557,8.050485853120323,15.043475403463546,3.59773514664351,42671,274,10524,24161,266.10661947973045,153.46652505458988,0.0039028902083941,False
0.24,0.8993336117435433,3.6000000000000005,10274.0,78.50388,0.3,68900.0,0.33,276.0,2700.0,50.882777253425104,6.0769803525155215,16407.846951791907,30.50613947878928,12.194173261836172,20.376637774635824,6.11719290932065,4576,108,1504,2314,313.7126400780388,179.52195068888912,0.0049967832934999,True
0.25,0.9496345903959544,3.6000000000000005,10275.0,78.50388,0.1,68900.0,0.33,276.0,2700.0,54.78911124065158,6.81591398160528,18402.967750334257,32.81265497963963,13.786405370346031,21.976456261011947,6.970491388740752,60430,332,14614,34487,303.81013969529295,175.3105565106802,0.0048730579842566,True
0.26,0.6739811644068018,3.6000000000000005,10276.0,78.50388,0.1,68900.0,0.33,276.0,2700.0,32.47103930452573,4.184424021268686,11297.944857425451,20.95337629500621,6.41987810621132,11.51766300951952,2.235454084942634,36844,248,8876,21048,223.2071351121248,128.8140966547432,0.003129343585474,False
0.27,0.7832572609118869,3.6000000000000005,10277.0,78.50388,0.1,68900.0,0.33,276.0,2700.0,40.34623153462432,5.40551727837378,14594.896651609206,25.42622889499974,8.951236247121761,14.920002639624585,3.5457189687479813,48151,282,11138,27918,243.45152767308625,140.48639963794488,0.0035981386473933,False
0.28,0.8777018465781388,3.6000000000000005,10278.0,78.50388,0.3,68900.0,0.33,276.0,2700.0,47.542785703946514,6.610013837264777,17847.037360614897,29.53378399275121,11.544809699226754,18.0090017111953,4.934795861961977,4587,106,1512,2313,256.6704133151577,147.92996079422636,0.0039699581610301,False
0.29,0.8071920010536309,3.6000000000000005,10279.0,78.50388,0.1,68900.0,0.33,276.0,2700.0,41.50593920799298,5.967280983006714,16111.658654118128,26.44598386424441,9.571981496229975,15.059955343748566,3.6047005132232615,54765,284,11282,32898,235.80010086975645,136.11423389118426,0.0035098115082239,False
0.3,0.7196266617248968,3.6000000000000005,10280.0,78.50388,0.08,68900.0,0.33,276.0,2700.0,34.48972424463884,5.1169099689312105,13815.656916114269,22.78522411111297,7.417914006898912,11.704500133525864,2.3010040379677017,82606,318,14540,51378,209.97657365663423,121.14545670773042,0.0030000639834376,False
0.31,0.6155985776245388,3.6000000000000005,10281.0,78.50388,0.05,68900.0,0.33,276.0,2700.0,26.772740292931932,4.087380620909051,11035.927676454436,18.68668380144393,5.263150263567397,8.086056491488002,1.175769642658346,241460,438,28824,160984,247.72749035641968,137.8572508844554,0.002483983810182,False
0.32,0.8692075033167213,3.6000000000000005,10282.0,78.50388,0.1,68900.0,0.33,276.0,2700.0,45.36833738650644,7.1903048431258165,19413.823076439705,29.1551760155206,11.295548896897987,16.21316137098584,4.105244053772172,64663,298,12174,39754,242.8818582220401,135.4405130007403,0.0035254572412294,False
0.33,1.0225840649425415,3.6000000000000005,10283.0,78.50388,0.2,68900.0,0.33,276.0,2700.0,57.96431327950111,9.488845414322988,25619.88261867207,36.27068604591732,16.305389019492296,21.693627233583783,6.816543605169308,12103,176,3872,6183,255.88505614925415,147.72599368693702,0.0041579614541095,False
0.34,0.6602382429146268,3.6000000000000005,10284.0,78.50388,0.08,68900.0,0.33,276.0,2700.0,28.94443237989801,4.838235399478114,13063.235578590908,20.41210085087418,6.135642289965861,8.532331529023832,1.2974068904877472,74051,286,11910,46970,189.98894465528775,107.30959023032752,0.0024846327964466,False
0.3500000000000001,0.7700560996659076,3.6000000000000005,10285.0,78.50388,0.1,68900.0,0.33,276.0,2700.0,36.58869056445623,6.313223658764916,17045.703878665274,24.869945445409392,8.619257111673269,11.718745119046837,2.306033452908353,54349,264,10072,33453,197.8888783134228,114.22648944732936,0.0028558996164887,False
0.36,0.9715159069864234,3.6000000000000005,10286.0,78.50388,0.2,68900.0,0.33,276.0,2700.0,52.36723467357282,9.32838614334585,25186.6425870338,33.83585502020552,14.515562002001204,18.531379653367303,5.187175858655353,12088,164,3458,6491,232.9632634628108,134.46133032808052,0.0036384752735792,False
0.37,0.7837372384442766,3.6000000000000005,10287.0,78.50388,0.08,68900.0,0.33,276.0,2700.0,36.9561455355,6.73079952894598,18173.158728154143,25.44653717672783,8.96344513925259,11.50960835877217,2.2326456103066104,102523,330,15490,65908,219.37127676523832,124.90032730828882,0.0027931518034933,False
0.38,0.7180386441026148,3.6000000000000005,10288.0,78.50388,0.1,68900.0,0.33,276.0,2700.0,31.8028292296219,5.927613905569639,16004.557545038026,22.720614499110702,7.38178197847138,9.082214730511192,1.4541680729017417,50018,244,8806,31089,179.37092714171737,103.5246428983699,0.002492342154143,False
0.39,1.0474719782949171,3.6000000000000005,10289.0,78.50388,0.3,68900.0,0.33,276.0,2700.0,57.78477224879817,11.14379316543678,30088.24154667931,37.48104894890701,17.223120127830832,20.30372329989116,6.079326962394051,5243,116,1740,2627,222.4623450340237,128.3153421251339,0.003698972404304,False
0.4,0.9020541136513828,3.6000000000000005,10290.0,78.50388,0.3,68900.0,0.33,276.0,2700.0,45.15291446599888,8.89654160664661,24020.662337945847,30.62925952756023,12.27733270448261,14.523654938438654,3.380791097836001,4015,100,1330,2014,190.9520919860056,109.8015656318961,0.0030218041891169,False
0.4100000000000001,0.8880608052253719,3.6000000000000005,10291.0,78.50388,0.2,68900.0,0.33,276.0,2700.0,43.68338122020446,8.810745345289872,23789.012432282656,29.99795541134867,11.853150784440908,13.68542580885579,3.042405439151036,11633,146,2870,6576,195.54655599141336,112.83333858073756,0.0029455093573826,False
0.42,1.0410729746380565,3.6000000000000005,10292.0,78.50388,0.3,68900.0,0.33,276.0,2700.0,56.06394875801613,11.618259694837295,31369.301176060697,37.16836229412533,16.984279748844223,18.8955864638908,5.366020054006928,5144,114,1712,2570,469.29692759670826,265.82518019109574,0.003361791738302,True
0.43,0.8555895653232046,3.6000000000000005,10293.0,78.50388,0.1,68900.0,0.33,276.0,2700.0,40.454695971418005,8.5312405624489,23034.34951861203,28.55198434596934,10.9026279203383,11.902711625448664,2.3713873578893985,67037,276,10840,42461,185.36582231700643,106.52319020089212,0.0027320766058039,False
0.44,1.005271881272721,3.6000000000000005,10294.0,78.50388,0.1,68900.0,0.33,276.0,2700.0,52.23944097314919,11.314268061690564,30548.52376656452,35.437930946828374,15.684683512561271,16.80151002632082,4.370415450870707,89149,322,14034,56818,211.35071466893604,118.45835865845328,0.0032220007686166,False
0.45,1.088826906053192,3.6000000000000005,10295.0,78.50388,0.3,68900.0,0.33,276.0,2700.0,59.10492778497765,13.107756997914391,35390.94389436886,39.52667006295813,18.81529632700354,19.57825772201952,5.707539329089148,5455,118,1808,2731,203.78947892258685,117.550045597988,0.0034406083139704,False
0.46,0.7761301148215711,3.6000000000000005,10296.0,78.50388,0.08,68900.0,0.33,276.0,2700.0,33.53191005128869,7.508479270109855,20272.894029296607,25.125354236183824,8.77109274632346,8.406555815104866,1.2626134762136043,110017,308,13980,72663,187.57814822363903,108.23070754921572,0.0024393088997437,False
0.4700000000000001,1.059599559102537,3.6000000000000005,10297.0,78.50388,0.2,68900.0,0.33,276.0,2700.0,55.78133097569334,12.891166396572174,34806.14927074487,38.07648538173684,17.68128144366178,17.704845593956506,4.790115047089607,14977,170,3690,8468,200.9336649255624,116.00616926511763,0.0032349787300811,False
0.4800000000000001,0.8677280087666701,3.6000000000000005,10298.0,78.50388,0.08,68900.0,0.33,276.0,2700.0,39.74875899033795,9.30807881451724,25131.81279919655,29.089417746096466,11.2524626241605,10.659341244241482,1.9443838096432595,135591,342,16604,90025,202.59326444987948,115.9230839215909,0.0025546057527967,False
0.5,0.8419125304173734,3.6000000000000005,10300.0,78.50388,0.2,68900.0,0.33,276.0,2700.0,37.15380671683706,9.026652291410114,24371.961186807308,27.950866249134087,10.516237548796171,9.202940467702971,1.4895852573860573,10092,132,2452,5734,161.61098649552605,93.291017918089,0.0023838342312282,False
0.05,0.5102677483019231,3.6000000000000005,10305.0,81.52326,0.1,68900.0,0.33,276.0,2700.0,27.887081932347428,0.696915248921522,1881.6711720881092,14.813930362438484,3.50127404087898,13.073151569908942,2.804358791957457,23493,230,7716,11913,903.8529708291665,516.4822096402524,0.0103317117357276,True
0.0699999999999999,0.563854575447175,3.6000000000000005,10307.0,81.52326,0.08,68900.0,0.33,276.0,2700.0,30.9849100210349,1.0837534732160998,2926.1343776834697,16.74934114095389,4.346639548427793,14.235568880081008,3.262886075211693,40021,302,13172,20257,709.4715717932958,406.9740201474627,0.0085232111034915,True
0.08,0.7379504657020203,3.6000000000000005,10308.0,81.52326,0.2,68900.0,0.33,276.0,2700.0,43.85778178010397,1.7532389409117386,4733.745140461694,23.53532591208394,7.8422854606416195,20.32245586802003,6.089046519729881,9222,150,3016,4692,758.5322189364585,434.1256722066568,0.0104672018317417,True
0.09,0.4582582250211592,3.6000000000000005,10309.0,81.52326,0.2,68900.0,0.33,276.0,2700.0,23.0384843292349,1.0352049807859254,2795.0534481219984,13.004502225734877,2.778156982748539,10.033982103500025,1.7429520019626137,4761,104,1562,2412,432.2976171825307,249.58428805931,0.0053028704949598,True
0.0999999999999999,0.7952876316833049,3.6000000000000005,10310.0,81.52326,0.2,68900.0,0.33,276.0,2700.0,47.73892294060417,2.3848517519278167,6439.0997302051055,25.936990884997453,9.260191889442144,21.80193205560672,6.875340137514327,9644,156,3166,4889,669.1785164549666,382.8824340427582,0.0093618165138768,True
0.11,0.7736272741186909,3.6000000000000005,10311.0,81.52326,0.3,68900.0,0.33,276.0,2700.0,45.56513840664344,2.5032949724840354,6758.896425706896,25.019998926761048,8.708339863681875,20.545139479882398,6.20504489119784,4343,104,1426,2198,574.7037886823308,331.77609546680867,0.0082797447381968,True
0.12,0.5661508442499393,3.6000000000000005,10312.0,81.52326,0.1,68900.0,0.33,276.0,2700.0,29.42692634079904,1.7619964657110114,4757.39045741973,16.83388868822418,4.385197584545507,12.59303765257486,2.6232011188344955,24299,234,8018,12266,378.3993409376737,218.311129181629,0.0052110400945683,True
0.13,0.5438820786248924,3.6000000000000005,10313.0,81.52326,0.1,68900.0,0.33,276.0,2700.0,27.533943098972347,1.7851049153931762,4819.783271561576,16.019552169841095,4.019417925801946,11.514390929131253,2.23431301040877,22704,226,7512,11430,339.88443107248673,196.00600157349297,0.0046237521182344,True
0.14,0.5195703948441801,3.6000000000000005,10314.0,81.52326,0.2,68900.0,0.33,276.0,2700.0,25.540903245539887,1.782116207026823,4811.713758972423,15.144739868019,3.640619814813826,10.396163377520889,1.8585036077870027,5271,110,1732,2667,312.0215486688461,180.10095428170592,0.0041042362454741,True
0.15,0.8271510896584638,3.6000000000000005,10315.0,81.52326,0.3,68900.0,0.33,276.0,2700.0,48.386262736383415,3.6219011217581714,9779.133028747065,27.307362803726544,10.108398748156686,21.07889993265687,6.486497626398515,4772,108,1558,2429,450.87783940530016,260.31272404748904,0.0067633151242881,True
0.16,0.7680648964466196,3.6000000000000005,10316.0,81.52326,0.2,68900.0,0.33,276.0,2700.0,43.186848788826985,3.446369260766762,9305.197004070258,24.78641832215784,8.569819172512023,18.400430466669143,5.123449911745261,9226,150,3034,4669,386.8612606357721,223.13025851367445,0.0057999541931253,True
0.17,0.7802351874686337,3.6000000000000005,10317.0,81.52326,0.2,68900.0,0.33,276.0,2700.0,43.78124284414501,3.711115878614267,10020.01287225852,25.298495241148096,8.87458938406371,18.48274760299692,5.163473505449442,9082,150,2986,4597,370.8136547937551,213.99799941194155,0.0055946410526458,True
0.18,0.6719789624878132,3.6000000000000005,10318.0,81.52326,0.3,68900.0,0.33,276.0,2700.0,35.04413040948046,3.141757224616087,8482.744506463436,20.8742226440952,6.378004473590605,14.16990776538526,3.236247248974517,3377,90,1108,1709,318.6547702804134,183.76487580441847,0.0044263204953084,True
0.19,0.8509252013183048,3.6000000000000005,10319.0,81.52326,0.3,68900.0,0.33,276.0,2700.0,48.78549756988139,4.620256813131428,12474.693395454857,28.3464530449311,10.769930621225392,20.43904452495029,6.149673808093965,4502,106,1474,2285,372.90645924978446,215.01364936779115,0.0056389632785839,True
0.2,0.7450015884915238,3.6000000000000005,10320.0,81.52326,0.3,68900.0,0.33,276.0,2700.0,39.88641201109257,3.971886040290115,10724.09230878331,23.82621851769791,8.00926075904685,16.060193493394657,4.037374718756735,3755,94,1228,1907,317.4738591838439,183.2776062541269,0.0045569919016722,True
0.21,0.7231331719299801,3.6000000000000005,10321.0,81.52326,0.2,68900.0,0.33,276.0,2700.0,37.84370873972307,3.954193224627656,10676.321706494671,22.928113426750787,7.4980610588924606,14.915595312972282,3.543867834264805,7881,138,2590,3990,329.30116692517424,190.0947573614136,0.0042234739809178,True
0.22,0.5953842334472874,3.6000000000000005,10322.0,81.52326,0.2,68900.0,0.33,276.0,2700.0,28.183591473796533,3.0778939430673344,8310.313646281804,17.921831115471736,4.893159003053649,10.261760358324796,1.8152650599863145,5659,114,1870,2848,234.0512120706096,134.87788202177362,0.003230795655972,False
0.23,0.6051154523491648,3.6000000000000005,10323.0,81.52326,0.1,68900.0,0.33,276.0,2700.0,28.541896313060057,3.256835570790734,8793.456041134981,18.28875052985205,5.069343621317697,10.253145783208009,1.8125080505269628,31557,230,7788,17851,234.24366934401505,135.1807726975274,0.0031922691841777,False
0.24,0.5816551811511861,3.6000000000000005,10324.0,81.52326,0.08,68900.0,0.33,276.0,2700.0,26.603128040949784,3.1634224470180885,8541.240606948839,17.40821929774834,4.650640367943335,9.194908743201443,1.487217920925246,56995,274,11264,34601,239.7111006545988,138.29477431116277,0.0032104184708571,False
0.25,0.7949979117625168,3.6000000000000005,10325.0,81.52326,0.3,68900.0,0.33,276.0,2700.0,41.98470774417892,5.215363544547473,14081.481570278176,25.924647777833897,9.252679214570405,16.060059966345023,4.037315670022932,3863,98,1272,1949,273.2973375734023,157.77862828630734,0.004037841036445,False
0.26,0.9303187299484912,3.6000000000000005,10326.0,81.52326,0.3,68900.0,0.33,276.0,2700.0,52.72808353058275,6.81783977065609,18408.167380771443,31.919418949289376,13.16124261097887,20.80866458129337,6.3434028403227805,4962,112,1630,2511,298.9990744531413,172.48572883748574,0.0047412672860958,True
0.27,0.7618379204021184,3.6000000000000005,10327.0,81.52326,0.1,68900.0,0.33,276.0,2700.0,38.69082556333771,5.1820374722501885,13991.50117507551,24.525851799143084,8.416286515836159,14.164973764194627,3.2342490435859705,44659,270,10340,25883,247.88541406597096,142.9877601420393,0.0036165708703292,False
0.28,0.9164612180659308,3.6000000000000005,10328.0,81.52326,0.3,68900.0,0.33,276.0,2700.0,50.77120889704807,7.061993084298996,19067.38132760729,31.28437368483266,12.723324530579058,19.48683521221541,5.6613314462800615,4883,110,1602,2474,275.8295136058199,159.07524600933652,0.0043549968411232,False
0.29,0.8429770334504139,3.6000000000000005,10329.0,81.52326,0.3,68900.0,0.33,276.0,2700.0,44.34811926428545,6.379397091169132,17224.372146156657,27.99748340645865,10.546016140220782,16.3506358578268,4.166619049051651,4159,100,1372,2095,247.64414293453729,142.95810380256768,0.0038063080762413,False
0.3,0.7769854870434829,3.6000000000000005,10330.0,81.52326,0.3,68900.0,0.33,276.0,2700.0,38.809593912513726,5.764890419112448,15565.20413160361,25.161396622137712,8.792599689919896,13.648197290376014,3.027709270807448,3662,94,1208,1844,225.72252484116427,130.18389624199094,0.003356438642499,False
0.31,0.8202160391357131,3.6000000000000005,10331.0,81.52326,0.1,68900.0,0.33,276.0,2700.0,41.81902784400475,6.419555191325179,17332.79901657798,27.006930222191087,9.920063263601998,14.812097621813663,3.500508072276819,59505,286,11350,36458,239.7396390436717,135.63764741358744,0.003514153818339,False
0.32,0.8915993944616392,3.6000000000000005,10332.0,81.52326,0.2,68900.0,0.33,276.0,2700.0,47.19216500673568,7.482117262362487,20201.71660837872,30.15713296255791,11.959582765753982,17.03503204417777,4.477465503391495,9688,154,3188,4882,244.82030403321943,141.34610800843367,0.0037435041869535,False
0.33,0.7492348494438841,3.6000000000000005,10333.0,81.52326,0.08,68900.0,0.33,276.0,2700.0,35.69296839203305,5.814073507890746,15697.998471305014,24.001461110980134,8.11049412446858,11.691507281052914,2.2964206165778345,89201,322,14828,56145,224.20107217259243,126.43614375793165,0.0030176294102575,False
0.34,0.7591387685572891,3.6000000000000005,10334.0,81.52326,0.1,68900.0,0.33,276.0,2700.0,36.10153085074953,6.05494213952285,16348.343776711694,24.413209110421136,8.350239578752241,11.688321740328398,2.2952974392293912,52093,260,9720,32049,207.0338097225161,119.47953625889171,0.0029886380718696,False
0.3500000000000001,0.9261593639812808,3.6000000000000005,10335.0,81.52326,0.3,68900.0,0.33,276.0,2700.0,48.932246964868845,8.473346028836948,22878.03427785976,31.728301661339856,13.028875680188978,17.20394530352899,4.55552965135203,4680,108,1544,2358,227.99642789657517,131.23538738584745,0.0036283689962013,False
0.36,0.8920135447209063,3.6000000000000005,10336.0,81.52326,0.1,68900.0,0.33,276.0,2700.0,45.7664118496743,8.140238035044119,21978.64269461912,30.175783394636085,11.972076212082222,15.590628455038214,3.831838177038103,69274,302,12578,42845,239.14446030843135,135.30095800340385,0.0034245960671797,False
0.37,0.963026607796274,3.6000000000000005,10337.0,81.52326,0.2,68900.0,0.33,276.0,2700.0,51.270749292263815,9.37900122394728,25323.303304657653,33.43745522023175,14.23001165429856,17.833294072032068,4.85101043035128,12404,162,3390,6777,235.1312709821431,135.64826093799292,0.0036557659434974,False
0.38,0.9176286754843844,3.6000000000000005,10338.0,81.52326,0.1,68900.0,0.33,276.0,2700.0,47.13080395313412,8.839929103036676,23867.808578199023,31.337688336871057,12.759878822679662,15.793115616263062,3.919949719642986,72593,304,12774,45138,219.2768018247603,126.54440024034864,0.0033856062168538,False
0.39,0.8000727258212412,3.6000000000000005,10339.0,81.52326,0.1,68900.0,0.33,276.0,2700.0,37.52994110019643,7.194101091459406,19424.0729469404,26.141158203049248,9.38479108292786,11.388782897147184,2.190689991468454,58725,266,10238,36554,195.3529470566603,112.7487999862008,0.0028437664935664,False
0.4,1.045181589444066,3.6000000000000005,10340.0,81.52326,0.3,68900.0,0.33,276.0,2700.0,57.19354324598165,11.304667362643166,30522.601879136542,37.36901107991504,17.137402281507423,19.824532166066604,5.832734918864258,5213,116,1730,2612,228.56373411710615,131.535619898572,0.0037499999620237,False
0.4100000000000001,0.8674495470572259,3.6000000000000005,10341.0,81.52326,0.3,68900.0,0.33,276.0,2700.0,42.05395206941678,8.476712369378399,22887.12339732168,29.07704726527747,11.244364057566026,12.97690480413931,2.7676516881876267,4026,98,1334,2017,189.2257731417596,108.83258930919622,0.0029470359875608,False
0.42,0.7899342624776036,3.6000000000000005,10342.0,81.52326,0.2,68900.0,0.33,276.0,2700.0,35.79669958306581,7.362137368097717,19877.770893863835,25.709258810949294,9.121951489407826,10.087440772116516,1.7598141213101082,9581,130,2388,5389,187.0275973621999,107.97266708750672,0.0026427395820902,False
0.43,0.9387630055306156,3.6000000000000005,10343.0,81.52326,0.1,68900.0,0.33,276.0,2700.0,47.06938438094138,9.953398570496416,26874.176140340325,32.30875950894558,13.432421569409264,14.760624871995802,3.4790229989128463,78669,300,12606,49940,205.06871358570208,117.71901041481068,0.0031483489731097,False
0.44,1.0029627281043036,3.6000000000000005,10344.0,81.52326,0.1,68900.0,0.33,276.0,2700.0,52.04396430194774,11.271263194026233,30432.410623870823,35.327424834439,15.602979515590974,16.71653946750874,4.331716321564741,89022,322,13976,56786,212.025507173005,121.6343908950514,0.0033365416627691,False
0.45,1.0389132558572285,3.6000000000000005,10345.0,81.52326,0.2,68900.0,0.33,276.0,2700.0,54.7422180244942,12.126147301805617,32740.59771487516,37.06306014053131,16.904120271362803,17.679157883962887,4.777972969557188,14950,168,3676,8464,212.51613257162043,122.69468104182124,0.0034013646449682,False
0.46,1.0485270258966528,3.6000000000000005,10346.0,81.52326,0.3,68900.0,0.33,276.0,2700.0,55.197409419300286,12.491544124752505,33727.169136831755,37.532702568026615,17.262691664688738,17.66470685127367,4.771147539936235,5317,114,1724,2695,201.2159582605219,115.99736508163488,0.003345107702945,False
0.4700000000000001,0.8363666446774825,3.6000000000000005,10347.0,81.52326,0.2,68900.0,0.33,276.0,2700.0,37.6821925256677,8.637868860816145,23322.24592420359,27.708459214809302,10.36189777635424,9.973733310858396,1.7240289155380957,10182,134,2534,5733,175.4528299447694,101.29368466686024,0.0025787587929056,False
0.4800000000000001,0.8648267549937039,3.6000000000000005,10348.0,81.52326,0.2,68900.0,0.33,276.0,2700.0,39.52617750204744,9.254659257327525,24987.579994784315,28.96062705147566,11.168253719562074,10.565550450571775,1.913594462234549,10827,140,2656,6131,177.64651638157127,102.5529058866514,0.0026283338837597,False
0.49,0.8900239862037642,3.6000000000000005,10349.0,81.52326,0.1,68900.0,0.33,276.0,2700.0,41.14541681560469,9.834223630421691,26552.403802138568,30.08622697697076,11.91212883057768,11.05918983863393,2.077905200155989,75072,278,10994,48519,188.82151583061184,108.21770308720578,0.0026821926685097,False
0.5,0.9865804268240794,3.6000000000000005,10350.0,81.52326,0.2,68900.0,0.33,276.0,2700.0,48.52869677692124,11.870374806431157,32050.01197736412,34.54728648029937,15.03063443765986,13.981410296621869,3.1602596312287066,12956,154,3156,7356,189.76625853129735,109.55030687131044,0.0029462048948986,False
0.05,0.4441425181202357,3.6000000000000005,10355.0,84.54263999999999,0.1,68900.0,0.33,276.0,2700.0,23.392600067097604,0.5845532022896419,1578.2936461820332,12.525141722341695,2.597978387815179,10.867458344755908,2.013425185525537,19313,206,6330,9812,805.9925628339834,461.25711088626434,0.0091235051679354,True
0.06,0.4142567372421522,3.6000000000000005,10356.0,84.54263999999999,0.08,68900.0,0.33,276.0,2700.0,21.11691539902023,0.6330550726284909,1709.2486960969254,11.526764466960469,2.2386292940081653,9.59015093205976,1.6055742213796744,27150,244,8928,13752,607.1680526718172,348.43986035076904,0.0071143654134174,True
0.0699999999999999,0.5997051666350266,3.6000000000000005,10357.0,84.54263999999999,0.2,68900.0,0.33,276.0,2700.0,33.59207572700025,1.1750042729248915,3172.511536897207,18.084459821029306,4.97094922282824,15.507615905970948,3.795944949903349,6976,128,2288,3538,724.8470954862981,415.0228767528636,0.0095254187878108,True
0.08,0.5050055652707977,3.6000000000000005,10358.0,84.54263999999999,0.1,68900.0,0.33,276.0,2700.0,26.5110256138558,1.0593686942618066,2860.295474506878,14.627766072836351,3.423810548364477,11.883259541019443,2.3644418541026706,21754,220,7154,11017,540.5607693190841,310.5995973357814,0.0068585106490127,True
0.09,0.6179836123508986,3.6000000000000005,10359.0,84.54263999999999,0.2,68900.0,0.33,276.0,2700.0,34.22339754708239,1.5385260755890648,4154.020404090476,18.777603991892303,5.30782704884544,15.445793555190086,3.769300973256376,7203,130,2362,3654,581.9591186077458,333.667407368694,0.0078310872956658,True
0.11,0.4235947541796679,3.6000000000000005,10361.0,84.54263999999999,0.05,68900.0,0.33,276.0,2700.0,20.165447198680965,1.1063119560461678,2987.042281324653,11.83630310179038,2.3477099489572497,8.329144096890586,1.241397992911082,87803,380,21500,49843,330.9443709364559,190.9930305766635,0.0042108615811974,True
0.12,0.7504815262063098,3.6000000000000005,10362.0,84.54263999999999,0.2,68900.0,0.33,276.0,2700.0,43.30953099480088,2.594952744951116,7006.372411368012,24.05315513503245,8.1404484071111,19.25637585976843,5.5454956621599845,8931,146,2926,4536,539.8367373052802,310.4577297704968,0.0076267409757812,True
0.13,0.5600194489969377,3.6000000000000005,10363.0,84.54263999999999,0.1,68900.0,0.33,276.0,2700.0,28.65897196598696,1.8582317917491948,5017.225837722826,16.60842906633698,4.282674033146527,12.05054289964998,2.4244422413973323,23772,232,7852,11988,361.8337364971089,208.75232611398133,0.0049605016070816,True
0.14,0.6317419280293244,3.6000000000000005,10364.0,84.54263999999999,0.1,68900.0,0.33,276.0,2700.0,33.466493425593015,2.3369075196305458,6309.650303002473,19.30487742621953,5.569796994936087,14.161615999373485,3.232889475305541,26872,250,8880,13546,377.8123323465658,218.03309204475136,0.0053486309156102,True
0.15,0.665865669093639,3.6000000000000005,10365.0,84.54263999999999,0.1,68900.0,0.33,276.0,2700.0,35.64590368928978,2.666374193226153,7199.210321710614,20.63316742475318,6.2511315253345865,15.012736264536604,3.584757332108433,29172,262,9656,14682,371.5975734324234,214.46769453434197,0.0053521267408891,True
0.16,0.6226287006360762,3.6000000000000005,10366.0,84.54263999999999,0.3,68900.0,0.33,276.0,2700.0,32.10902641362124,2.5601434707500896,6912.387371025242,18.955090312587167,5.395462687073218,13.15393610103407,2.8353192163231284,3170,86,1034,1613,347.6206866001725,200.6967813163684,0.0046566911143985,True
0.17,0.546857322344187,3.6000000000000005,10367.0,84.54263999999999,0.08,68900.0,0.33,276.0,2700.0,26.436637052865617,2.2368243863555155,6039.425843159892,16.1276311786303,4.0672407233158605,10.309005874235318,1.830416336960345,45517,274,11188,25803,284.59121157327746,164.27553272843335,0.0038193843513431,True
0.18,0.6863466805276517,3.6000000000000005,10368.0,84.54263999999999,0.1,68900.0,0.33,276.0,2700.0,36.11960421477621,3.2385498670926967,8744.08464115028,21.44445855930189,6.682009701399794,14.675145655474324,3.443459834307097,34438,262,9826,18503,331.17226320303826,191.12880845321885,0.0047131088367874,True
0.19,0.545661007945833,3.6000000000000005,10369.0,84.54263999999999,0.08,68900.0,0.33,276.0,2700.0,25.71858940741536,2.428900537697147,6558.031451782296,16.084146995747826,4.047973019888434,9.634442411667536,1.619072482191287,43944,268,10770,24939,259.7051592578081,149.8756830031941,0.0034680497526047,False
0.2,0.6788808500614887,3.6000000000000005,10370.0,84.54263999999999,0.2,68900.0,0.33,276.0,2700.0,34.86133805791235,3.469378644972092,9367.322341424648,21.147502000226417,6.523018394571686,13.713836057685931,3.0536397495995944,7403,132,2438,3740,304.4787818860152,171.02496545946502,0.0042172304404684,True
0.21,0.6354523785016062,3.6000000000000005,10371.0,84.54263999999999,0.1,68900.0,0.33,276.0,2700.0,31.346032562515354,3.271937226020458,8834.230510255236,19.44789117549024,5.64169200222762,11.898141387025117,2.369754776207162,33731,240,8296,19109,271.49654257586394,156.72561741980195,0.003770640935667,False
0.22,0.6732043381997055,3.6000000000000005,10372.0,84.54263999999999,0.2,68900.0,0.33,276.0,2700.0,33.75495373840722,3.6907437921745054,9965.008238871163,20.92265382884184,6.403612908368467,12.832299909565377,2.712869116193962,7172,130,2362,3623,268.42254208401664,154.9538628988879,0.0038470674199702,False
0.23,0.7089466169597491,3.6000000000000005,10373.0,84.54263999999999,0.3,68900.0,0.33,276.0,2700.0,36.068034493829295,4.122341461579549,11130.321946264785,22.351919226275037,7.176883202587598,13.716115267554262,3.054541741008049,3355,90,1104,1693,271.805030006129,156.8473594623653,0.0039346136317505,False
0.24,0.8645416253223326,3.6000000000000005,10374.0,84.54263999999999,0.1,68900.0,0.33,276.0,2700.0,47.97632094444267,5.72820559543764,15466.155107681629,28.947981165311187,11.159997988395416,19.02833977913148,5.431792392957776,52917,310,12916,30095,312.7740588680867,180.40811338366944,0.0048370528770676,True
0.25,0.9049451617086676,3.6000000000000005,10375.0,84.54263999999999,0.3,68900.0,0.33,276.0,2700.0,50.9651967310245,6.337924667903143,17112.396603338486,30.7603017439699,12.36607273979981,20.2048949870546,6.028148071896667,4587,108,1510,2316,311.63138306693537,179.53968460222382,0.0049181845052036,True
0.26,0.7299634714757939,3.6000000000000005,10376.0,84.54263999999999,0.3,68900.0,0.33,276.0,2700.0,36.6131365438162,4.72289666237644,12751.82098841639,23.20733346345515,7.655619852475031,13.405803080361046,2.9327231900985904,3548,90,1170,1787,254.47238901422452,146.80564295178317,0.0036592824222847,False
0.27,0.6580113844051346,3.6000000000000005,10377.0,84.54263999999999,0.1,68900.0,0.33,276.0,2700.0,30.993354681659675,4.142878903223648,11185.77303870385,20.324841220949395,6.090284610041294,10.66851346071028,1.947405706817646,37219,242,8604,21577,230.68284082385725,133.13809640607008,0.0031836069340908,False
0.28,0.7656316896069528,3.6000000000000005,10378.0,84.54263999999999,0.3,68900.0,0.33,276.0,2700.0,38.632844760477965,5.362622105179167,14479.07968398375,24.68448528537033,8.509632732172337,13.948359475107631,3.14701062699317,3686,94,1212,1862,245.22869661201105,141.57868417379782,0.0036271133277675,False
0.06,0.4748200364929153,3.6000000000000005,10406.0,87.56201999999999,0.08,68900.0,0.33,276.0,2700.0,25.118690280973148,0.7531083190870745,2033.3924615351011,13.57331555977773,2.9982358720799898,11.545374721195415,2.245127552992915,32795,270,10774,16628,730.791385805272,418.7860657991054,0.0086225237908627,True
0.0699999999999999,0.5664986352773533,3.6000000000000005,10407.0,87.56201999999999,0.1,68900.0,0.33,276.0,2700.0,31.174987561265144,1.0904061871241637,2944.096705235242,16.846705747571697,4.39105448872877,14.328281813693447,3.300648301604606,25896,242,8490,13155,784.578782352567,449.10605850048864,0.0092076530676023,True
0.08,0.6212726218660463,3.6000000000000005,10408.0,87.56201999999999,0.2,68900.0,0.33,276.0,2700.0,34.82816313131474,1.392054194960165,3758.5463263924457,18.90321922543915,5.369793267378874,15.92494390587559,3.977739072418709,7170,130,2352,3636,669.2202485109193,386.2623509525129,0.0091049944149022,True
0.09,0.7585705296605147,3.6000000000000005,10409.0,87.56201999999999,0.2,68900.0,0.33,276.0,2700.0,45.12922613159738,2.029288361892237,5479.07857710904,24.38951834172966,8.336373775132959,20.73970778986772,6.307085413240722,9201,150,3018,4668,738.0170820977133,422.27843019950166,0.0104404131649571,True
0.0999999999999999,0.437695761024019,3.6000000000000005,10410.0,87.56201999999999,0.08,68900.0,0.33,276.0,2700.0,21.37942702710929,1.066876956253075,2880.567781883303,12.30787973071136,2.517932720333301,9.071547296397933,1.4510557640802264,27358,246,9036,13798,380.9693163505664,219.7974527452507,0.0049125530302354,True
0.11,0.4613525118421745,3.6000000000000005,10411.0,87.56201999999999,0.2,68900.0,0.33,276.0,2700.0,22.60895873468271,1.2407050905262609,3349.9037444209043,13.110251447190208,2.818560189760846,9.4987072874925,1.577855099234585,4714,104,1546,2389,379.9818991650823,219.3800798710968,0.0047847852118849,True
0.12,0.7599958977159172,3.6000000000000005,10412.0,87.56201999999999,0.3,68900.0,0.33,276.0,2700.0,44.07244509384167,2.64072759089357,7129.96449541264,24.44895951877914,8.371180172176258,19.62348557506253,5.730452581282687,4130,100,1350,2099,556.0220216225229,318.9894245590665,0.0080309817903235,True
0.13,0.7889831013627133,3.6000000000000005,10413.0,87.56201999999999,0.3,68900.0,0.33,276.0,2700.0,46.03177451935327,2.9874639577180115,8066.152685838631,25.668871817690075,9.097517051205246,20.362902701663195,6.110053093487235,4273,104,1396,2173,532.7979350590962,307.25982962122777,0.0078096943630772,True
0.14,0.4947679069409768,3.6000000000000005,10414.0,87.56201999999999,0.2,68900.0,0.33,276.0,2700.0,23.87384240305507,1.6654219480528876,4496.639259742797,14.267574631055624,3.275902482936557,9.606267771999448,1.6104805348836693,4962,106,1628,2514,320.9999118142757,184.99508725531985,0.0041729610932242,True
0.16,0.7756250296138653,3.6000000000000005,10416.0,87.56201999999999,0.2,68900.0,0.33,276.0,2700.0,43.79177174846986,3.4947630975381943,9435.860363353124,25.10408035162304,8.758407674392458,18.687691396846823,5.263644576854264,9172,150,3018,4639,419.83678653079016,242.30087157460204,0.0063062312123371,True
0.17,0.8545722493355393,3.6000000000000005,10417.0,87.56201999999999,0.3,68900.0,0.33,276.0,2700.0,49.88086344526232,4.229583629709248,11419.87580021497,28.50711054357311,10.873604357806965,21.37375290168921,6.644020728097717,4670,108,1526,2375,452.2127265479167,260.84544359506515,0.0067407459147814,True
0.18,0.5951161737895683,3.6000000000000005,10418.0,87.56201999999999,0.08,68900.0,0.33,276.0,2700.0,29.46691919378383,2.639808215203391,7127.482181049156,17.91175750418452,4.888356233343871,11.55516168959931,2.24854801814048,50475,292,12432,28595,301.296726451384,173.90531740322396,0.0041405660169178,True
0.19,0.5282900272302804,3.6000000000000005,10419.0,87.56201999999999,0.08,68900.0,0.33,276.0,2700.0,24.546829089632173,2.31758330750774,6257.474930270897,15.456791702350984,3.774035479163259,9.090037387281187,1.4564521716555192,42165,264,10404,23855,262.7412650503888,151.59063533031642,0.0034699503832806,False
0.2,0.7621581274864806,3.6000000000000005,10420.0,87.56201999999999,0.3,68900.0,0.33,276.0,2700.0,41.22619086546231,4.105863925727086,11085.832599463132,24.539227030376843,8.424142008685399,16.686963835085464,4.3182780829583125,3701,94,1216,1871,344.44471014252247,198.63161371660163,0.0050268603315102,True
0.21,0.8878766266451708,3.6000000000000005,10421.0,87.56201999999999,0.3,68900.0,0.33,276.0,2700.0,51.09734453763656,5.345824983408577,14433.727455203158,29.9896790604381,11.847626565780674,21.10766547719846,6.501801582372097,4872,110,1596,2472,380.6657938083512,219.7532595398852,0.0058302521610963,True
0.22,0.6744159711488187,3.6000000000000005,10422.0,87.56201999999999,0.3,68900.0,0.33,276.0,2700.0,33.84410462898934,3.700550390138549,9991.48605337408,20.97057895644408,6.428992515236828,12.873525672545265,2.7284421250982795,3288,88,1076,1668,285.19984973712627,164.62202417817386,0.0039913379639837,True
0.23,0.8236372826878879,3.6000000000000005,10423.0,87.56201999999999,0.3,68900.0,0.33,276.0,2700.0,45.01120411244513,5.150805967720368,13907.176112844993,27.15499048023884,10.012713740719205,17.856213632206288,4.861907772998835,4486,104,1464,2284,321.56183572689844,185.6516956737396,0.0048777749391961,True
0.24,0.8496569677284216,3.6000000000000005,10424.0,87.56201999999999,0.3,68900.0,0.33,276.0,2700.0,46.75146863372792,5.5812233181518245,15069.302959009929,28.29066394024357,10.734016078400929,18.46080469348436,5.152792760249104,4440,104,1456,2250,319.77126036621326,184.6150345199009,0.0048831371078609,True
0.25,0.5818576497259115,3.6000000000000005,10425.0,87.56201999999999,0.05,68900.0,0.33,276.0,2700.0,26.306130649435666,3.2555414077045635,8789.96180080232,17.41575934906387,4.654165748587159,8.890371300371797,1.3986243408825958,198646,436,28340,129048,276.4371736424592,156.43108484585085,0.0030833226512686,True
0.26,0.8884873918746079,3.6000000000000005,10426.0,87.56201999999999,0.3,68900.0,0.33,276.0,2700.0,49.19684908251448,6.35877929240722,17168.704089499493,30.01712801989719,11.865951600950597,19.179721062617293,5.507172308543377,4669,108,1532,2365,307.5080015773209,177.40780698760972,0.004804291625028,True
0.27,0.8347675647700672,3.6000000000000005,10427.0,87.56201999999999,0.3,68900.0,0.33,276.0,2700.0,44.42164916661912,5.955698658693174,16080.386378471569,27.638708054557064,10.317645513361697,16.782941112062055,4.361946854668521,4152,100,1372,2088,282.98952686960325,163.0976181068994,0.0042977924053513,True
0.28,0.8902086861608549,3.6000000000000005,10428.0,87.56201999999999,0.3,68900.0,0.33,276.0,2700.0,48.5762784449554,6.754702821006024,18237.697616716265,30.094536726050663,11.9176865228013,18.481741718904733,5.162983701795275,4526,106,1490,2285,289.5337279251178,166.84391955012282,0.0045074558967534,True
0.29,0.8836165180678586,3.6000000000000005,10429.0,87.56201999999999,0.2,68900.0,0.33,276.0,2700.0,47.65391652812289,6.858737694425554,18518.591774949,29.79848237770838,11.72027469802599,17.855434150414514,4.861537003600437,9351,154,3092,4707,277.9261282736544,160.37692973127133,0.00432808058158,True
0.3,0.7563705635535002,3.6000000000000005,10430.0,87.56201999999999,0.3,68900.0,0.33,276.0,2700.0,37.237983211994624,5.529148814034576,14928.701797893356,24.297874841249623,8.282818490012323,12.940108370745,2.753669675977747,3452,90,1138,1739,235.32903235857896,135.38361990962656,0.0034954080718441,False
0.31,0.8164691305541042,3.6000000000000005,10431.0,87.56201999999999,0.3,68900.0,0.33,276.0,2700.0,41.52458763959119,6.373916959641247,17209.575791031366,26.845113756997065,9.81917403091396,14.679473882594127,3.445257071272714,3947,98,1308,1979,247.97914531570413,143.11462294311747,0.0037119158489255,False
0.32,0.7081252806816551,3.6000000000000005,10432.0,87.56201999999999,0.1,68900.0,0.33,276.0,2700.0,32.9909157214525,5.209917376717186,14066.776917136403,22.3187151321082,7.158538397466031,10.672200589344303,1.9486210207488448,47821,250,9098,29298,221.54586400369047,127.85188283500923,0.0031218634577829,False
0.33,0.9944616827153372,3.6000000000000005,10433.0,87.56201999999999,0.2,68900.0,0.33,276.0,2700.0,55.49969530523535,9.082183448569127,24521.895311136643,34.92175628716795,15.30438506365973,20.5779390180674,6.2222016150906025,11384,170,3690,5781,280.84556823189075,161.87902896545012,0.0044737114429808,True
0.34,0.7984301488070353,3.6000000000000005,10434.0,87.56201999999999,0.1,68900.0,0.33,276.0,2700.0,39.08138043527675,6.561516568892592,17716.094736009996,26.07100891838196,9.341909839421945,13.01037151689479,2.780393270529353,57413,274,10734,35308,236.88984120768032,133.47100219293188,0.0033932593477575,False
0.3500000000000001,0.7128989668239816,3.6000000000000005,10435.0,87.56201999999999,0.08,68900.0,0.33,276.0,2700.0,32.375455358610765,5.575907497741782,15054.950243902813,22.51193764239539,7.265541902581705,9.863517716215371,1.6896344048399232,84825,304,13324,54095,213.53025192223043,120.64794737923364,0.0029360017357653,False
0.36,0.9966931043524728,3.6000000000000005,10436.0,87.56201999999999,0.3,68900.0,0.33,276.0,2700.0,54.52385385928499,9.716577596774036,26234.7595112899,35.028063570589346,15.382428811161518,19.495790288695645,5.66585121438748,5038,114,1662,2539,257.4327230362766,148.144889871701,0.004158229622761,False
0.37,0.89658098738636,3.6000000000000005,10437.0,87.56201999999999,0.2,68900.0,0.33,276.0,2700.0,45.77723427298182,8.362700945380109,22579.29255252629,30.38175500263511,12.110372554814274,15.395479270346712,3.7476716094341658,11700,154,3156,6414,239.49121366717043,138.14932617614693,0.0036103313673835,False
0.38,0.9487890765720376,3.6000000000000005,10438.0,87.56201999999999,0.2,68900.0,0.33,276.0,2700.0,49.70454984644263,9.32894082276558,25188.14022146707,32.77335907997816,13.7586784308399,16.931190766464475,4.429737608074317,12739,158,3266,7116,243.3603275844813,140.33707963412013,0.0037773989484946,False
0.39,0.7316460839595427,3.6000000000000005,10439.0,87.56201999999999,0.2,68900.0,0.33,276.0,2700.0,32.47092287445467,6.207592537439804,16760.49985108747,23.276298018981656,7.694726811808941,9.194624855473016,1.4871342743691374,8331,122,2130,4644,200.6979763185896,115.7516133200862,0.0027725494384473,False
0.4,0.9711118395154136,3.6000000000000005,10440.0,87.56201999999999,0.2,68900.0,0.33,276.0,2700.0,50.8338538753582,10.032729488518475,27088.36961899989,33.81685122303678,14.50189387318004,17.017002652321423,4.469164384661564,13444,160,3324,7594,236.3699598213138,136.45774638856153,0.0037161623038745,False
0.4100000000000001,0.9348453410073472,3.6000000000000005,10441.0,87.56201999999999,0.3,68900.0,0.33,276.0,2700.0,47.46119219213922,9.585196594536498,25880.030805248545,32.12790474173543,13.306201078576173,15.333287450403796,3.7210044840396743,4199,102,1396,2099,214.8190290959565,123.13454090646069,0.003446788394727,False
0.42,0.8316678671384373,3.6000000000000005,10442.0,87.56201999999999,0.1,68900.0,0.33,276.0,2700.0,38.94501968404271,8.023284589302868,21662.868391117743,27.50368363759905,10.232183205272271,11.441336046443666,2.208898615969403,64143,272,10582,40456,207.6749434424625,118.40717198043616,0.0030094162109223,False
0.43,0.7809123239686386,3.6000000000000005,10443.0,87.56201999999999,0.08,68900.0,0.33,276.0,2700.0,34.811961593008654,7.318052671090887,19758.742211945395,25.327095743497303,8.891729601158461,9.484865849511351,1.5736769300675748,107536,316,14532,70364,221.80161896477492,126.58589780695772,0.0027673151199435,False
0.44,1.0768791335158474,3.6000000000000005,10444.0,87.56201999999999,0.3,68900.0,0.33,276.0,2700.0,58.43423382561072,12.67712248923209,34228.230720926644,38.93125841201887,18.34660115748421,19.502975413591848,5.669478668252118,5439,118,1808,2719,229.5815667106323,132.4444556479089,0.0038573114461008,False
0.45,0.8714615293273452,3.6000000000000005,10445.0,87.56201999999999,0.08,68900.0,0.33,276.0,2700.0,41.020862562768535,9.038842322917342,24404.874271876823,29.255465204653515,11.361378425216971,11.76539735811502,2.3225361022996296,134709,350,17254,88854,230.7682783729921,131.35854535562905,0.0030048482367965,False
0.46,0.7961224304575585,3.6000000000000005,10446.0,87.56201999999999,0.08,68900.0,0.33,276.0,2700.0,34.99520540274528,7.84503720094487,21181.60044255115,25.9725681018638,9.281858906330838,9.022637300881478,1.4368217053859675,114301,316,14452,75551,196.6278536947144,112.2744684969822,0.0026856518156897,False
0.4700000000000001,0.9672043825269748,3.6000000000000005,10447.0,87.56201999999999,0.2,68900.0,0.33,276.0,2700.0,47.98634862978356,11.059345545283367,29860.23297226509,33.633290353822936,14.37011473459363,14.35305827596062,3.310769189310262,12774,154,3152,7216,209.1926515413254,120.77586351836408,0.00325137108121,False
0.4800000000000001,1.02763032741408,3.6000000000000005,10448.0,87.56201999999999,0.1,68900.0,0.33,276.0,2700.0,52.67058832844948,12.409317855663996,33505.15821029279,36.5148404782972,16.489036185843727,16.155747850152274,4.07971833017973,95573,324,14190,61660,230.158119037962,130.88561599346676,0.0034381708395881,False
0.49,1.1628563150797924,3.6000000000000005,10449.0,87.56201999999999,0.2,68900.0,0.33,276.0,2700.0,64.20476882833485,15.483764873540569,41806.16515855953,43.29587394185093,21.880098608949965,20.90889488648392,6.396333735409396,17469,186,4258,9922,233.9244131588314,134.9114777681258,0.0039061853229215,False
0.5,1.0634272933191142,3.6000000000000005,10450.0,87.56201999999999,0.2,68900.0,0.33,276.0,2700.0,54.99880926041567,13.48790292730477,36417.33790372288,38.26518582451098,17.82738913971685,16.73362343590469,4.33948621241208,15085,168,3670,8576,215.2207876839879,124.25303694972224,0.0034482217327649,False
0.0699999999999999,0.4039356136269835,3.6000000000000005,10457.0,90.5814,0.08,68900.0,0.33,276.0,2700.0,20.141946607794683,0.7042497537526902,1901.4743351322636,11.187187368359057,2.1214148443791245,8.954759239435628,1.4171650906264344,26066,238,8572,13202,529.2606967490844,304.11500136342187,0.0064276411555857,True
0.08,0.4866569095562656,3.6000000000000005,10458.0,90.5814,0.1,68900.0,0.33,276.0,2700.0,25.260536996964028,1.0093491495861393,2725.2427038825763,13.984075683751747,3.1613290696151126,11.27646131321228,2.1519799200289733,20827,216,6840,10561,572.5226322353881,328.87466793525675,0.0070382413155436,True
0.09,0.4744674544447571,3.6000000000000005,10459.0,90.5814,0.2,68900.0,0.33,276.0,2700.0,24.11508417614917,1.0836519738970711,2925.860329522092,13.561134355779926,2.993452312208352,10.55394982036925,1.9098003383112805,5022,108,1648,2544,489.623896263004,282.4220182273812,0.0061353715583663,True
0.0999999999999999,0.524424987166916,3.6000000000000005,10460.0,90.5814,0.2,68900.0,0.33,276.0,2700.0,27.18216661921203,1.357013935858212,3663.9376268171727,15.318236686643552,3.7145622412521977,11.863929932568476,2.3575483053939856,5684,116,1866,2879,484.8076457429559,279.814370786318,0.0062566333735235,True
0.11,0.4541327904958741,3.6000000000000005,10461.0,90.5814,0.2,68900.0,0.33,276.0,2700.0,22.13618980927393,1.2147027996287814,3279.6975589977096,12.86388715812712,2.724797956460595,9.272302651146807,1.5100951568318135,4559,102,1500,2303,386.7139136361167,223.069808399382,0.0048587843677388,True
0.12,0.604923112834665,3.6000000000000005,10462.0,90.5814,0.1,68900.0,0.33,276.0,2700.0,32.20516503251657,1.92869078721406,5207.465125477962,18.28147523767436,5.06582667159792,13.923689794842211,3.13713588438386,26092,246,8606,13177,454.0462744603462,261.32383027541624,0.0062606232425314,True
0.13,0.6707986433200543,3.6000000000000005,10463.0,90.5814,0.1,68900.0,0.33,276.0,2700.0,36.73538567710242,2.3831986829717047,6434.636444023603,20.827607935483893,6.353393742052702,15.907777741618528,3.970195059080997,30135,266,9948,15207,469.6083826181023,270.55118016068724,0.0065979203435259,True
0.14,0.714805236347692,3.6000000000000005,10464.0,90.5814,0.2,68900.0,0.33,276.0,2700.0,39.74298724317435,2.776262086860955,7495.907634524578,22.589256939359664,7.308529404431091,17.153730303814683,4.5322673175701365,8452,142,2766,4297,457.3280588778501,263.95475283296554,0.0066628288700032,True
0.15,0.5308917505324651,3.6000000000000005,10465.0,90.5814,0.1,68900.0,0.33,276.0,2700.0,25.9889493615018,1.942102618642061,5243.677070333565,15.550270418272383,3.814371340304683,10.438678943229416,1.872268721662622,21261,218,7048,10683,325.76220221016354,187.8002824083734,0.0044020705659348,True
0.16,0.7314727725767098,3.6000000000000005,10466.0,90.5814,0.3,68900.0,0.33,276.0,2700.0,40.29954038238142,3.215384588251113,8681.538388278004,23.26919128851652,7.69069338026159,17.030349093864903,4.475308792010477,3735,94,1224,1893,450.5774483148263,260.0160538880355,0.0060700609232509,True
0.17,0.7075624991868097,3.6000000000000005,10467.0,90.5814,0.3,68900.0,0.33,276.0,2700.0,38.08669801867472,3.227079568449245,8713.11483481296,22.295973399549517,7.145984237288153,15.790724619125204,3.918904668838908,3522,92,1158,1779,392.13103194670754,226.0765420790128,0.0055080449386189,True
0.18,0.7781882645956196,3.6000000000000005,10468.0,90.5814,0.1,68900.0,0.33,276.0,2700.0,43.23942267519445,3.8793335285303496,10474.200527031944,25.21210855848844,8.82289374690244,18.027314116706016,4.943560218372092,40538,292,11618,21759,393.6141515081672,227.1370712556325,0.0058896533818272,True
0.19,0.5809775132485466,3.6000000000000005,10469.0,90.5814,0.1,68900.0,0.33,276.0,2700.0,28.147631370367584,2.659659524177606,7181.080715279538,17.38299003316713,4.638851925666107,10.764641337200455,1.9791924014885005,30330,230,7752,16964,294.3238991775624,169.9262922998293,0.0039818757262271,True
0.2,0.5353294530947157,3.6000000000000005,10470.0,90.5814,0.1,68900.0,0.33,276.0,2700.0,24.708117239804288,2.454056563161283,6625.952720535464,15.710107579873696,3.8837332870397354,8.998009659930593,1.4296767238784516,27394,214,6788,15470,265.8749013744913,153.33570108304107,0.003487349604263,False
0.21,0.8166413994817623,3.6000000000000005,10471.0,90.5814,0.3,68900.0,0.33,276.0,2700.0,45.19904856452086,4.726503906231431,12761.56054682486,26.852545738160217,9.823799250012746,18.34650282636064,5.097295343781315,4467,104,1464,2265,362.3266498932011,208.8926046816476,0.0054243638263568,True
0.22,0.8602954868742634,3.6000000000000005,10472.0,90.5814,0.3,68900.0,0.33,276.0,2700.0,48.39498306718066,5.301147018339494,14313.096949516634,28.759900970068863,11.037480320189491,19.635082097111795,5.736333301849998,4748,108,1558,2405,359.56058465731167,207.59119947274928,0.0055533965362444,True
0.23,0.7416095850237362,3.6000000000000005,10473.0,90.5814,0.3,68900.0,0.33,276.0,2700.0,38.54763905638319,4.407495986273218,11900.239162937689,23.68612614882514,7.928679821850105,14.861512907558051,3.5211838355768874,3552,92,1174,1785,302.8550874231701,174.84506773163568,0.004442980403274,True
0.24,0.8562956844497942,3.6000000000000005,10474.0,90.5814,0.3,68900.0,0.33,276.0,2700.0,47.29639005588417,5.64661388881011,15245.857499787298,28.583146549255098,10.92280002396384,18.71324350662907,5.276186135153729,4431,104,1456,2241,331.76419030312843,191.3142448978928,0.0050942059559615,True
0.25,0.5914647751416678,3.6000000000000005,10475.0,90.5814,0.1,68900.0,0.33,276.0,2700.0,26.963686100117155,3.337735839039751,9011.886765407327,17.774718749032868,4.823203559735741,9.188967351084289,1.48546772069599,30146,224,7352,17128,239.34127611333088,138.0475391718333,0.0032371676379874,False
0.26,0.7003432047204704,3.6000000000000005,10476.0,90.5814,0.3,68900.0,0.33,276.0,2700.0,34.4019258987729,4.435439278520756,11975.68605200604,22.00495113600016,6.986074315641269,12.39697476277274,2.550635037120513,3231,88,1062,1632,260.345161215612,150.07611589933353,0.0037348571227276,False
0.27,0.6015408921045056,3.6000000000000005,10477.0,90.5814,0.2,68900.0,0.33,276.0,2700.0,27.03425954348644,3.608401059570264,9742.682860839712,18.15369378540602,5.004210860643029,8.880565758080419,1.3958098010727658,5501,112,1822,2762,217.8254644982425,125.59926961176922,0.0030709303129354,False
0.28,0.8241714295361148,3.6000000000000005,10478.0,90.5814,0.3,68900.0,0.33,276.0,2700.0,43.2081865573183,6.003169956736824,16208.558883189424,27.178133162723547,10.02722467377412,16.030053394594752,4.024054717037298,4123,100,1360,2077,278.55468533814474,159.97259066519194,0.0042456157118897,True
0.29,0.7453230165397202,3.6000000000000005,10479.0,90.5814,0.3,68900.0,0.33,276.0,2700.0,36.74392074934667,5.276788306503004,14247.328427558112,23.839508744129866,8.016921309817112,12.904412005216807,2.7401330033141083,3472,90,1144,1750,248.82824631788085,142.93515562773268,0.00366001568481,False
0.3,0.834412092238948,3.6000000000000005,10480.0,90.5814,0.1,68900.0,0.33,276.0,2700.0,43.30023672687888,6.43848684126721,17383.914471421467,27.623211230523488,10.30782346629438,15.677025496355393,3.86933662502717,60261,292,11876,36623,272.1197977230094,157.03396800862413,0.0040928857952336,False
0.31,0.919976532454834,3.6000000000000005,10481.0,90.5814,0.3,68900.0,0.33,276.0,2700.0,49.91794323292912,7.674887076608607,20722.19510684324,31.445012389486347,12.833581196335032,18.47293084344277,5.158694119726426,4688,108,1548,2360,282.167356320507,162.8620335585294,0.0044386674409189,True
0.32,0.9148090359298472,3.6000000000000005,10482.0,90.5814,0.3,68900.0,0.33,276.0,2700.0,49.10919905935547,7.788842710781655,21029.875319110462,31.20898149495289,12.67169933749873,17.900217564402574,4.882856626717075,4773,108,1576,2403,271.2845142111093,156.59813002527312,0.004290582962757,False
0.33,0.8033380646577741,3.6000000000000005,10483.0,90.5814,0.28,68900.0,0.33,276.0,2700.0,68.05725467880997,11.154180745208953,30116.28801206417,41.77644276202836,20.624559502677265,26.28081191678161,9.470378757468312,10994,148,3362,5701,317.5060038064142,183.30136649376016,0.0063860557163905,True
0.33,0.8033380646577741,3.6000000000000005,10483.0,90.5814,0.26,68900.0,0.33,276.0,2700.0,68.05725467880997,11.154180745208953,30116.28801206417,41.77644276202836,20.624559502677265,26.28081191678161,9.470378757468312,12313,156,3748,6413,316.1191774752457,182.4968124478089,0.005631646983148,True
0.33,0.8033380646577741,3.6000000000000005,10483.0,90.5814,0.24,68900.0,0.33,276.0,2700.0,68.05725467880997,11.154180745208953,30116.28801206417,41.77644276202836,20.624559502677265,26.28081191678161,9.470378757468312,14346,170,4306,7515,314.6970784585756,181.6515230098024,0.0055760144780318,True
0.33,0.8033380646577741,3.6000000000000005,10483.0,90.5814,0.22,68900.0,0.33,276.0,2700.0,68.05725467880997,11.154180745208953,30116.28801206417,41.77644276202836,20.624559502677265,26.28081191678161,9.470378757468312,16435,184,4976,8567,314.34753036518134,181.46809662352717,0.0056161322438112,True
0.33,0.8033380646577741,3.6000000000000005,10483.0,90.5814,0.1999999999999999,68900.0,0.33,276.0,2700.0,68.05725467880997,11.154180745208953,30116.28801206417,41.77644276202836,20.624559502677265,26.28081191678161,9.470378757468312,19859,200,5858,10480,313.8304379757151,181.1713427401749,0.0055062933997051,True
0.34,0.9271785493885368,3.6000000000000005,10484.0,90.5814,0.26,68900.0,0.33,276.0,2700.0,80.61633765997787,13.622459297091783,36780.64010214782,48.84124601377491,26.683695840948637,31.775091646202966,13.061236543856849,14462,172,4364,7554,337.8945001483721,195.050857373232,0.006547103898794,True
0.34,0.9271785493885368,3.6000000000000005,10484.0,90.5814,0.24,68900.0,0.33,276.0,2700.0,80.61633765997787,13.622459297091783,36780.64010214782,48.84124601377491,26.683695840948637,31.775091646202966,13.061236543856849,16951,188,5112,8853,338.1395277369014,195.1676581435384,0.0063221197327621,True
0.34,0.9271785493885368,3.6000000000000005,10484.0,90.5814,0.22,68900.0,0.33,276.0,2700.0,80.61633765997787,13.622459297091783,36780.64010214782,48.84124601377491,26.683695840948637,31.775091646202966,13.061236543856849,19356,203,5804,10138,338.6382666432925,195.50670277299483,0.0063149539137353,True
0.34,0.9271785493885368,3.6000000000000005,10484.0,90.5814,0.1999999999999999,68900.0,0.33,276.0,2700.0,80.61633765997787,13.622459297091783,36780.64010214782,48.84124601377491,26.683695840948637,31.775091646202966,13.061236543856849,22994,220,6642,12261,344.81550834895734,199.0776312420771,0.0064462462571406,True
