thickness,radius,length,exp_index,pressure,mesh_length,youngs_modulus,poisson_ratio,tensile_strength,density,body_area,body_volume,body_mass,outer_area,outer_volume,inner_area,inner_volume,node_count,edge_count,face_count,volume_count,vonmises_stress,tresca_stress,max_displacement,has_failed
0.01,0.6373008625579288,1.2,1.0,3.01938,0.08,68900.0,0.33,276.0,2700.0,19.583680737489775,0.09791630929234613,264.37403508933454,9.908996750374783,2.615390203831444,9.674683987114992,2.5174738945390978,24333,284,8104,12171,188.67332069274102,108.4539542391858,0.0016162473613590216,False
0.02,0.4848995430934149,1.2,2.0,3.01938,0.1,68900.0,0.33,276.0,2700.0,12.83200614363784,0.12830330627556027,346.41892694401275,6.610756568767109,1.3639876279543153,6.22124957487073,1.235684321678755,10552,178,3496,5302,70.29463239477394,40.00988577132959,0.0004859887557917364,False
0.03,0.6493986366386801,1.2,3.0,3.01938,0.1,68900.0,0.33,276.0,2700.0,19.687124934597485,0.2952503253511979,797.1758784482342,10.195822454385349,2.7369982758668248,9.491302480212136,2.441747950515627,15700,226,5176,7930,71.55758916065258,40.740749332415355,0.000551286601954011,False
0.04,0.5028305975421095,1.2,4.0,3.01938,0.1,68900.0,0.33,276.0,2700.0,13.15004697393606,0.26286689819216846,709.7406251188548,6.968517063647006,1.485720900699475,6.181529910289054,1.2228540025073065,10797,180,3548,5469,41.65439387050076,23.75609421961353,0.00025672698246676374,False
0.05,0.6878073853362378,1.2,5.0,3.01938,0.2,68900.0,0.33,276.0,2700.0,21.05176364580428,0.5260322917573055,1420.2871877447249,11.130831544621003,3.146444650644352,9.920932101183276,2.6204123588870463,4444,120,1468,2236,39.58948682664254,22.83738294201527,0.00036508035272061687,False
0.06000000000000001,0.4425105843737184,1.2,6.0,3.01938,0.1,68900.0,0.33,276.0,2700.0,10.519844994142508,0.3151429604821577,850.8859933018257,5.797142821264878,1.1011681810640894,4.7227021728776295,0.7860252205819318,8552,156,2810,4331,23.59078361213462,13.52713649350298,0.000134806504726265,False
0.06999999999999999,0.37421626092493704,1.2,7.0,3.01938,0.1,68900.0,0.33,276.0,2700.0,8.03801432786648,0.2806121239552062,757.6527346790567,4.581291154558778,0.7474412506628859,3.4567231733077017,0.46682912670767973,6850,134,2238,3487,16.00955101279134,9.212240660608757,9.126628962503561e-05,False
0.08,0.6130584056615125,1.2,8.0,3.01938,0.2,68900.0,0.33,276.0,2700.0,16.935219644598913,0.6763364554915307,1826.1084298271328,9.345303861781384,2.3820342667927195,7.589915782817529,1.7056978113011887,3649,106,1200,1843,22.836520498754716,13.182805719969497,0.0001806097996316922,False
0.09,0.6145085877144392,1.2,9.0,3.01938,0.2,68900.0,0.33,276.0,2700.0,16.790435059837698,0.7540427636630533,2035.915461890244,9.37860857482174,2.3956108012933552,7.411826485015958,1.641568037630302,3647,106,1200,1841,20.484517052898244,11.821592320304749,0.00016067618410536144,False
0.09999999999999999,0.4879245453886726,1.2,10.0,3.01938,0.2,68900.0,0.33,276.0,2700.0,11.486482940669722,0.5722297519310936,1545.0203302139528,6.670544802613519,1.3840755535462033,4.815938138056203,0.8118458016151097,2678,86,876,1358,15.014846244594157,8.667577822204883,9.472525377542591e-05,False
0.11,0.45856770384082257,1.2,11.0,3.01938,0.3,68900.0,0.33,276.0,2700.0,10.254975584446692,0.5612360172632832,1515.3372466108647,6.100029969286668,1.1966766726262956,4.154945615160024,0.6354406553630124,1596,64,520,810,13.320478889889277,7.681988671709092,7.956283299034755e-05,False
0.12,0.5716993996350368,1.2,12.0,3.01938,0.2,68900.0,0.33,276.0,2700.0,14.387386385789993,0.8596240684104643,2320.9849847082537,8.417707050887001,2.0148522020380417,5.969679334902992,1.1552281336275774,3133,96,1032,1579,14.671809518048628,8.458680097970035,0.00010357653828295286,False
0.13,0.6902904856991885,1.2,13.0,3.01938,0.3,68900.0,0.33,276.0,2700.0,19.36194925420876,1.2539253154836105,3385.5983518057483,11.192555239105111,3.1741602234910795,8.169394015103649,1.920234908007469,1857,76,606,942,16.45503753145019,9.442628294230857,0.0001389070677359507,False
0.14,0.4731543638165693,1.2,14.0,3.01938,0.1,68900.0,0.33,276.0,2700.0,10.287485927922233,0.7143769947935891,1928.8178859426905,6.380796730836329,1.2876969600796488,3.906689197085904,0.5733199652860598,8347,154,2768,4189,10.580543804225705,6.096542909278597,6.620393552375115e-05,False
0.15000000000000002,0.6956645802249708,1.2,15.0,3.01938,0.3,68900.0,0.33,276.0,2700.0,19.18252124510203,1.4316205099120742,3865.3753767626004,11.326672471544073,3.2346701276051797,7.855848773557957,1.8030496176931055,1845,76,602,936,14.304535024697019,8.169828109743603,0.00012085888175260436,False
0.16,0.5337391234333628,1.2,16.0,3.01938,0.3,68900.0,0.33,276.0,2700.0,12.177382788904843,0.9656119807729863,2607.152348087063,7.60417382190936,1.7108692540510682,4.573208966995483,0.7452572732780819,1727,68,566,872,10.675510058808987,6.142131574699963,6.927100960015961e-05,False
0.17,0.5224858118513326,1.2,17.0,3.01938,0.3,68900.0,0.33,276.0,2700.0,11.588966417859293,0.9747723823797332,2631.8854324252798,7.369961614803726,1.626617932873601,4.219004803055567,0.6518455504938678,1742,68,572,878,9.775501695991176,5.630132229886282,6.352066500700843e-05,False
0.18000000000000002,0.7167573229205452,1.2,18.0,3.01938,0.3,68900.0,0.33,276.0,2700.0,19.527615554817704,1.7452708876964378,4712.231396780382,11.860083455499216,3.4791866116533483,7.667532099318487,1.7339157239569105,2050,78,670,1039,12.30652608971129,7.001031849639153,0.00010476186933361967,False
0.19,0.7804832238679585,1.2,19.0,3.01938,0.3,68900.0,0.33,276.0,2700.0,22.37322114491125,2.1110905527592547,5699.944492449988,13.539560583273692,4.287952202625488,8.833660561637556,2.176861649866233,2284,86,748,1156,12.392535088635235,7.012141199021476,0.00011668752213304557,False
0.2,0.553922150575211,1.2,20.0,3.01938,0.3,68900.0,0.33,276.0,2700.0,12.274795859678752,1.2107244251487297,3268.95594790157,8.032210961539937,1.8686468239127971,4.242584898138816,0.6579223987640674,1510,64,500,754,8.927367421357484,5.123656379880969,5.9587749378847615e-05,False
0.21000000000000002,0.6079748998148944,1.2,21.0,3.01938,0.3,68900.0,0.33,276.0,2700.0,14.219946392894702,1.4736981782106804,3978.985081168837,9.228974035318746,2.334823316786156,4.990972357575956,0.8611251385754757,1565,68,516,785,9.27031539793943,5.302328437143186,6.481551744946344e-05,False
0.22,0.6903747457552853,1.2,22.0,3.01938,0.3,68900.0,0.33,276.0,2700.0,17.521534158348985,1.9050676383681047,5143.682623593882,11.194652452804785,3.1751033971778124,6.326881705544199,1.2700357588097078,1654,72,542,835,9.895024813913402,5.644400315777044,7.762424679660345e-05,False
0.23,0.6202000631910163,1.2,23.0,3.01938,0.3,68900.0,0.33,276.0,2700.0,14.365174732469184,1.6265125890231398,4391.583990362477,9.509829121170252,2.449361955132441,4.855345611298931,0.822849366109301,1471,66,482,742,8.853145341156933,5.052216075458025,6.147025669674807e-05,False
0.24000000000000005,0.5407191833007187,1.2,24.0,3.01938,0.3,68900.0,0.33,276.0,2700.0,11.154818884170902,1.309625348205025,3535.988440153568,7.751047289981872,1.7644587231139106,3.4037715941890303,0.45483337490888553,1485,62,492,741,7.407556077945417,4.258817521793207,4.8959472858499925e-05,False
0.25,0.8537510553422938,1.2,25.0,3.01938,0.3,68900.0,0.33,276.0,2700.0,24.729454574332706,3.0584568983166944,8257.833625455074,15.59664404500245,5.354501711810001,9.132810529330257,2.2960448134933067,2432,88,798,1229,10.035107681107672,5.642957392813899,0.00010125356823070484,False
0.26,0.8774465124273607,1.2,26.0,3.01938,0.3,68900.0,0.33,276.0,2700.0,25.73703779479797,3.309003825004005,8934.310327510813,16.29079517660779,5.7322675709554485,9.44624261819018,2.4232637459514437,2384,90,788,1196,9.827495127566134,5.524113989023437,0.0001021219332300853,False
0.27,0.6244951156043207,1.2,27.0,3.01938,0.3,68900.0,0.33,276.0,2700.0,13.861398882085119,1.8300648702810853,4941.17514975893,9.609393260688321,2.490420820303352,4.252005621396798,0.6603559500222669,1449,64,480,723,7.267898041280763,4.157260713033488,5.375268288283758e-05,False
0.28,0.6398450625102562,1.2,28.0,3.01938,0.3,68900.0,0.33,276.0,2700.0,14.309379601066999,1.9573369828616385,5284.809853726424,9.969011657612858,2.6406769833619093,4.34036794345414,0.6833400005002708,1367,64,450,686,7.420436499322416,4.2374816370332455,5.366641295490451e-05,False
0.29000000000000004,0.6719111930496756,1.2,29.0,3.01938,0.3,68900.0,0.33,276.0,2700.0,15.451788282462603,2.189429098804811,5911.45856677299,10.7393631711683,2.9726266531200696,4.712425111294303,0.7831975543152585,1536,66,510,765,7.348506045269362,4.189922611896583,5.563280706093455e-05,False
0.3,0.9763810953365766,1.2,30.0,3.01938,0.3,68900.0,0.33,276.0,2700.0,30.190312624799567,4.471998225955317,12074.395210079356,19.34151300150196,7.492873181150033,10.848799623297609,3.0208749551947163,2851,100,944,1429,9.16742391715553,5.148579906206151,0.0001058784436893554,False
0.31,0.7765496739655273,1.2,31.0,3.01938,0.3,68900.0,0.33,276.0,2700.0,19.6859434302008,2.988927107185727,8070.103189401462,13.432937485304128,4.234903496523854,6.253005944896673,1.2459763893381273,1874,78,618,941,7.649850852200433,4.333763766130098,6.486193404678896e-05,False
0.32,0.6407615647574605,1.2,32.0,3.01938,0.3,68900.0,0.33,276.0,2700.0,13.702084532498093,2.1237043864844747,5734.001843508082,9.990670805189602,2.649823528664879,3.711413727308491,0.5261191421804043,1297,62,430,646,6.280934328236482,3.594193165832535,4.813447821612212e-05,False
0.33,0.8886944674933631,1.2,33.0,3.01938,0.3,68900.0,0.33,276.0,2700.0,24.760157457570998,4.0101597037045105,10827.431200002178,16.625239673334416,5.9173836309941334,8.134917784236581,1.907223927289623,2288,86,756,1148,7.897717800584269,4.443578828305097,7.848539300009908e-05,False
0.34,0.8334014788927464,1.2,34.0,3.01938,0.3,68900.0,0.33,276.0,2700.0,21.791152513110557,3.6221778221243333,9779.8801197357,15.01177266817919,5.043085203046058,6.779379844931366,1.4209073809217245,2111,82,704,1049,7.50934190861667,4.259163061491083,6.65777160672398e-05,False
0.3500000000000001,0.9870579980021725,1.2,35.0,3.01938,0.3,68900.0,0.33,276.0,2700.0,29.588725754897435,5.088229817091946,13738.220506148255,19.685449409093877,7.701214171501379,9.903276345803558,2.6129843544094324,2790,98,926,1395,8.024988755376267,4.518552245944902,8.977244507497832e-05,False
0.36000000000000004,0.6614740411097475,1.2,36.0,3.01938,0.3,68900.0,0.33,276.0,2700.0,13.900961319413364,2.4044569395970363,6492.033736911998,10.485785933097684,2.8618639812940514,3.4151753863156795,0.45740704169701507,1342,62,444,670,5.882373479162812,3.3555973715294733,4.5334451143799784e-05,False
0.37,1.065126020983005,1.2,37.0,3.01938,0.3,68900.0,0.33,276.0,2700.0,33.600525360478365,6.110009796566973,16497.026450730827,22.28732603222812,9.338583468401962,11.313199328250246,3.2285736718349893,3066,104,1020,1530,7.878487594126425,4.452484156906411,9.677074000678097e-05,False
0.38,0.900402014212498,1.2,38.0,3.01938,0.3,68900.0,0.33,276.0,2700.0,24.303668149755783,4.502773300395081,12157.487911066717,16.976726823311807,6.114078566395695,7.3269413264439756,1.6113052660006142,2136,84,710,1065,6.980019859278591,3.9378947248505574,6.77519588418667e-05,False
0.39,0.9037181352197301,1.2,39.0,3.01938,0.3,68900.0,0.33,276.0,2700.0,24.266598512461478,4.607749286851132,12440.923074498058,17.076910369943338,6.1705414808555705,7.18968814251814,1.5627921940044383,2135,84,710,1064,7.686549798314911,4.339054031480433,8.038388759222832e-05,False
0.4,0.941829475399877,1.2,40.0,3.01938,0.3,68900.0,0.33,276.0,2700.0,26.02265781249767,5.07049027594637,13690.323745055199,18.248135028184134,6.84356795508787,7.774522784313536,1.7730776791415002,2333,88,776,1163,6.969796216653037,3.9207812202535806,6.938417046084791e-05,False
0.4100000000000001,1.1074441706097131,1.2,41.0,3.01938,0.3,68900.0,0.33,276.0,2700.0,35.132983149034615,7.057913740700062,19056.36709989017,23.76173880180984,10.312780353763703,11.371244347224774,3.2548666130636406,3184,106,1064,1582,7.365705672945864,4.184687159893379,9.195729195969182e-05,False
0.42000000000000004,0.8326285242894369,1.2,42.0,3.01938,0.3,68900.0,0.33,276.0,2700.0,20.240487117450126,4.095332750318421,11057.398425859736,14.989762188477211,5.0314902917763655,5.2507249289729145,0.9361575414579448,2049,78,652,1041,6.118837037522533,3.4799105510479675,5.4884229790077223e-05,False
0.43,0.8692184685220615,1.2,43.0,3.01938,0.3,68900.0,0.33,276.0,2700.0,21.784001648459675,4.517041283012852,12196.0114641347,16.04815788091105,5.5992255748220545,5.7358437675486265,1.0821842918092024,2134,82,696,1074,6.031859155533531,3.427459863054672,5.6820609493908104e-05,False
0.44,0.9805447244230632,1.2,44.0,3.01938,0.3,68900.0,0.33,276.0,2700.0,27.222657153065963,5.81057562127224,15688.554177435048,19.475295723022583,7.573682426901929,7.74736143004338,1.7631068056296888,2579,92,860,1281,6.4345608567923325,3.661740392089878,6.669249507896694e-05,False
0.45,0.7827270870445305,1.2,45.0,3.01938,0.2,68900.0,0.33,276.0,2700.0,17.500449368960993,3.746749354310644,10116.223256638737,13.600557092279823,4.3184015342936934,3.89989227668117,0.5716521799830496,5035,104,1286,2802,6.011138747977121,3.4436141213798703,4.81916733712433e-05,False
0.46,1.1476766623977153,1.2,46.0,3.01938,0.3,68900.0,0.33,276.0,2700.0,36.33280691290462,8.152685548281521,22012.25098036011,25.20522052139929,11.297675356030815,11.127586391505332,3.144989807749294,3230,108,1082,1601,6.88527286420807,3.8886410390413815,8.558578708366243e-05,False
0.4700000000000001,0.9316704503283382,1.2,47.0,3.01938,0.3,68900.0,0.33,276.0,2700.0,24.091667350959103,5.444095444759621,14699.057700850977,17.93236289730644,6.659790858235835,6.159304453652663,1.2156954134762143,2201,84,712,1109,5.982448510246122,3.388905616837027,5.830699188379126e-05,False
0.4800000000000001,1.1704236515582498,1.2,48.0,3.01938,0.3,68900.0,0.33,276.0,2700.0,37.23522081142027,8.704829651576997,23503.04005925789,26.0393510224241,11.880480561989078,11.19586978899617,3.175650910412081,3595,110,1158,1820,6.5726606739665945,3.7355634452781548,8.428918235942261e-05,False
0.49,0.9552087491136125,1.2,49.0,3.01938,0.3,68900.0,0.33,276.0,2700.0,24.89515430793129,5.852909316041711,15802.855153312621,18.667959348188266,7.09051820465465,6.227194959743024,1.2376088886129386,2231,84,714,1130,5.913802067396913,3.3039488054946973,5.8503261119628414e-05,False
0.5,0.8008944055517115,1.2,50.0,3.01938,0.1,68900.0,0.33,276.0,2700.0,17.505489326763346,4.114572943891687,11109.346948507557,14.099071890305494,4.570002967115124,3.4064174364578523,0.4554300232234363,30949,200,4568,19945,6.5451754485116735,3.7181639530873922,4.647771853935652e-05,False
0.01,0.4447491590401271,1.2,51.0,6.03876,0.05,68900.0,0.33,276.0,2700.0,11.492041891191747,0.05745811506085676,155.13691066431326,5.838980566537462,1.114192323084772,5.653061324654285,1.056734208023915,36177,326,12006,18162,275.8868556813659,157.41103398665433,0.0016707172254181734,False
0.02,0.3403483495472885,1.2,52.0,6.03876,0.08,68900.0,0.33,276.0,2700.0,7.726785880587251,0.07725110364501213,208.57797984153274,4.021816759824771,0.6018379648746836,3.7049691207624793,0.5245868612296715,9768,164,3230,4917,106.62664648157718,60.80423605895221,0.0005277674146534627,False
0.03,0.5373488572948163,1.2,53.0,6.03876,0.1,68900.0,0.33,276.0,2700.0,14.739916504018545,0.22104219889251406,596.813937009788,7.679976467461115,1.7384550129617382,7.05994003655743,1.5174128140692242,11589,190,3824,5847,112.77347561799009,64.28105705500484,0.0007764238762235485,False
0.04,0.7323056411876067,1.2,54.0,6.03876,0.1,68900.0,0.33,276.0,2700.0,23.503202426839927,0.4699300072502457,1268.8110195756633,12.260441527906764,3.6666955388273537,11.242760898933163,3.1967655315771077,18631,252,6140,9415,132.77174048540977,75.70979056876374,0.001031217068319275,False
0.05,0.5142395117144156,1.2,55.0,6.03876,0.1,68900.0,0.33,276.0,2700.0,13.408920803500394,0.3349612206997105,904.3952958892183,7.200354212135157,1.5665435086282287,6.208566591365236,1.231582287928518,11281,184,3716,5701,69.48282238931782,39.71531501807204,0.00042496369754606577,False
0.06000000000000001,0.5339361054706925,1.2,56.0,6.03876,0.1,68900.0,0.33,276.0,2700.0,14.004296714998885,0.41967651210777257,1133.126582690986,7.6083019005959,1.7123675462654941,6.395994814402985,1.2926910341577216,11339,186,3724,5747,60.03081223103805,34.40358088939919,0.00037696378755790324,False
0.06999999999999999,0.4265333408847194,1.2,57.0,6.03876,0.1,68900.0,0.33,276.0,2700.0,9.787779229208802,0.3418538955021521,923.0055178558107,5.50219411236638,1.010910594428306,4.285585116842422,0.6690566989261539,8082,150,2656,4092,37.432189336283436,21.51402516041917,0.00021849650441389712,False
0.08,0.551618811648929,1.2,58.0,6.03876,0.2,68900.0,0.33,276.0,2700.0,14.333833039495772,0.5722809912874052,1545.158676475994,7.982844742529182,1.8502027989015648,6.35098829696659,1.2779218076141596,3122,96,1028,1574,41.398163106293374,23.900898346591905,0.00029692450266020486,False
0.09,0.681383046702053,1.2,59.0,6.03876,0.3,68900.0,0.33,276.0,2700.0,19.825666607050902,0.8906281832876477,2404.6960948766487,10.971857579692925,3.0754476261347334,8.853809027357977,2.1848194428470857,2042,80,668,1034,47.464821185597145,27.25604651442913,0.0003988023708279578,False
0.09999999999999999,0.563354649253837,1.2,60.0,6.03876,0.2,68900.0,0.33,276.0,2700.0,14.427344179475654,0.7192728138713115,1942.036597452541,8.235763686081357,1.9453688909207405,6.191580493394296,1.2260960770494291,3134,96,1028,1586,34.30935753626311,19.758210679907517,0.000244191439090317,False
0.11,0.5697287085538638,1.2,61.0,6.03876,0.2,68900.0,0.33,276.0,2700.0,14.496762898750834,0.7945343195500073,2145.2426627850195,8.374581568578481,1.9983060113598996,6.122181330172353,1.2037716918098922,3115,96,1026,1570,53.95413397947835,30.45253998614279,0.0003478834758176939,False
0.12,0.5553045166372187,1.2,62.0,6.03876,0.2,68900.0,0.33,276.0,2700.0,13.725223070658616,0.8198942695025825,2213.7145276569727,8.061902492209757,1.8797707964985,5.663320578448859,1.0598765269959176,3060,94,1004,1548,28.543457816050953,16.464839915097592,0.0001960529390582044,False
0.13,0.5618255553565449,1.2,63.0,6.03876,0.3,68900.0,0.33,276.0,2700.0,13.801794779372615,0.892515274619258,2409.7912414719963,8.202614071354681,1.9328009868531753,5.5991807080179345,1.0402857122339173,1681,70,552,847,27.995581390071525,16.104104195816305,0.00018458421318422657,False
0.14,0.46194033127389084,1.2,64.0,6.03876,0.1,68900.0,0.33,276.0,2700.0,9.894293306771171,0.6868535113130154,1854.5044805451416,6.16447166379901,1.2173583896107234,3.729821642972161,0.530504878297708,8477,154,2814,4250,20.581052442875023,11.870443756383489,0.0001280621981884338,False
0.15000000000000002,0.5929278495155499,1.2,65.0,6.03876,0.3,68900.0,0.33,276.0,2700.0,14.693378808236417,1.0949348271471544,2956.324033297317,8.888447078040938,2.198523578700713,5.804931730195479,1.1035887515535585,1624,70,530,823,25.539434639185654,14.658268880659989,0.000175554815403096,False
0.16,0.7544445487418026,1.2,66.0,6.03876,0.3,68900.0,0.33,276.0,2700.0,21.76350069309815,1.7325014131084506,4677.753815392816,12.840987361370109,3.9445319194380186,8.92251333172804,2.212030506329568,2177,82,706,1112,29.08373074134498,16.565612118957684,0.00026406195402405095,False
0.17,0.7456535718429247,1.2,67.0,6.03876,0.3,68900.0,0.33,276.0,2700.0,21.113520416629786,1.7843594722754574,4817.770575143735,12.608988106998513,3.8326682691140523,8.504532309631273,2.0483087968385947,2175,82,706,1110,27.106656477118957,15.431869127801358,0.00024127613433458354,False
0.18000000000000002,0.5611644148326698,1.2,68.0,6.03876,0.3,68900.0,0.33,276.0,2700.0,12.88793284687686,1.1476994439817614,3098.788498750756,8.188299234889126,1.9273826389533917,4.699633611987734,0.7796831949716303,1606,68,528,808,20.392802806629117,11.745561255541302,0.00013313075692541454,False
0.19,0.5130268134852957,1.2,69.0,6.03876,0.3,68900.0,0.33,276.0,2700.0,10.922375301480113,1.0232601976332953,2762.8025336098976,7.175555950107734,1.557826691965585,3.7468193513723786,0.5345664943322896,1597,64,528,799,17.447671083179905,10.038786965328226,0.00011226188465539378,False
0.2,0.5322954195810031,1.2,70.0,6.03876,0.3,68900.0,0.33,276.0,2700.0,11.466978597727952,1.1299426989536394,3050.8452871748264,7.573948427194512,1.6999129035721,3.8930301705334394,0.5699702046184605,1572,64,520,786,17.268517863734168,9.938003420541436,0.00011261121608064689,False
0.21000000000000002,0.6774179347844702,1.2,71.0,6.03876,0.3,68900.0,0.33,276.0,2700.0,17.143999166641944,1.7807237194541432,4807.954042526187,10.874256274135224,3.0321366135018466,6.26974289250672,1.2514128940477034,1636,72,538,823,20.414035841316093,11.659827608726031,0.00015729818456565226,False
0.22,0.6244503794437208,1.2,72.0,6.03876,0.3,68900.0,0.33,276.0,2700.0,14.713446135015651,1.5961779558014388,4309.680480663885,9.608353836828782,2.4899909561932794,5.10509229818687,0.8938130003918405,1586,68,522,797,18.016171688790354,10.327420343379059,0.00012956713013876703,False
0.23,0.5336052145723907,1.2,73.0,6.03876,0.3,68900.0,0.33,276.0,2700.0,11.048816854071521,1.2451314330074066,3361.8548691199976,7.601368100933144,1.7098511756564219,3.447448753138377,0.4647197426490153,1497,62,496,747,15.141541637276962,8.704998540036986,9.973003154389394e-05,False
0.24000000000000005,0.5852728040416111,1.2,74.0,6.03876,0.3,68900.0,0.33,276.0,2700.0,12.818765278593048,1.5092989155356817,4075.1070719463405,8.717391041698942,2.1311377725051552,4.101374236894106,0.6218388569694735,1458,64,482,729,15.77940055858799,9.025751373875702,0.00010904439169986758,False
0.25,0.7241423495315948,1.2,75.0,6.03876,0.3,68900.0,0.33,276.0,2700.0,18.449492060006985,2.2734615840259798,6138.346276870146,12.049485029823417,3.567472167857034,6.400007030183568,1.2940105838310543,1762,74,578,889,18.053651990557896,10.272297292168705,0.00014638102893954532,False
0.26,0.956615262131465,1.2,76.0,6.03876,0.3,68900.0,0.33,276.0,2700.0,30.06282872852755,3.8713566463889215,10452.662945250087,18.7123552444355,7.1168061483700225,11.35047348409205,3.245449501981101,2726,98,902,1367,21.002970711928253,11.785945867857825,0.000241144186523333,False
0.27,0.9029596367186279,1.2,77.0,6.03876,0.3,68900.0,0.33,276.0,2700.0,26.86093852688157,3.5850027223286056,9679.507350287235,17.053970944410104,6.157597370610398,9.806967582471465,2.5725946482817927,2474,92,814,1247,19.26416888591404,10.875153330943396,0.0002067267090354074,False
0.28,0.8697340810670025,1.2,78.0,6.03876,0.3,68900.0,0.33,276.0,2700.0,24.88021442449061,3.43725385814088,9280.585416980375,16.063312839384235,5.60750411310553,8.816901585106375,2.17025025496465,2494,90,818,1261,18.208741257561954,10.29020369293161,0.00018357693689595108,False
0.29000000000000004,0.8986613656230625,1.2,79.0,6.03876,0.3,68900.0,0.33,276.0,2700.0,26.168895622814862,3.743409663155824,10107.206090520724,16.924250585918305,6.08457373318784,9.244645036896557,2.341164070032016,2481,90,820,1245,18.041864965830168,10.138497892660313,0.00018777018976781165,False
0.3,0.7579587265455661,1.2,80.0,6.03876,0.3,68900.0,0.33,276.0,2700.0,19.0226966101385,2.7968558237561605,7551.510724141634,12.934272063163203,3.9898212508231206,6.088424546975297,1.19296542706696,1741,74,574,874,15.632667641108826,8.84655991538992,0.00012863222167820948,False
0.31,0.7543585252260576,1.2,81.0,6.03876,0.3,68900.0,0.33,276.0,2700.0,18.67037849946914,2.8315145429223287,7645.089265890288,12.838707738118558,3.943427390611498,5.831670761350583,1.1119128476891693,1784,74,586,899,14.906096964719888,8.49788729147136,0.00012407005005574739,False
0.32,0.7946496045931088,1.2,82.0,6.03876,0.3,68900.0,0.33,276.0,2700.0,20.336657288711372,3.185236027478572,8600.137274192144,13.92677770863767,4.482495550946528,6.409879580073701,1.2972595234679556,1895,78,626,950,14.91249655766516,8.482305671028993,0.00013049088354095853,False
0.33,0.8391605911708886,1.2,83.0,6.03876,0.3,68900.0,0.33,276.0,2700.0,22.272983551098747,3.5997760091364372,9719.39522466838,15.176240574312978,5.130012881844989,7.0967429767857695,1.5302368727085516,2064,82,688,1026,15.018807527076238,8.50412289500217,0.00014021842471105572,False
0.34,0.8440607198047152,1.2,84.0,6.03876,0.2,68900.0,0.33,276.0,2700.0,22.310190776894167,3.7104143269675447,10018.11868281237,15.316834110471957,5.204722629619992,6.99335666642221,1.4943083026524473,4997,120,1540,2587,15.497681228750118,8.79434458059676,0.00013682364482413118,False
0.3500000000000001,0.8938812353406813,1.2,85.0,6.03876,0.3,68900.0,0.33,276.0,2700.0,24.598518970641848,4.214943629847215,11380.34780058748,16.78053321067841,6.004017333102626,7.817985759963438,1.7890737032554105,2269,86,752,1135,14.984047866290794,8.425728525647694,0.00014778182361999058,False
0.36000000000000004,0.8291151042058209,1.2,86.0,6.03876,0.3,68900.0,0.33,276.0,2700.0,21.192417015782034,3.7169189649435106,10035.681205347479,14.889904083740149,4.979000472824177,6.302512932041886,1.2620815078806666,2030,80,672,1016,14.091124876934137,7.965970528044379,0.00012459825377146545,False
0.37,0.6982175274133107,1.2,87.0,6.03876,0.3,68900.0,0.33,276.0,2700.0,15.219074824275566,2.709441447369458,7315.491907897536,11.39063876277811,3.2636681406778307,3.828436061497456,0.5542266933083728,1381,64,462,682,11.84704043719024,6.720752925771736,9.50789867546226e-05,False
0.38,1.0220991497457608,1.2,88.0,6.03876,0.3,68900.0,0.33,276.0,2700.0,30.856684963813606,5.747846495066066,15519.185536678378,20.834365927311133,8.411054556110438,10.022319036502473,2.6632080610443714,2845,100,948,1417,15.054839452318147,8.478379139039145,0.00017376878917832168,False
0.39,0.8613856916481312,1.2,89.0,6.03876,0.3,68900.0,0.33,276.0,2700.0,22.1652256069236,4.19798157027124,11334.550239732349,15.818757498950854,5.474423362388308,6.346468107972745,1.2764417921170672,2078,82,692,1034,13.093956861953941,7.433890809039268,0.00012229677263032952,False
0.4,0.7367078117427174,1.2,90.0,6.03876,0.3,68900.0,0.33,276.0,2700.0,16.33829146873626,3.1336170071939122,8460.765919423564,12.374897917683533,3.720919843116076,3.963393551052725,0.5873028359221637,1580,68,526,785,11.571374342909792,6.572161054947763,9.49575493623303e-05,False
0.4100000000000001,1.0886481795364271,1.2,91.0,6.03876,0.3,68900.0,0.33,276.0,2700.0,34.00580557874734,6.826842338791167,18432.47431473615,23.101309086810847,9.872375546540608,10.904496491936495,3.0455332077494415,3046,104,1014,1519,14.713504303405326,8.224213314563977,0.0001782439503340857,False
0.42000000000000004,0.8401467065334536,1.2,92.0,6.03876,0.3,68900.0,0.33,276.0,2700.0,20.5905736827033,4.168850929021587,11255.897508358285,15.204485502162132,5.144992330191307,5.386088180541169,0.9761414011697207,1996,78,652,1002,12.265915332143543,6.960698667381259,0.00011117468991232537,False
0.43,0.775414928945301,1.2,93.0,6.03876,0.2,68900.0,0.33,276.0,2700.0,17.50593067159137,3.5972560229861696,9712.591262062659,13.402251273874976,4.219677951178424,4.103679397716393,0.6224219281922543,4987,104,1272,2771,12.686200368079172,7.254240506430287,9.899199069949296e-05,False
0.44,1.0624424884661097,1.2,94.0,6.03876,0.3,68900.0,0.33,276.0,2700.0,31.75709946308245,6.808152929475877,18382.012909584868,22.195346246429814,9.27889816012716,9.561753216652637,2.470745230651282,3080,102,1016,1542,13.746183552467905,7.768893381341795,0.00015594636629434494,False
0.45,0.799858606824652,1.2,95.0,6.03876,0.08,68900.0,0.33,276.0,2700.0,18.246435023158046,3.91459612650498,10569.409541563446,14.070426381413254,4.555414004216723,4.176008641744792,0.640817877711743,56619,258,7342,37270,13.499021830232737,7.689838101786969,0.00010028602738194188,False
0.46,0.9797308054190079,1.2,96.0,6.03876,0.3,68900.0,0.33,276.0,2700.0,26.76221657107586,5.951449769660899,16068.914378084426,19.44910920479223,7.557841771585011,7.3131073662836314,1.606392001924112,2469,90,820,1225,12.34504771351803,7.009878742967818,0.00012741064060259061,False
0.4700000000000001,1.004159648388811,1.2,97.0,6.03876,0.3,68900.0,0.33,276.0,2700.0,27.855304578330358,6.328550193191902,17087.085521618137,20.242316791323958,8.042619045191058,7.6129877870064,1.7140688519991558,2774,94,894,1405,12.410601866025013,6.9947363729108325,0.00012988939944596134,False
0.4800000000000001,0.8741706854104448,1.2,98.0,6.03876,0.3,68900.0,0.33,276.0,2700.0,21.118410855644512,4.836795262190556,13059.347207914501,16.193990251792357,5.679060375708064,4.924420603852155,0.8422651135175085,2302,80,676,1216,11.133877906884017,6.27097390176489,0.00010540783229574403,False
0.49,0.8780725005812519,1.2,99.0,6.03876,0.3,68900.0,0.33,276.0,2700.0,21.12782110337756,4.929912680926045,13310.764238500322,16.30932462935051,5.742471214848584,4.81849647402705,0.8125585339225392,2365,80,688,1255,11.526760958911847,6.6167908029357525,0.00010438254120250236,False
0.5,1.0326278732225977,1.2,100.0,6.03876,0.3,68900.0,0.33,276.0,2700.0,28.766511165603145,6.929828403601638,18710.536689724424,21.185607128976887,8.632260450041365,7.580904036626258,1.7024320464397267,2852,94,894,1465,12.759373341974245,7.278843699125607,0.00012892296256654048,False
0.01,0.6550343279376591,1.2,101.0,9.05814,0.05,68900.0,0.33,276.0,2700.0,20.422619831311778,0.10211100476145471,275.6997128559277,10.330694750268169,2.794838458184283,10.091925081043609,2.6927274534228283,66572,462,22092,33428,685.3494852251588,388.25136300226774,0.005088885725421725,True
0.02,0.5704526422528128,1.2,102.0,9.05814,0.1,68900.0,0.33,276.0,2700.0,16.348314087467916,0.16346638571386063,441.3592414274237,8.390412379707028,2.0043743826062075,7.957901707760888,1.840907996892347,12719,202,4210,6398,243.17718217751928,139.28007318728103,0.0019595458217765665,False
0.03,0.5827151132603661,1.2,103.0,9.05814,0.1,68900.0,0.33,276.0,2700.0,16.666890890031553,0.24994681468270685,674.8563996433085,8.660566336043084,2.1089140868573124,8.006324553988469,1.8589672721746056,13298,206,4386,6713,190.7812609630883,108.81180035147263,0.0013504968267752427,False
0.04,0.616873686562907,1.2,104.0,9.05814,0.1,68900.0,0.33,276.0,2700.0,17.964441336546546,0.35915478544437807,969.7179206998208,9.433038553857918,2.4178564760661825,8.531402782688629,2.0587016906218043,14531,216,4786,7346,162.37833845751902,92.67089433012677,0.0011197618703193105,False
0.05,0.49259741613724495,1.2,105.0,9.05814,0.1,68900.0,0.33,276.0,2700.0,12.5621179851651,0.3137911502409106,847.2361056504586,6.763354673272194,1.4154627777937554,5.798763311892906,1.1016716275528449,9938,172,3264,5036,95.62127882492966,54.68134271047011,0.0005900673902411486,False
0.06000000000000001,0.5406170108513522,1.2,106.0,9.05814,0.1,68900.0,0.33,276.0,2700.0,14.27539546675897,0.42780947466065217,1155.0855815837608,7.7488885604592115,1.7636668899107124,6.526506906299759,1.3358574152500602,11458,188,3770,5797,89.53128897766734,51.21269413317383,0.0005832799116232618,False
0.06999999999999999,0.6094487560931785,1.2,107.0,9.05814,0.2,68900.0,0.33,276.0,2700.0,16.9868585644281,0.5938216722348616,1603.3185150341262,9.262634582877308,2.3484502968095176,7.724223981550793,1.7546286245746558,3608,106,1182,1829,78.03296339822869,44.6249471785871,0.0006151945095967616,False
0.08,0.40038114792042456,1.2,108.0,9.05814,0.1,68900.0,0.33,276.0,2700.0,8.738736071249393,0.3484771125575506,940.8882039053866,5.033255575745018,0.8731854991328206,3.705480495504375,0.52470838657527,7628,144,2508,3860,44.58376831543893,25.740370183931603,0.0002648993326826994,False
0.09,0.6799741938656535,1.2,109.0,9.05814,0.3,68900.0,0.33,276.0,2700.0,19.75940496528039,0.8876464094079712,2396.6453054015224,10.937133383788169,3.060014359960691,8.82227158149222,2.1723679505527196,2042,80,668,1034,71.05282716641246,40.803322092922556,0.0005957074719180548,False
0.09999999999999999,0.6474007739635371,1.2,110.0,9.05814,0.2,68900.0,0.33,276.0,2700.0,18.040989118280407,0.8999550608116272,2429.8786641913935,10.14820163066406,2.7166760093774607,7.8927874876163475,1.8167209485658335,4065,112,1340,2049,60.143750752823856,34.52444973898107,0.0004787306902727357,False
0.11,0.7720532310268193,1.2,111.0,9.05814,0.3,68900.0,0.33,276.0,2700.0,23.811318865416705,1.3068348977166357,3528.4542238349163,13.311532894625946,4.174776194428723,10.499785970790759,2.867941296712088,2255,88,738,1142,64.34093398447136,36.86568172035154,0.0006243316551713521,False
0.12,0.6440201076087202,1.2,112.0,9.05814,0.3,68900.0,0.33,276.0,2700.0,17.469556072919215,1.0445542496382183,2820.2964740231896,10.067848952790431,2.6825042292818826,7.401707120128783,1.6379499796436643,1618,72,530,817,51.496188296178005,29.48212641921966,0.0003948901538576464,False
0.13,0.729638768244749,1.2,113.0,9.05814,0.3,68900.0,0.33,276.0,2700.0,21.230957374989984,1.3754108433343921,3713.6092770028586,12.191339762691511,3.6340906815882246,9.039617612298473,2.2586798382538325,2178,82,706,1113,52.058704828491884,29.73547412764402,0.00046510255016501473,False
0.14,0.5915954537299319,1.2,114.0,9.05814,0.3,68900.0,0.33,276.0,2700.0,14.826283824538862,1.0320928475567543,2786.650688403237,8.858568127599439,2.186700559521094,5.967715696939424,1.1546077119643396,1642,70,536,832,40.75553332251908,23.4146425847756,0.0002820899361657555,False
0.15000000000000002,0.7825726612456447,1.2,115.0,9.05814,0.3,68900.0,0.33,276.0,2700.0,23.394250900574924,1.7475002340725407,4718.25063199586,13.596355172603802,4.31630158184954,9.797895727971122,2.5688013477769998,2250,88,740,1134,47.64587890159727,27.1863937884173,0.00045885202205644683,False
0.16,0.7124492236717592,1.2,116.0,9.05814,0.3,68900.0,0.33,276.0,2700.0,19.750855096528515,1.5714897653828794,4243.022366533774,11.750227952061186,3.428328996695877,8.000627144467328,1.8568392313129976,1820,76,598,917,41.70359627403654,23.716431585856125,0.0003545516173351914,False
0.17,0.6959644572199859,1.2,117.0,9.05814,0.3,68900.0,0.33,276.0,2700.0,18.77619954001035,1.5856871977628233,4281.355433959623,11.334177657614108,3.238067861369318,7.442021882396242,1.6523806636064948,1849,76,604,937,37.81229755281521,21.57285699321054,0.0003160074103083819,False
0.18000000000000002,0.511247369724106,1.2,118.0,9.05814,0.3,68900.0,0.33,276.0,2700.0,11.015624392661687,0.9791916831023951,2643.8175443764667,7.139235311796117,1.5450905207645207,3.87638908086557,0.5658988376621256,1578,64,522,789,27.30444255251776,15.74030680796679,0.00017598725227320808,False
0.19,0.6084635536210523,1.2,119.0,9.05814,0.3,68900.0,0.33,276.0,2700.0,14.595788023610915,1.372234406235721,3705.0328968364465,9.240128066059855,2.3393358150608563,5.35565995755106,0.9671014088251353,1579,68,518,796,30.589021508765924,17.498768652976256,0.00021344739872949456,False
0.2,0.7913470034268733,1.2,120.0,9.05814,0.3,68900.0,0.33,276.0,2700.0,22.68905668062566,2.2521505072434196,6080.806369557233,13.836055110812126,4.436650844367151,8.853001569813536,2.184500337123731,2283,86,748,1155,35.665388247221934,20.151069358998576,0.00033933366874655985,False
0.21000000000000002,0.8740552723334825,1.2,121.0,9.05814,0.3,68900.0,0.33,276.0,2700.0,26.73882833006884,2.788180781613966,7528.0881103577085,16.190584564503634,5.677191573997567,10.548243765565207,2.8890107923836013,2464,92,810,1243,36.76019162090936,20.77836833378103,0.0003912479443243121,False
0.22,0.8111670472789779,1.2,122.0,9.05814,0.3,68900.0,0.33,276.0,2700.0,23.233597112306903,2.5333945633034745,6840.165320919381,14.384626512011533,4.71630211107847,8.84897060029537,2.1829075477749953,2266,86,744,1144,33.27571329568006,18.806442066115505,0.0003187130249785848,False
0.23,0.8124954306565431,1.2,123.0,9.05814,0.3,68900.0,0.33,276.0,2700.0,23.07743928884458,2.6284230130063104,7096.742135117038,14.421746016007074,4.735435059386149,8.655693272837507,2.1070120463798387,2444,88,800,1238,31.52860608060342,17.770734252472735,0.00030422194438600253,False
0.24000000000000005,0.8113748659809124,1.2,124.0,9.05814,0.3,68900.0,0.33,276.0,2700.0,22.801029167528792,2.707170582207965,7309.360571961505,14.390430739846824,4.719292108582759,8.410598427681968,2.012121526374794,1987,82,656,997,30.416554191739568,17.18695327316992,0.00028909860360956435,False
0.25,0.6879740755636179,1.2,125.0,9.05814,0.3,68900.0,0.33,276.0,2700.0,16.847714361163746,2.073239371670575,5597.746303510552,11.134970196610979,3.1483003964121763,5.712744164552767,1.0750610247416015,1677,72,550,846,25.951560020525374,14.803174227919508,0.0001985831815663149,False
0.26,0.6040141810677366,1.2,126.0,9.05814,0.3,68900.0,0.33,276.0,2700.0,13.21977042686636,1.6817590671729639,4540.749481367003,9.138787969050568,2.2984486772600956,4.080982457815791,0.6166896100871317,1446,64,476,726,22.532566387498857,12.91780568279121,0.00015880777363050814,False
0.27,0.8824538861264353,1.2,127.0,9.05814,0.3,68900.0,0.33,276.0,2700.0,25.770726906529536,3.437824153581082,9282.125214668922,16.43929076158397,5.814213193743679,9.331436144945567,2.3763890401625973,2488,90,818,1255,28.56589326142751,16.163058396300812,0.0002959038586365679,False
0.28,0.6289216069104719,1.2,128.0,9.05814,0.3,68900.0,0.33,276.0,2700.0,13.873205346351835,1.8962725872015225,5119.935985444111,9.712489436647497,2.533184711541607,4.160715909704338,0.6369121243400844,1465,64,486,730,21.810727766841598,12.477475320019469,0.0001577566875290298,False
0.29000000000000004,0.5953724958808266,1.2,129.0,9.05814,0.3,68900.0,0.33,276.0,2700.0,12.417682366023383,1.7494837409211244,4723.606100487036,8.943384258809141,2.2203198089336764,3.474298107214242,0.47083606801255207,1366,62,456,676,20.140943135384077,11.54169275826706,0.0001417676272316449,False
0.3,0.6182184927068344,1.2,130.0,9.05814,0.3,68900.0,0.33,276.0,2700.0,13.135869797898243,1.9138318019201206,5167.345865184326,9.46405038659666,2.430562931627165,3.6718194113015823,0.5167311297070443,1253,60,414,626,19.639330519436633,11.202737630150855,0.00014515696451623906,False
0.31,0.8728795413108288,1.2,131.0,9.05814,0.3,68900.0,0.33,276.0,2700.0,24.381366780647454,3.7167177265049594,10035.13786156339,16.15590937295832,5.658176189203337,8.225457407689134,1.9414584626983773,2277,86,754,1140,24.938865394162377,14.044577730445372,0.00024542820233982893,False
0.32,0.917920734716348,1.2,132.0,9.05814,0.3,68900.0,0.33,276.0,2700.0,26.509921977949983,4.172958377756615,11266.98761994286,17.509112679554327,6.416141197481716,9.000809298395655,2.243182819725101,2556,92,842,1287,25.013623100131394,14.091719302339149,0.0002600761904942473,False
0.33,0.6425209613682313,1.2,133.0,9.05814,0.3,68900.0,0.33,276.0,2700.0,13.616010532683653,2.1713754610980978,5862.7137449648635,10.032308731467216,2.6674376984256085,3.5837018012164368,0.49606223732751076,1301,62,430,650,18.506569377105734,10.527516876320124,0.0001410343970722393,False
0.34,0.9243875356172533,1.2,134.0,9.05814,0.3,68900.0,0.33,276.0,2700.0,26.405289206968426,4.406581060080172,11897.768862216464,17.707584948351474,6.530010317050111,8.697704258616952,2.1234292569699393,2553,92,842,1284,23.694431391919746,13.352807895139486,0.0002449621672034276,False
0.3500000000000001,0.8285743059399293,1.2,135.0,9.05814,0.3,68900.0,0.33,276.0,2700.0,21.361044537789123,3.648385604097992,9850.641131064578,14.87456111676458,4.970952187572622,6.486483421024543,1.32256658347463,2123,82,708,1055,21.48691708276313,12.173849402122377,0.00019050913156854187,False
0.36000000000000004,0.9139487714061572,1.2,136.0,9.05814,0.3,68900.0,0.33,276.0,2700.0,25.420512671310377,4.477976182938613,12090.535693934255,17.387730380445586,6.346836838586131,8.032782290864791,1.8688606556475182,2332,88,772,1168,22.198210561230717,12.607595305650072,0.00022334670966067536,False
0.37,0.9575447570077484,1.2,137.0,9.05814,0.3,68900.0,0.33,276.0,2700.0,27.509726924480578,4.983212085907308,13454.672631949732,18.74172158154769,7.13421283294102,8.768005342932888,2.151000747033712,2811,96,932,1407,22.252482633824357,12.538570834617301,0.00023668259168844674,False
0.38,0.6974953019119586,1.2,138.0,9.05814,0.3,68900.0,0.33,276.0,2700.0,15.0331155536782,2.7413683071403385,7401.694429278914,11.372526165447319,3.255448072365507,3.660589388230882,0.5140797652251683,1392,64,466,687,17.23256836210838,9.783610162557196,0.00013900193243077593,False
0.39,0.893484702310504,1.2,139.0,9.05814,0.2,68900.0,0.33,276.0,2700.0,23.75035754189448,4.507082297590561,12169.122203494513,16.76863701152797,5.997365656169136,6.981720530366509,1.4902833585785755,6735,126,1730,3746,21.815021545590632,12.395408390772932,0.00019765731965304422,False
0.4,0.7710025696285321,1.2,140.0,9.05814,0.3,68900.0,0.33,276.0,2700.0,17.81020337873812,3.4279993891943352,9255.598350824705,13.283238127773515,4.160805147203226,4.526965250964604,0.7328057580088911,1648,72,554,811,18.09908765033066,10.2002331698643,0.00015319851922914303,False
0.4100000000000001,0.7646003587465902,1.2,141.0,9.05814,0.3,68900.0,0.33,276.0,2700.0,17.365160348386343,3.4155100665671583,9221.877179731327,13.111423416373931,4.076313602123811,4.253736932012412,0.6608035355566528,1618,70,542,799,17.79520079899907,10.126446848466365,0.0001473232117957368,False
0.42000000000000004,0.969577531668363,1.2,142.0,9.05814,0.3,68900.0,0.33,276.0,2700.0,27.06304999888514,5.528070955419773,14925.791579633387,19.123843461631438,7.362023089872056,7.939206537253703,1.8339521344522831,2570,92,858,1277,20.113230894393446,11.439991382748214,0.00021090765287452233,False
0.43,0.9740417633082699,1.2,143.0,9.05814,0.3,68900.0,0.33,276.0,2700.0,27.087929171229717,5.6573857004084145,15274.941391102719,19.266538441955813,7.447714682316245,7.821390729273904,1.7903289819078303,2565,92,858,1272,19.600858474317572,11.155154287417647,0.00020284196768738464,False
0.44,0.743527771850182,1.2,144.0,9.05814,0.3,68900.0,0.33,276.0,2700.0,15.999452574739237,3.341470614040371,9021.970657909002,12.553178571975817,3.805923422362174,3.4462740027634204,0.4644528083218029,1567,66,510,786,15.92380426788036,8.999440379435962,0.00013468479383353752,False
0.45,0.7547276879093712,1.2,145.0,9.05814,0.3,68900.0,0.33,276.0,2700.0,16.31298465442421,3.4795697935396728,9394.838442557117,12.848491863080966,3.9481687682720263,3.4644927913432433,0.46859897473235357,1568,66,510,787,15.7379239106641,8.985400385426406,0.00013529599417311735,False
0.46,1.1218773786676972,1.2,146.0,9.05814,0.3,68900.0,0.33,276.0,2700.0,34.77043587596198,7.793340209784712,21042.018566418723,24.274901456897222,10.659435468197652,10.495534419064757,2.8660952584129396,3133,104,1034,1566,20.33995758941348,11.702797664766123,0.00024612213288121817,False
0.4700000000000001,1.102963365278206,1.2,147.0,9.05814,0.3,68900.0,0.33,276.0,2700.0,33.41054689993321,7.634032138768536,20611.886774675047,23.60349189064425,10.206663353076234,9.807055009288959,2.572631214307698,3223,104,1030,1640,20.323323549037788,11.573777175940405,0.00023172590410053427,False
0.4800000000000001,0.9723375952093631,1.2,148.0,9.05814,0.3,68900.0,0.33,276.0,2700.0,25.970187049384936,6.001221548688384,16203.298181458636,19.212007198550264,7.414927737695664,6.758179850834672,1.4137061890072804,2640,90,830,1349,17.99315120552915,10.176942780733599,0.0001839538726451009,False
0.49,0.8221176832398003,1.2,149.0,9.05814,0.2,68900.0,0.33,276.0,2700.0,18.582154368276235,4.306224330826219,11626.805693230792,14.691948265337832,4.875502853487384,3.8902061029384036,0.5692785226611647,5331,106,1320,3001,17.391586537375012,9.979110169923054,0.0001441475337677846,False
0.5,1.0177925340403235,1.2,150.0,9.05814,0.3,68900.0,0.33,276.0,2700.0,27.96472102307996,6.7293808679708444,18169.32834352128,20.6914988725382,8.32163675263483,7.273222150541759,1.5922558846639863,2772,92,850,1435,19.091203721892526,10.788602341723559,0.0001899939047369678,False
0.01,0.6045796697990098,1.2,151.0,12.07752,0.05,68900.0,0.33,276.0,2700.0,18.077191153287476,0.09038386137133492,244.03642570260428,9.151640091922111,2.303620192360686,8.925551061365365,2.2132363309893512,57261,426,18998,28758,835.2634242280407,474.94775583314265,0.005844685306241902,True
0.02,0.6319034580822247,1.2,152.0,12.07752,0.1,68900.0,0.33,276.0,2700.0,19.101033779018177,0.1909935826294178,515.682673099428,9.782216500007573,2.562249811883359,9.318817279010604,2.3712562292539414,15164,222,5022,7625,383.5256694739808,218.0448674911458,0.0031640879763059687,True
0.03,0.4856294012282142,1.2,153.0,12.07752,0.1,68900.0,0.33,276.0,2700.0,12.669280997355992,0.18998266629257485,512.953198989952,6.625160938542658,1.3688177981721568,6.044120058813334,1.178835131879582,10467,176,3448,5289,213.24240066454877,121.52309037761735,0.0012921667691346964,False
0.04,0.5997622599332518,1.2,154.0,12.07752,0.1,68900.0,0.33,276.0,2700.0,17.20038650908137,0.3438736888950739,928.4589600166996,9.042409998974582,2.2597963283105234,8.157976510106787,1.9159226394154494,13864,210,4570,7003,201.40770859740545,114.97938306773506,0.0014162467972828748,False
0.05,0.4084940403593826,1.2,155.0,12.07752,0.08,68900.0,0.33,276.0,2700.0,9.494875769925903,0.23711009486034854,640.1972561229411,5.176889856156039,0.914601286599719,4.317985913769864,0.6774911917393704,12549,188,4120,6363,104.02723216506654,59.590667497334834,0.0005665325929503086,False
0.06000000000000001,0.7347418011617419,1.2,156.0,12.07752,0.2,68900.0,0.33,276.0,2700.0,23.132328009951987,0.6935174509564446,1872.4971175824003,12.323721475684227,3.6966409854994313,10.80860653426776,3.0031235345429868,5045,128,1658,2552,147.15776582572667,83.9882174160863,0.0013763879406609898,False
0.06999999999999999,0.37784674003539215,1.2,157.0,12.07752,0.08,68900.0,0.33,276.0,2700.0,8.154994745888086,0.28470643858596234,768.7073841820983,4.642974899790259,0.7641854030535963,3.512019846097827,0.47947896446763394,10553,170,3470,5342,65.38545593607782,37.60212663301647,0.0003698412037918283,False
0.08,0.47561460206065637,1.2,158.0,12.07752,0.1,68900.0,0.33,276.0,2700.0,11.378316851986284,0.4540603437870259,1225.96292822497,6.428678883499426,1.303454109788008,4.949637968486858,0.849393766000982,9282,164,3058,4689,73.17644593436653,42.01629730490488,0.00045460188829678217,False
0.09,0.5663363054111461,1.2,159.0,12.07752,0.2,68900.0,0.33,276.0,2700.0,14.743326602120572,0.6619228830657807,1787.191784277608,8.30057277821453,1.970021670121768,6.442753823906042,1.3080987870559873,3109,96,1022,1570,85.08413994126931,48.67619280433031,0.0005525458743434792,False
0.09999999999999999,0.638887676190526,1.2,160.0,12.07752,0.3,68900.0,0.33,276.0,2700.0,17.65879933688778,0.8808455717419954,2378.2830437033876,9.946408865798555,2.631143609619406,7.712390471089224,1.7502980378774105,1744,74,572,880,80.53918200819498,46.19486410866401,0.000629077371059379,False
0.11,0.42771840945795525,1.2,161.0,12.07752,0.3,68900.0,0.33,276.0,2700.0,9.187903343034964,0.5025470439856377,1356.8770187612217,5.523850845276078,1.01744390062579,3.6640524977588864,0.5148968566401524,1701,66,558,858,49.4754622925744,28.564625208521324,0.0002887787729965615,False
0.12,0.5712284996499548,1.2,162.0,12.07752,0.2,68900.0,0.33,276.0,2700.0,14.368179021979216,0.8584716265818177,2317.873391770908,8.407393268533433,2.0108907325120304,5.9607857534457835,1.1524191059302127,3132,96,1032,1578,58.640026259044056,33.807801996232506,0.0004136764095896695,False
0.13,0.4396807924455314,1.2,163.0,12.07752,0.2,68900.0,0.33,276.0,2700.0,9.284516447136152,0.5988921830238919,1617.008894164508,5.744435778521887,1.0848380955433699,3.540080668614265,0.48594591251947794,2089,74,680,1063,42.85672666358608,24.738643945199446,0.0002559327067508775,False
0.14,0.49984888752268875,1.2,164.0,12.07752,0.3,68900.0,0.33,276.0,2700.0,11.248897204774245,0.7816757841732305,2110.524617267722,6.90846582821942,1.4650323867561574,4.340431376554825,0.683356602582927,1638,66,536,828,45.39347243519783,26.187952068943126,0.00028693898281054983,False
0.15000000000000002,0.7863036401293098,1.2,165.0,12.07752,0.3,68900.0,0.33,276.0,2700.0,23.58356037982402,1.7616984450162239,4756.585801543804,13.698042641739324,4.367218884018901,9.885517738084697,2.605520439002677,2251,88,740,1135,63.77395876855441,36.381160961711586,0.0006177111218660386,False
0.16,0.48154040403722254,1.2,166.0,12.07752,0.2,68900.0,0.33,276.0,2700.0,10.268206077917654,0.8128778438940093,2194.770178513825,6.544633713851469,1.3418923146911688,3.723572364066185,0.5290144707971595,2366,80,776,1196,39.506201927705334,22.78506632708507,0.0002399024171504822,False
0.17,0.5718624398269728,1.2,167.0,12.07752,0.3,68900.0,0.33,276.0,2700.0,13.480636888563478,1.1355643723898388,3066.023805452565,8.421279301317124,2.0162249178124005,5.059357587246353,0.8806605454225618,1592,68,520,806,43.101476558279664,24.72979275365018,0.0002885072240163355,False
0.18000000000000002,0.5791024393545925,1.2,168.0,12.07752,0.3,68900.0,0.33,276.0,2700.0,13.591350649615046,1.211007046228189,3269.7190248161105,8.58058299181996,2.0777708604679286,5.010767657795087,0.8667638142397396,1606,68,526,811,41.11697632238688,23.55218404539568,0.0002788319828102358,False
0.19,0.7463479018744285,1.2,169.0,12.07752,0.3,68900.0,0.33,276.0,2700.0,20.711586191201175,1.9532352321567967,5273.7351268233515,12.627241256048531,3.8414294043773283,8.084344935152643,1.8881941722205315,1943,78,634,986,48.30210652238053,27.387864018919974,0.00042662970275638334,False
0.2,0.7007211026115496,1.2,170.0,12.07752,0.3,68900.0,0.33,276.0,2700.0,18.379536079318306,1.8211984471124967,4917.235807203741,11.453527078777208,3.292264151325334,6.926009000541098,1.4710657042128372,1696,74,558,853,43.23633177430189,24.56960559112328,0.00035607500126518286,False
0.21000000000000002,0.623268284221291,1.2,171.0,12.07752,0.3,68900.0,0.33,276.0,2700.0,14.84309499885159,1.5391287818361556,4155.64771095762,9.580906628940909,2.478649193093526,5.262188369910682,0.9395204112573703,1585,68,522,796,37.591656769559606,21.55101408991494,0.0002695851172605381,False
0.22,0.9173436925452825,1.2,172.0,12.07752,0.3,68900.0,0.33,276.0,2700.0,28.860179422936103,3.1523186174726874,8511.260267176256,17.491453783827392,6.406042796453738,11.36872563910871,3.2537241789810505,2613,96,862,1314,48.56615522673375,27.34172106800227,0.0005424371814683153,False
0.23,0.7177271720719645,1.2,173.0,12.07752,0.3,68900.0,0.33,276.0,2700.0,18.551515469320904,2.1079417737610857,5691.442789154931,11.88487870247945,3.490701125442442,6.666636766841455,1.382759351681356,1944,76,642,975,38.705364429242756,21.963455600172548,0.00031718122558089726,False
0.24000000000000005,0.8091841926999634,1.2,174.0,12.07752,0.3,68900.0,0.33,276.0,2700.0,22.69198429020597,2.69408519692923,7274.030031708921,14.329301386223005,4.687834355699151,8.362682903982964,1.9937491587699205,1984,82,656,994,40.654441301942335,23.02998980388416,0.00038348733961240494,False
0.25,0.8667866099898927,1.2,175.0,12.07752,0.3,68900.0,0.33,276.0,2700.0,25.407802512813397,3.1432503906267804,8486.776054692307,15.976770416959159,5.560285557381707,9.431032095854238,2.417035166754927,2396,90,792,1202,40.61956691564936,22.838103414016135,0.00041708171371170185,False
0.26,0.5872821602485856,1.2,176.0,12.07752,0.3,68900.0,0.33,276.0,2700.0,12.575827316701043,1.598046462851474,4314.72544969898,8.76214861253535,2.1486990662633927,3.8136787041656923,0.5506526034119188,1460,64,484,728,29.333316668879483,16.806961106515352,0.0002036698951090018,False
0.27,0.6491298537214468,1.2,177.0,12.07752,0.3,68900.0,0.33,276.0,2700.0,14.854264837485946,1.964101774260197,5303.074790502532,10.189409935663956,2.7342586747923554,4.66485490182199,0.7701569005321585,1367,64,452,683,31.05339140875172,17.63725531662508,0.00022634026104502488,False
0.28,0.7650542178211259,1.2,178.0,12.07752,0.3,68900.0,0.33,276.0,2700.0,19.73737769376895,2.7172567158394063,7336.593132766397,13.123569605948656,4.0822670967552295,6.613808087820292,1.3650103809158232,1926,78,634,969,33.64069455219791,19.148166985871583,0.0002850443275615216,False
0.29000000000000004,0.6429214734060857,1.2,179.0,12.07752,0.3,68900.0,0.33,276.0,2700.0,14.267949626794415,2.017772493732834,5447.985733078652,10.041798130630427,2.671457659015254,4.226151496163988,0.65368516528242,1370,64,452,686,28.841497021700864,16.469985928662474,0.00020960983620249243,False
0.3,0.6401941995333361,1.2,180.0,12.07752,0.3,68900.0,0.33,276.0,2700.0,13.996596327003788,2.0429407812859552,5515.940109472079,9.977260114097735,2.6441589742467335,4.019336212906053,0.6012181929607783,1389,64,458,696,28.043695658262873,16.055521471345372,0.00020235054190902873,False
0.31,0.9100464076082253,1.2,181.0,12.07752,0.3,68900.0,0.33,276.0,2700.0,26.31769775701916,4.016849027842574,10845.49237517495,17.26886117224908,6.279215648932119,9.048836584770083,2.2623666210895452,2567,92,846,1292,36.7991388425319,20.671367701822007,0.00036194184702380023,False
0.32,0.9606873512216854,1.2,182.0,12.07752,0.3,68900.0,0.33,276.0,2700.0,28.830085270483185,4.54418450456154,12269.298162316158,18.841169094757802,7.193266655331603,9.988916175725382,2.649082150770063,2762,98,916,1382,34.14521106270101,19.3291330584429,0.0003797959395609174,False
0.33,0.9675460976104595,1.2,183.0,12.07752,0.3,68900.0,0.33,276.0,2700.0,28.97385088920329,4.705419119923838,12704.631623794363,19.059076395657836,7.323240065515573,9.914774493545455,2.6178209455917347,2777,98,922,1388,33.45877724767411,18.847472474537202,0.0003711052914969012,False
0.34,0.9065076269890946,1.2,184.0,12.07752,0.3,68900.0,0.33,276.0,2700.0,25.465701312752042,4.246851118063386,11466.498018771143,17.161397911396694,6.218295174968983,8.304303401355348,1.9714440569055967,2269,86,754,1132,31.0843248212615,17.4794631259005,0.00031503323865585993,False
0.3500000000000001,0.7096935125766541,1.2,185.0,12.07752,0.3,68900.0,0.33,276.0,2700.0,16.018057562172153,2.713362883365019,7326.0797850855515,11.680202591039903,3.396045291819329,4.33785497113225,0.6826824084543102,1440,66,478,717,25.744825618985946,14.59627062299838,0.00020391380930118516,False
0.36000000000000004,0.7840289334184284,1.2,186.0,12.07752,0.3,68900.0,0.33,276.0,2700.0,19.09254711665555,3.3389423831007417,9015.144434372003,13.636004102766103,4.336130438887282,5.456543013889446,0.9971880557865402,1798,76,598,895,26.51446489134403,14.953947452641035,0.00022970979206224536,False
0.37,0.9115575451730418,1.2,187.0,12.07752,0.3,68900.0,0.33,276.0,2700.0,25.083616610649273,4.534381677848594,12242.830530191204,17.31484625608078,6.3053460114176945,7.768770354568492,1.7709643335691005,2342,88,778,1169,28.834128735366463,16.25202239570467,0.00028655834635375743,False
0.38,0.8268532149234432,1.2,188.0,12.07752,0.3,68900.0,0.33,276.0,2700.0,20.704200078454022,3.8188743668477447,10310.96079048891,14.825781029020122,4.945393702223297,5.8784190494339,1.1265193353755527,2053,80,680,1027,26.765184660455862,15.128732346032146,0.00023632928125953838,False
0.39,0.8996815673257252,1.2,189.0,12.07752,0.3,68900.0,0.33,276.0,2700.0,24.062339079755038,4.567918697473374,12333.380483178109,16.954997900405342,6.101855564458866,7.107341179349696,1.533936866985492,2121,84,706,1056,27.43691317751785,15.489522956908933,0.0002615340623953216,False
0.4,0.7865081694139251,1.2,190.0,12.07752,0.3,68900.0,0.33,276.0,2700.0,18.49510219767979,3.564979152982794,9625.443713053544,13.703627182644892,4.3700211059642085,4.791475015034896,0.8050419529814143,1923,76,618,974,24.29978829455076,13.796900393009915,0.000210484904489694,False
0.4100000000000001,0.8539409462060057,1.2,191.0,12.07752,0.3,68900.0,0.33,276.0,2700.0,21.426011729817567,4.24798459976056,11469.558419353512,15.602150749586572,5.3574638948408175,5.823860980230995,1.1094792950802574,2055,80,678,1030,25.21967710943213,14.314964555558541,0.00023185012252766138,False
0.42000000000000004,0.756532210608515,1.2,192.0,12.07752,0.3,68900.0,0.33,276.0,2700.0,16.856951359920266,3.3847902412371473,9138.933651340298,12.89636742806986,3.9713973474536775,3.9605839318504064,0.5866071062165301,1568,68,524,776,22.70401723929937,12.902289079664467,0.00019062202297416697,False
0.43,0.9532812570509308,1.2,193.0,12.07752,0.3,68900.0,0.33,276.0,2700.0,25.9936122284581,5.422107557712515,14639.69040582379,18.607199757788276,7.0545944329967725,7.386412470669825,1.6324868752842576,2201,86,734,1094,25.859388841350718,14.652326988228769,0.00026660705385937386,False
0.44,0.8188261402446689,1.2,194.0,12.07752,0.3,68900.0,0.33,276.0,2700.0,19.258928827480464,4.058555389643442,10958.099552037294,14.599256668063164,4.8272962979677345,4.659672159417299,0.7687409083242924,1834,74,616,902,23.120140400840974,13.145863286428575,0.00020356641723587416,False
0.45,0.7848134875557994,1.2,195.0,12.07752,0.3,68900.0,0.33,276.0,2700.0,17.590511982496082,3.7670134423560393,10170.936294361307,13.657386715980934,4.346837009220739,3.933125266515148,0.5798235668646994,1720,72,566,859,21.658157782600785,12.270622358328852,0.00018915181561039306,False
0.46,1.1536324702755916,1.2,196.0,12.07752,0.3,68900.0,0.33,276.0,2700.0,36.698236170262,8.236734277473719,22239.18254917904,25.422362879064586,11.44843899359121,11.275873291197414,3.2117047161174916,3498,110,1154,1747,27.106975013168878,15.326812769360465,0.00034660537561614647,False
0.4700000000000001,0.9208759180899269,1.2,197.0,12.07752,0.3,68900.0,0.33,276.0,2700.0,23.553810083763082,5.317698986968559,14357.78726481511,17.599679660131667,6.468017603123911,5.954130423631415,1.150318616155352,2234,84,714,1133,23.7632258354065,13.472477619990226,0.00023002205478131875,False
0.4800000000000001,0.9328986546980663,1.2,198.0,12.07752,0.3,68900.0,0.33,276.0,2700.0,23.962755286858126,5.51943792568208,14902.482399341618,17.97040123259764,6.68183882025032,5.992354054260485,1.1624008945682398,2251,84,716,1145,23.603633568742314,13.384781736006836,0.00023034021916571582,False
0.49,0.9749246728925685,1.2,199.0,12.07752,0.3,68900.0,0.33,276.0,2700.0,25.90607144982496,6.100584015805644,16471.57684267524,19.29481914568839,7.464737776973631,6.6112523041365705,1.3641537611679864,2728,90,830,1417,23.578787927067307,13.286255748911273,0.0002424705971082962,False
0.5,1.0892333119901039,1.2,200.0,12.07752,0.3,68900.0,0.33,276.0,2700.0,31.927441635650766,7.720061021113522,20844.16475700651,23.12173482517115,9.88589884767143,8.805706810479617,2.1658378265579072,3434,100,1000,1824,26.18139657621753,14.956924114673175,0.0002811887646850777,False
0.01,0.37033145125461453,1.2,201.0,15.0969,0.05,68900.0,0.33,276.0,2700.0,8.86409012945151,0.04431835625215498,119.65956188081844,4.515653080704303,0.7297714249864905,4.348437048747207,0.6854530687343355,28891,282,9578,14518,577.4290960806336,326.65739926763536,0.003041520143105418,True
0.02,0.5434211958017791,1.2,202.0,15.0969,0.1,68900.0,0.33,276.0,2700.0,15.197539651973521,0.15195864135891748,410.2883316690772,7.8082314184729125,1.7854793645865448,7.389308233500609,1.6335207232276272,12263,196,4058,6170,396.75825497173963,226.5775306993114,0.002990412906075848,True
0.03,0.4958784661042954,1.2,203.0,15.0969,0.1,68900.0,0.33,276.0,2700.0,13.068929402341016,0.19597739236737152,529.1389593919031,6.828848947465706,1.4377610534375225,6.240080454875311,1.241783661070151,10893,180,3580,5517,261.7476200489773,149.0835061576076,0.0016766288524479708,False
0.04,0.38121526251441606,1.2,204.0,15.0969,0.1,68900.0,0.33,276.0,2700.0,8.736282182107336,0.17459160235559373,471.3973263601031,4.700504132838747,0.7799221825775657,4.03577804926859,0.605330580221972,7228,140,2362,3679,153.55343199122447,87.83313124834618,0.0007914258358342871,False
0.05,0.7259941115897264,1.2,205.0,15.0969,0.2,68900.0,0.33,276.0,2700.0,22.936496817704644,0.5731506210548185,1547.5066768480099,12.097191558303708,3.5898291043261157,10.839305259400936,3.0166784832712974,4899,126,1620,2463,216.5101834306576,123.5527315087407,0.002022160584654196,False
0.06000000000000001,0.42657078195321135,1.2,206.0,15.0969,0.08,68900.0,0.33,276.0,2700.0,9.9553515982773,0.2982081586062019,805.1620282367452,5.502877795448132,1.011116615253708,4.452473802829168,0.7129084566475061,12589,190,4146,6364,111.4414153294398,63.90665045051873,0.0006329050205986677,False
0.06999999999999999,0.45981219053856376,1.2,207.0,15.0969,0.1,68900.0,0.33,276.0,2700.0,10.972394650695406,0.3833154352542193,1034.951675186392,6.123775428195622,1.2042828501960403,4.848619222499784,0.820967414941821,9220,162,3030,4669,104.83699042261647,60.17985972073301,0.0006151950376506624,False
0.08,0.7383622518330328,1.2,208.0,15.0969,0.2,68900.0,0.33,276.0,2700.0,22.828752113860773,0.9120777542620049,2462.6099365074133,12.418039262043992,3.74142904824447,10.41071285181678,2.829351293982465,4938,126,1626,2493,139.55004230022288,79.77494125674254,0.0013014660423407137,False
0.09,0.537476209864167,1.2,209.0,15.0969,0.2,68900.0,0.33,276.0,2700.0,13.572774623502749,0.6092480440279792,1644.9697188755438,7.682656789810797,1.7394332483660657,5.890117833691952,1.1301852043380864,2955,94,970,1494,91.56898738963694,52.855687542215186,0.0006256683386299805,False
0.09999999999999999,0.5208084579347702,1.2,210.0,15.0969,0.2,68900.0,0.33,276.0,2700.0,12.733394740526508,0.6345753419239363,1713.353423194628,7.335323845772366,1.614284958676789,5.3980708947541425,0.9797096167528526,2903,92,954,1466,80.14272418647978,46.26420227043793,0.0005287334060622234,False
0.11,0.4348147507547762,1.2,211.0,15.0969,0.1,68900.0,0.33,276.0,2700.0,9.42912832125246,0.5158144177876006,1392.6989280265216,5.654272612406429,1.0571050417338457,3.7748557088460304,0.541290623946245,7893,148,2602,3984,60.45630142318175,34.89897113815587,0.0003674219620941263,False
0.12,0.48334945570295496,1.2,212.0,15.0969,0.3,68900.0,0.33,276.0,2700.0,10.978846816301147,0.6551116942411327,1768.8015744510583,6.58020868943757,1.3537640612975317,4.398638126863577,0.698652367056399,1553,64,506,788,63.99674944141437,36.93603950062793,0.0003946862054252574,False
0.13,0.6012117845527911,1.2,213.0,15.0969,0.3,68900.0,0.33,276.0,2700.0,15.418312160640737,0.997588904401689,2693.4900418845605,9.075215215902421,2.2729272938300507,6.343096944738315,1.2753383894283616,1747,72,574,880,74.17532257262512,42.59725817545975,0.0005280503047240481,False
0.14,0.8216144260033833,1.2,214.0,15.0969,0.3,68900.0,0.33,276.0,2700.0,25.65532382840347,1.7901256478272747,4833.339249133642,14.677758641080848,4.868112594988283,10.977565187322623,3.077986947161008,2479,92,818,1246,88.60209839748084,50.236899423659615,0.0009097194207605992,False
0.15000000000000002,0.7877276695910546,1.2,215.0,15.0969,0.3,68900.0,0.33,276.0,2700.0,23.65599998265487,1.7671314152285367,4771.254821117049,13.736946675452055,4.386752994506017,9.919053307202814,2.6196215792774797,2249,88,740,1133,84.01292664372434,47.53458987306683,0.0008187009341560569,False
0.16,0.7372937249119962,1.2,216.0,15.0969,0.3,68900.0,0.33,276.0,2700.0,20.930830285931442,1.665887780535114,4497.897007444808,12.390168380412849,3.7281749319352944,8.540661905518593,2.0622871514001804,2175,82,706,1110,71.34464948810968,40.67872028095645,0.0006308122327872218,False
0.17,0.7584731062757117,1.2,217.0,15.0969,0.3,68900.0,0.33,276.0,2700.0,21.736676771458587,1.8373277624359157,4960.784958576973,12.947952437946554,3.9964778963654357,8.788724333512032,2.1591501339295203,2158,82,702,1099,68.67920386766706,39.04200003087171,0.0006244537184499745,False
0.18000000000000002,0.6899323443035752,1.2,218.0,15.0969,0.3,68900.0,0.33,276.0,2700.0,18.296088332070145,1.6344334376491565,4412.970281652722,11.183643171981279,3.170153302123557,7.112445160088866,1.5357198644744003,1699,74,558,856,59.97423713860753,34.10541371881276,0.0004859123377122668,False
0.19,0.8431637488159052,1.2,219.0,15.0969,0.3,68900.0,0.33,276.0,2700.0,25.576893172440453,2.415439395374528,6521.686367511225,15.291053271330007,5.190995437626321,10.285839901110446,2.775556042251793,2408,90,788,1220,66.16867644743189,37.49289982785732,0.0006807742930590139,False
0.2,0.5841313294652486,1.2,220.0,15.0969,0.3,68900.0,0.33,276.0,2700.0,13.442546777579159,1.3274995169387709,3584.2486957346814,8.692010368067677,2.121201581070681,4.750536409511481,0.7937020641319101,1601,68,528,803,47.2569462098973,27.071595243556906,0.00031995066157557107,False
0.21000000000000002,0.5724046375918939,1.2,221.0,15.0969,0.3,68900.0,0.33,276.0,2700.0,12.816061327183839,1.326290246311039,3580.9836650398056,8.43316379189504,2.020794138165631,4.382897535288798,0.6945038918545918,1442,64,474,725,44.21354230654052,25.439637202312014,0.0002981532997495632,False
0.22,0.5830842250902939,1.2,222.0,15.0969,0.3,68900.0,0.33,276.0,2700.0,13.06297395446614,1.414626015940886,3819.4902430403927,8.668756812724817,2.1121123158415327,4.394217141741322,0.6974862999006466,1456,64,478,733,42.62818511694475,24.420654266386506,0.0002933389583904716,False
0.23,0.739052962737027,1.2,223.0,15.0969,0.3,68900.0,0.33,276.0,2700.0,19.530625008470746,2.220539370763317,5995.456301060955,12.436070663556897,3.750012549921654,7.094554344913849,1.529473179158337,1800,76,594,903,49.741616098538415,28.1508416478188,0.0004206142943671791,False
0.24000000000000005,0.5747775715130112,1.2,224.0,15.0969,0.3,68900.0,0.33,276.0,2700.0,12.41781556665303,1.4611849501028802,3945.1993652777765,8.485263310135752,2.0408672649624395,3.932552256517278,0.5796823148595593,1488,64,492,744,39.07230268838024,22.432963054163714,0.0002656667277008924,False
0.25,0.7547045949044187,1.2,225.0,15.0969,0.3,68900.0,0.33,276.0,2700.0,19.854253180946092,2.4490567241433663,6612.453155187089,12.84787971583344,3.947872065053878,7.006373465112652,1.4988153409105118,1801,76,594,904,46.572325548182235,26.310956291121368,0.0003975147854030086,False
0.26,0.7829698675936951,1.2,226.0,15.0969,0.3,68900.0,0.33,276.0,2700.0,20.9871349847919,2.691516459703229,7267.0944411987175,13.607164352925789,4.321704287041224,7.379970631866112,1.6301878273379953,1933,80,638,970,45.57234405600676,25.763903077817673,0.00040881377445727045,False
0.27,0.9529194137015202,1.2,227.0,15.0969,0.3,68900.0,0.33,276.0,2700.0,29.605585416234213,3.9555300523912154,10679.931141456282,18.59580391889842,7.047863603366744,11.009781497335794,3.0923335509755283,2615,96,862,1316,49.846486101637645,28.094317295724164,0.0005738066559401434,False
0.28,0.613242746680206,1.2,228.0,15.0969,0.3,68900.0,0.33,276.0,2700.0,13.257630207287262,1.8100920677324808,4887.248582877698,9.349534483945215,2.383757379552081,3.908095723342047,0.5736653118196002,1459,64,480,733,36.079950379540485,20.66459428803825,0.00025298321759125147,False
0.29000000000000004,0.6557472252345018,1.2,229.0,15.0969,0.3,68900.0,0.33,276.0,2700.0,14.786498032569433,2.0929620125701396,5650.997433939377,10.347812547274042,2.8022092834033168,4.438685485295391,0.7092472708331772,1360,64,448,682,35.357427874647094,20.07254307685918,0.00026933243283502683,False
0.3,0.6724141091017088,1.2,230.0,15.0969,0.3,68900.0,0.33,276.0,2700.0,15.302445655062156,2.2388181804947007,6044.809087335692,10.7516509755661,2.9780307408481064,4.550794679496056,0.7392125603534057,1524,66,504,762,36.553917115818464,20.86404058545618,0.00027139488566706947,False
0.31,0.6841257295681742,1.2,231.0,15.0969,0.3,68900.0,0.33,276.0,2700.0,15.619357171284856,2.3586062370537566,6368.236840045143,11.039599958775359,3.105632806649176,4.579757212509497,0.7470265695954192,1424,66,474,707,35.827100974426486,20.243474803448283,0.0002602579388260808,False
0.32,0.8078796136488907,1.2,232.0,15.0969,0.3,68900.0,0.33,276.0,2700.0,20.962610290767493,3.285388507807581,8870.548971080469,14.292955232714162,4.669164362159584,6.669655058053332,1.3837758543520033,1958,80,646,983,38.66888132992166,21.838110269531782,0.0003372993270642561,False
0.33,0.9545109366596409,1.2,233.0,15.0969,0.3,68900.0,0.33,276.0,2700.0,28.2557125593473,4.5869262954976024,12384.700997843527,18.645951691766328,7.07749914945128,9.609760867580974,2.490572853953678,2610,94,860,1314,41.80200648266976,23.548163378921014,0.0004513927025626799,False
0.34,0.9543537580479198,1.2,234.0,15.0969,0.3,68900.0,0.33,276.0,2700.0,28.016046525152806,4.6804098041715125,12637.106471263083,18.640996270815528,7.074568794101374,9.375050254337278,2.3941589899298616,2549,92,844,1277,40.164721798503514,22.490059935756726,0.0004356005229542316,False
0.3500000000000001,0.9168771299271279,1.2,235.0,15.0969,0.3,68900.0,0.33,276.0,2700.0,25.789533995754184,4.423371259241875,11943.10239995306,17.47718195012829,6.397885267545785,8.312352045625893,1.9745140083039106,2340,88,776,1170,38.343022090492326,21.54090510443388,0.00038824112173005323,False
0.36000000000000004,1.036937032798731,1.2,236.0,15.0969,0.3,68900.0,0.33,276.0,2700.0,32.19261112415738,5.696953904450916,15381.775542017473,21.330165393463975,8.723863906607292,10.862445730693405,3.0269100021563764,2940,102,978,1467,40.130798879407266,22.705467960321158,0.0004755612336129176,False
0.37,0.9778353493396144,1.2,237.0,15.0969,0.3,68900.0,0.33,276.0,2700.0,28.613980279804792,5.187498956642365,14006.247182934385,19.388190527403875,7.521034587905335,9.225789752400917,2.3335356312629703,2801,96,928,1403,37.950338815830236,21.30531180404846,0.0004113304074560985,False
0.38,0.8002365672550138,1.2,238.0,15.0969,0.3,68900.0,0.33,276.0,2700.0,19.468590627962413,3.5841085712543395,9677.093142386717,14.080875933311262,4.5607340432726975,5.387714694651152,0.976625472018358,1797,76,598,894,32.15310898323866,18.07935148370367,0.0002816742840461834,False
0.39,0.8365319414574506,1.2,239.0,15.0969,0.3,68900.0,0.33,276.0,2700.0,20.973458456839637,3.9655869760048685,10707.084835213145,15.101068563848287,5.090218699891299,5.87238989299135,1.1246317238864303,2051,80,680,1025,32.801100886326815,18.539940399664104,0.0002934440259376395,False
0.4,0.7372461017116928,1.2,240.0,15.0969,0.3,68900.0,0.33,276.0,2700.0,16.360937893221514,3.138146292091139,8472.994988646076,12.38892687042539,3.727584902027287,3.9720110227961243,0.5894386099361477,1587,68,528,789,29.26490086706105,16.62777610702424,0.0002405836776243351,False
0.4100000000000001,0.9168792349558508,1.2,241.0,15.0969,0.3,68900.0,0.33,276.0,2700.0,24.527660082070916,4.8838225119724985,13186.320782325745,17.47724632924153,6.397922057583544,7.050413752829385,1.514099545611045,2180,86,728,1082,33.23155335087128,18.757862817606295,0.0003208723382811301,False
0.42000000000000004,1.0601149194538717,1.2,242.0,15.0969,0.3,68900.0,0.33,276.0,2700.0,32.091100738558396,6.583961610751156,17776.69634902812,22.115713906602902,9.227329661281228,9.975386831955493,2.6433680505300723,2952,102,988,1464,35.41499814363241,19.874739420339893,0.00041203000823241017,False
0.43,0.8124031729679817,1.2,243.0,15.0969,0.3,68900.0,0.33,276.0,2700.0,19.14002644362184,3.948586613972719,10661.18385772634,14.419166592478454,4.734104661421166,4.720859851143384,0.7855180474484471,1834,74,614,905,29.18242704588945,16.456558992715863,0.00025815627644186766,False
0.44,0.8285662497867641,1.2,244.0,15.0969,0.3,68900.0,0.33,276.0,2700.0,19.70137062721241,4.155892585584497,11220.909981078143,14.874332611514555,4.970832356750439,4.827038015697854,0.8149397711659416,2224,78,672,1160,29.39113647296624,16.660717501657807,0.0002623480901078605,False
0.45,0.8835110583971368,1.2,245.0,15.0969,0.3,68900.0,0.33,276.0,2700.0,22.10093967516563,4.781859673206688,12911.021117658056,16.470722176583855,5.831608967822461,5.630217498581775,1.0497492946157738,2189,82,704,1107,30.2612342854165,17.139088979175355,0.0002806982654318512,False
0.46,0.9073933997885633,1.2,246.0,15.0969,0.3,68900.0,0.33,276.0,2700.0,23.07682916062747,5.103810665257747,13780.288796195917,17.188266921288687,6.233508172903404,5.888562239338782,1.1296975076456572,2160,82,698,1091,29.79086806947975,16.83373708095808,0.0002831849591218785,False
0.4700000000000001,0.8632745204635655,1.2,247.0,15.0969,0.3,68900.0,0.33,276.0,2700.0,20.782730822615104,4.666495360598725,12599.537473616558,15.873934989633016,5.504354383680363,4.908795832982088,0.8378590230816378,2294,80,684,1204,27.79400814307483,15.970982453838563,0.0002625378017251039,False
0.4800000000000001,1.1233646065361547,1.2,248.0,15.0969,0.3,68900.0,0.33,276.0,2700.0,34.38037840175957,8.019667473258432,21653.102177797766,24.328076345351132,10.695577312846858,10.05230205640844,2.675909839588426,3200,104,1028,1622,33.06962426428161,18.430248043184633,0.00039014757629645736,False
0.49,1.1099116643879103,1.2,249.0,15.0969,0.3,68900.0,0.33,276.0,2700.0,33.3522581214655,7.924899750357593,21397.2293259655,23.849097797500107,10.37152004384055,9.503160323965396,2.4466202934829564,3272,102,1008,1692,50.72249809667008,28.078801333981016,0.00037223117002040546,False
0.5,0.9666100969339386,1.2,250.0,15.0969,0.3,68900.0,0.33,276.0,2700.0,25.28343938666547,6.059060458867219,16359.463238941491,19.029269317518473,7.305414708555489,6.254170069146998,1.2463542496882702,2710,88,798,1429,28.979897906114164,16.44897354755237,0.0002946141168148601,False
0.01,0.5042835338855326,1.2,251.0,18.11628,0.05,68900.0,0.33,276.0,2700.0,13.79483808363087,0.06897209602305163,186.22465926223938,6.997859972943037,1.495867022666787,6.796978110687832,1.4268949266437354,44058,366,14620,22122,998.9454012975834,567.1761455699292,0.006275093703228661,True
0.02,0.6187450391177336,1.2,252.0,18.11628,0.1,68900.0,0.33,276.0,2700.0,18.49562525233478,0.18493949736252868,499.33664287882743,9.476205165277666,2.43554939311259,9.019420087057114,2.2506098957500615,14702,218,4870,7391,538.4563719563987,306.6446993935522,0.004563761508612513,True
0.03,0.7003104431326965,1.2,253.0,18.11628,0.1,68900.0,0.33,276.0,2700.0,22.143494942224432,0.3320958754656042,896.6588637571314,11.443200757070338,3.287562772309785,10.700294185154094,2.9554668968441806,17292,242,5700,8736,468.9005653960914,267.1592433854582,0.0038122973127005717,True
0.04,0.7252994164539346,1.2,254.0,18.11628,0.1,68900.0,0.33,276.0,2700.0,23.14793116267462,0.46282458196704973,1249.6263713110343,12.079284183159801,3.581431464979407,11.068646979514819,3.1186068830123572,18331,250,6038,9268,391.138811699581,222.57244408814176,0.00303871721581805,True
0.05,0.35484106597021214,1.2,255.0,18.11628,0.1,68900.0,0.33,276.0,2700.0,7.7239138769330005,0.192836047535526,520.6573283459202,4.257697751622737,0.6618279174333119,3.4662161253102637,0.46899186989778596,6632,132,2176,3362,132.2320241146395,75.83042311219563,0.0006969017176127783,False
0.06000000000000001,0.7178168252304182,1.2,256.0,18.11628,0.2,68900.0,0.33,276.0,2700.0,22.28475127401695,0.668090148878392,1803.8434019716585,11.887171976505183,3.4917667451540795,10.397579297511768,2.8236765962756873,4775,124,1574,2408,207.69550089027618,119.36772499010641,0.0019704131718728435,False
0.06999999999999999,0.7042774383029407,1.2,257.0,18.11628,0.2,68900.0,0.33,276.0,2700.0,21.381019926271637,0.7476173198993864,2018.5667637283432,11.543130929385418,3.333155974950103,9.83788899688622,2.5855386550507165,4518,120,1494,2271,183.3729347661385,104.76418767839849,0.0016227792475657311,False
0.08,0.42737167451752156,1.2,258.0,18.11628,0.2,68900.0,0.33,276.0,2700.0,9.6529787003161,0.38504681772021854,1039.62640784459,5.517510727102036,1.0155296877895448,4.135467973214063,0.6304828700693262,2131,76,696,1081,99.39662670148293,57.355123050995545,0.000580877910878269,False
0.09,0.5689281010462093,1.2,259.0,18.11628,0.2,68900.0,0.33,276.0,2700.0,14.850497363501665,0.6667455673279297,1800.21303178541,8.357089410710698,1.991608261733862,6.493407952790967,1.3248626944059323,3263,98,1072,1649,114.69034061923469,66.20260930261514,0.0008335738037036672,False
0.09999999999999999,0.7613573710616697,1.2,260.0,18.11628,0.3,68900.0,0.33,276.0,2700.0,23.50775197627908,1.1732932037115598,3167.8916500212113,13.02478514297203,4.033933972311856,10.482966833307051,2.8606407686002964,2133,84,694,1086,140.69724770697036,80.6836193732026,0.0013395229851322957,False
0.11,0.7298688824466876,1.2,261.0,18.11628,0.3,68900.0,0.33,276.0,2700.0,21.69946647436099,1.1906830162085686,3214.8441437631354,12.197295241675928,3.636896767202903,9.502171232685061,2.4462137509943345,2082,82,676,1062,123.13570896275571,70.33349060920897,0.0011143063474493898,False
0.12,0.7450842111038385,1.2,262.0,18.11628,0.3,68900.0,0.33,276.0,2700.0,22.217114612787352,1.3294077620303069,3589.4009574818283,12.594029300363815,3.8254934651914865,9.623085312423537,2.49608570316118,2228,84,724,1136,114.58936208951907,65.52254452083552,0.0010578285048541659,False
0.13,0.6716784267456479,1.2,263.0,18.11628,0.3,68900.0,0.33,276.0,2700.0,18.505005379589928,1.1982239636333898,3235.2047018101525,10.733678117803857,2.970127552917949,7.771327261786071,1.7719035892845592,1920,76,628,972,96.61699424184151,55.38714942657659,0.0007885696141616161,False
0.14,0.7829336391230957,1.2,264.0,18.11628,0.3,68900.0,0.33,276.0,2700.0,23.64826474095473,1.6496315117057367,4454.005081605489,13.606178302853383,4.3212113381487445,10.042086438101347,2.6715798264430077,2233,88,734,1126,102.44623576577436,58.52498281778254,0.0009898015478983654,False
0.15000000000000002,0.5315294485509182,1.2,265.0,18.11628,0.3,68900.0,0.33,276.0,2700.0,12.263817812884627,0.9127177524957707,2464.3379317385807,7.557933321117455,1.6941176129882618,4.705884491767172,0.7813998604924911,1710,68,562,861,67.78081248609456,39.01456960212235,0.0004388232267395664,False
0.16,0.5533791186129452,1.2,266.0,18.11628,0.3,68900.0,0.33,276.0,2700.0,12.931178915618348,1.0259156709098864,2769.972311456693,8.02056043859244,1.864288240271739,4.910618477025908,0.8383725693618524,1646,68,540,830,66.33826106796069,38.117813498291625,0.0004375706958090502,False
0.17,0.5541613659948058,1.2,267.0,18.11628,0.3,68900.0,0.33,276.0,2700.0,12.788398451317944,1.0767241052239576,2907.1550841046856,8.037345579506333,1.8705688667394662,4.751052871811611,0.7938447615155086,1676,68,552,842,63.01254185670719,36.19574231986733,0.00041452486673772856,False
0.18000000000000002,0.492854842706983,1.2,268.0,18.11628,0.3,68900.0,0.33,276.0,2700.0,10.357326562674467,0.9199448784035454,2483.8511716895728,6.768483480816787,1.4172045050970108,3.5888430818576804,0.49725962669346535,1359,60,446,684,53.41699028624255,30.74507269454103,0.000334383587320885,False
0.19,0.8367149324282888,1.2,269.0,18.11628,0.3,68900.0,0.33,276.0,2700.0,25.23817308933362,2.383260987479378,6434.804666194321,15.10629596859395,5.092982537359593,10.131877120739672,2.709721549880215,2402,90,788,1214,78.77792909130358,44.571413577010084,0.0008040252890960582,False
0.2,0.68067391306074,1.2,270.0,18.11628,0.3,68900.0,0.33,276.0,2700.0,17.481996540794515,1.7314444932603077,4674.90013180283,10.954373226781096,3.067673312935567,6.52762331401342,1.3362288196752592,1734,74,570,873,64.1667500095959,36.527396446229695,0.0005038056261009796,False
0.21000000000000002,0.5769483597691758,1.2,271.0,18.11628,0.3,68900.0,0.33,276.0,2700.0,12.991849580238252,1.3447480128817526,3630.819634780732,8.533048518760413,2.0593388192668813,4.458801061477839,0.7145908063851287,1641,68,540,825,54.82715762759351,31.46808843913978,0.0003612895638575475,False
0.22,0.5296228268268371,1.2,272.0,18.11628,0.3,68900.0,0.33,276.0,2700.0,11.057325756730506,1.1940047141900725,3223.8127283131957,7.518133250146199,1.6797454494852058,3.5391925065843077,0.4857407352951333,1611,64,534,804,46.54762948007337,26.74183348078746,0.0003080785795863218,False
0.23,0.7504937758616349,1.2,273.0,18.11628,0.3,68900.0,0.33,276.0,2700.0,20.06531721015743,2.282028973957288,6161.478229684678,12.736483748906535,3.8940066589882325,7.3288334612508965,1.6119776850309444,1813,76,598,910,59.7700864439523,33.8184667613257,0.0005205329598603723,False
0.24000000000000005,0.8915869313324922,1.2,274.0,18.11628,0.3,68900.0,0.33,276.0,2700.0,26.959855108822246,3.2062296951631883,8656.820176940608,16.71175760032183,5.965596609870718,10.248097508500415,2.7593669147075297,2465,92,808,1247,65.51460224841475,36.86521773457319,0.0006936952175876666,False
0.25,0.6329795142829211,1.2,275.0,18.11628,0.2,68900.0,0.33,276.0,2700.0,14.53818233384978,1.7845478682563292,4818.279244292089,9.807433673247166,2.5727895915427936,4.730748660602615,0.7882417232864645,3065,94,1016,1535,48.837384836588456,27.96089698389719,0.0003523053748512072,False
0.26,0.9202799617678139,1.2,276.0,18.11628,0.3,68900.0,0.33,276.0,2700.0,28.038347370418204,3.608174069834705,9742.069988553703,17.581397824184865,6.4575344107944534,10.45694954623334,2.8493603409597483,2526,94,832,1272,61.462564495279366,34.48632937647031,0.0006733183267548865,False
0.27,0.7190605278490707,1.2,277.0,18.11628,0.3,68900.0,0.33,276.0,2700.0,17.838918556012406,2.3670300262612693,6390.981070905427,11.919005982395106,3.506570644058774,5.9199125736172995,1.1395406177975045,1861,74,612,937,49.3183965064384,28.050219755170474,0.00039495058138075965,False
0.28,0.8414337395325191,1.2,278.0,18.11628,0.3,68900.0,0.33,276.0,2700.0,23.435515518627188,3.2349960113200713,8734.489230564193,15.241386263986591,5.16458474655042,8.194129254640597,1.929588735230349,2212,84,732,1108,53.597800722378324,30.42267466721128,0.0005177362510255584,False
0.29000000000000004,0.672045519965368,1.2,279.0,18.11628,0.3,68900.0,0.33,276.0,2700.0,15.457372046300078,2.190238744561245,5913.644610315361,10.742644573610798,2.9740694590366115,4.71472747268928,0.7838307144753665,1530,66,506,765,43.79073997734565,25.032098005725913,0.00033369911726177583,False
0.3,0.9021572690079227,1.2,280.0,18.11628,0.3,68900.0,0.33,276.0,2700.0,26.12636211056259,3.862405648819776,10428.495251813396,17.029720511364964,6.143923544949402,9.096641599197625,2.281517896129626,2482,90,820,1246,52.52088217422547,29.541801629245043,0.0005450623914755081,False
0.31,1.0053534181996657,1.2,281.0,18.11628,0.3,68900.0,0.33,276.0,2700.0,31.600350258368636,4.835660165551744,13056.282446989708,20.28146302026781,8.066807074108311,11.318887238100825,3.2311469085565676,2980,102,990,1489,54.24061986865939,30.44851890644584,0.0006435001870963209,False
0.32,0.8784092807370594,1.2,282.0,18.11628,0.3,68900.0,0.33,276.0,2700.0,24.448061598180956,3.843060716993582,10376.263935882673,16.31929750592074,5.7479655509920295,8.128764092260216,1.9049048339984473,2271,86,752,1137,48.56097180561106,27.340300023671382,0.00047843033047188804,False
0.33,0.8493016491096761,1.2,283.0,18.11628,0.3,68900.0,0.33,276.0,2700.0,22.77214188482764,3.682137134201799,9941.770262344857,15.467873717696099,5.285392566823635,7.304268167131541,1.603255432621836,2094,82,698,1041,45.98077358545956,26.028009967371506,0.00043159408470575683,False
0.34,0.8346646809039928,1.2,284.0,18.11628,0.3,68900.0,0.33,276.0,2700.0,21.852364235563073,3.632583814941259,9807.9763003414,15.04777564338105,5.06207083976662,6.804588592182023,1.4294870248253613,2111,82,704,1049,45.10097963806854,25.5788377368455,0.0004006867354667484,False
0.3500000000000001,0.7935500735590294,1.2,285.0,18.11628,0.3,68900.0,0.33,276.0,2700.0,19.713097749842873,3.3599949162073663,9071.986273759889,13.896543103187788,4.467199251378731,5.816554646655085,1.1072043351713647,1893,78,626,948,41.84455555794218,23.625483368498955,0.000359240275563795,False
0.36000000000000004,0.8310190061626395,1.2,286.0,18.11628,0.3,68900.0,0.33,276.0,2700.0,21.283338955890667,3.7332849141630633,10079.86926824027,14.943978103331466,5.007400851707765,6.339360852559201,1.274115937544702,2029,80,672,1015,42.55267712108778,24.038477533396616,0.0003750460274194222,False
0.37,0.9977729166977309,1.2,287.0,18.11628,0.3,68900.0,0.33,276.0,2700.0,29.71917908834818,5.391960736222892,14558.293987801808,20.033490790086784,7.91400420248439,9.685688298261397,2.522043466261499,2866,98,950,1435,46.321439044826356,26.05352308604919,0.0005135671951333729,False
0.38,1.0474611867566723,1.2,288.0,18.11628,0.3,68900.0,0.33,276.0,2700.0,32.31609081989515,6.025133607721105,16267.860740846983,21.685178182865037,8.950211514488064,10.630912637030114,2.9250779067669592,2886,100,958,1443,45.684197422027225,25.82637593380769,0.0005445046897610341,False
0.39,0.9992588939059845,1.2,289.0,18.11628,0.3,68900.0,0.33,276.0,2700.0,29.340281416115346,5.597117453063363,15112.217123271079,20.081986048917226,7.943809537752892,9.25829536719812,2.346692084689529,2804,96,932,1400,43.54068789171636,24.48678139875816,0.00048236139306333383,False
0.4,0.8775059136317658,1.2,290.0,18.11628,0.3,68900.0,0.33,276.0,2700.0,22.75814482651003,4.417587678748827,11927.486732621834,16.29255304862483,5.733235316019023,6.4655917778852015,1.315647637270196,2082,82,692,1038,39.777134719040255,22.49207525958864,0.0003683430326719696,False
0.4100000000000001,1.089822325605558,1.2,291.0,18.11628,0.3,68900.0,0.33,276.0,2700.0,34.075697981193414,6.841170281292607,18471.159759490038,23.14230473744452,9.899523921847486,10.933393243748895,3.058353640554879,3045,104,1014,1518,44.16195523278486,24.68329424817006,0.0005357707417879405,False
0.42000000000000004,1.0021092219550356,1.2,292.0,18.11628,0.3,68900.0,0.33,276.0,2700.0,28.82229179692081,5.897511733007264,15923.281679119615,20.1751625769279,8.00118252920407,8.647129219992909,2.1036707961968064,2827,96,932,1417,40.984767783203445,23.048981473143748,0.0004424903959852801,False
0.43,0.9516643315244679,1.2,293.0,18.11628,0.3,68900.0,0.33,276.0,2700.0,25.909291065121057,5.403978507594423,14590.741970504941,18.55630205538819,7.02454913448383,7.352989009732866,1.620570626889407,2206,86,736,1096,38.7804428619774,21.941035493292908,0.00038993754919558596,False
0.44,0.9803669371714462,1.2,294.0,18.11628,0.3,68900.0,0.33,276.0,2700.0,27.213180323810608,5.808490718836041,15682.924940857312,19.46957428657746,7.570220476212172,7.74360603723315,1.7617297573761306,2579,92,860,1281,38.603064341705604,21.9681318215086,0.00040004639370346337,False
0.45,0.8433644253429005,1.2,295.0,18.11628,0.3,68900.0,0.33,276.0,2700.0,20.20718180951901,4.3557641534362,11760.563214277741,15.296819382315348,5.19406457163555,4.910362427203662,0.8383004181993492,2185,78,660,1139,34.48430566877215,19.467480265840628,0.0003167610283295368,False
0.46,0.7860922059023092,1.2,296.0,18.11628,0.2,68900.0,0.33,276.0,2700.0,17.487207157742713,3.8181976045942814,10309.13353240456,13.692270671010398,4.364323259177405,3.7949364867323148,0.5461256545831232,5093,104,1286,2844,36.38393393094836,20.696290573725108,0.0002849302095848385,False
0.4700000000000001,0.9285188977052341,1.2,297.0,18.11628,0.3,68900.0,0.33,276.0,2700.0,23.93403011171489,5.407050693537232,14599.036872550527,17.83493059589622,6.603429669979914,6.0990995158186685,1.1963789764426824,2200,84,712,1108,35.84425678073069,20.305185021918412,0.000348110690155143,False
0.4800000000000001,1.1581866616426197,1.2,298.0,18.11628,0.3,68900.0,0.33,276.0,2700.0,36.48215291097445,8.524093355470002,23015.05205976901,25.58900528796888,11.564596562024384,10.893147623005568,3.0405032065543818,3667,110,1150,1882,40.94153894828853,23.303590014273414,0.0004965414746000579,False
0.49,0.8550378185308487,1.2,299.0,18.11628,0.3,68900.0,0.33,276.0,2700.0,20.060799008812747,4.668492267757667,12604.929122945701,15.633977029769747,5.374594914125107,4.426821979043,0.70610264636744,1921,74,608,975,32.43092671892526,18.358972485186317,0.0002993576131784191,False
0.5,1.16660912110297,1.2,300.0,18.11628,0.3,68900.0,0.33,276.0,2700.0,36.50876875906255,8.865392801966488,23936.560565309515,25.898564933826126,11.781421297136676,10.610203825236422,2.9160284951701883,3701,108,1126,1926,40.21875027363858,22.571126291238542,0.0004789349827325208,False
0.01,0.7008722109317366,1.2,301.0,21.135659999999998,0.08,68900.0,0.33,276.0,2700.0,22.66436575546077,0.11331973438219906,305.9632828319375,11.457327870601478,3.293995161720492,11.207037884859293,3.1806754273382927,27689,308,9224,13847,1441.6334424017493,831.8175237373403,0.013524899879721846,True
0.02,0.40610057785443227,1.2,302.0,21.135659999999998,0.1,68900.0,0.33,276.0,2700.0,9.918787486516253,0.0991711197043435,267.76202320172746,5.134342900181894,0.9022615408256259,4.784444586334359,0.8030904211212824,8362,154,2762,4213,406.12695523702627,232.28083030122946,0.0024906450054086537,True
0.03,0.7298568750684438,1.2,303.0,21.135659999999998,0.1,68900.0,0.33,276.0,2700.0,23.628784845993582,0.35437522402213745,956.8131048597711,12.196984451376004,3.636750311531277,11.431800394617579,3.2823750875091395,18255,250,6032,9201,595.3609124844443,338.7004050483748,0.004812662843935777,True
0.04,0.6269538570492292,1.2,304.0,21.135659999999998,0.1,68900.0,0.33,276.0,2700.0,18.421427184784644,0.3682945024091419,994.3951565046832,9.66659832430445,2.514118128872921,8.754828860480194,2.145823626463779,14621,218,4820,7385,376.56629702923385,214.84899275611025,0.002691534281845394,True
0.05,0.40127822333481095,1.2,305.0,21.135659999999998,0.1,68900.0,0.33,276.0,2700.0,9.248276634283863,0.23094511646929725,623.5518144671025,5.049056456784211,0.8777077947431196,4.199220177499653,0.6467626782738223,8015,148,2620,4079,181.44054413585948,103.88109965508123,0.0009626110566880063,False
0.06000000000000001,0.6798421648157993,1.2,306.0,21.135659999999998,0.2,68900.0,0.33,276.0,2700.0,20.435435362946503,0.6126106715462785,1654.0488131749519,10.933881801566486,3.058570555288377,9.501553561380017,2.4459598837420984,4355,118,1438,2192,231.35765104302098,132.19002501482703,0.002069339015960411,False
0.06999999999999999,0.4647038784988712,1.2,307.0,21.135659999999998,0.2,68900.0,0.33,276.0,2700.0,11.151215078255138,0.38957415021880903,1051.8502055907843,6.217488595444217,1.2344674113640801,4.933726482810921,0.8448932611452711,2533,84,832,1279,141.086610960457,81.44306951689596,0.0008791871904850526,False
0.08,0.44425578889018963,1.2,308.0,21.135659999999998,0.2,68900.0,0.33,276.0,2700.0,10.2435075723664,0.40866797260223,1103.403526026021,5.8297489262233615,1.111313821926583,4.413758646143039,0.702645849324353,2191,78,720,1105,121.64008069490747,70.18467862517647,0.0007152600107152129,False
0.09,0.6474579091193262,1.2,309.0,21.135659999999998,0.2,68900.0,0.33,276.0,2700.0,18.25781250947573,0.8200747488967625,2214.2018220212585,10.149562104224644,2.7172558673236527,8.108250405251086,1.8971811184268903,4058,112,1338,2045,157.43867361865634,90.28150428142777,0.00124506605008128,False
0.09999999999999999,0.5375047562731419,1.2,310.0,21.135659999999998,0.2,68900.0,0.33,276.0,2700.0,13.387299968314867,0.6672706033133475,1801.6306289460383,7.683257646947318,1.7396525692049112,5.704042321367549,1.0723819658915636,2848,92,938,1435,116.27021666891693,67.10893546529122,0.0007852480558721556,False
0.11,0.47664926174923133,1.2,311.0,21.135659999999998,0.1,68900.0,0.33,276.0,2700.0,10.902649922289495,0.5968581058446379,1611.5168857805224,6.448861289583896,1.310116043320751,4.453788632705598,0.7132579374761131,9074,160,2992,4580,91.8014982886613,52.99613914831847,0.0005848682306413256,False
0.12,0.44819057717078326,1.2,312.0,21.135659999999998,0.08,68900.0,0.33,276.0,2700.0,9.731554998780894,0.5802741851899182,1566.7403000127792,5.903544440914983,1.1343977069516875,3.8280105578659107,0.5541235217617693,12035,186,3992,6041,80.3109733301938,46.32448658777251,0.0004950664114833096,False
0.13,0.7492378139503273,1.2,313.0,21.135659999999998,0.3,68900.0,0.33,276.0,2700.0,22.19093060527584,1.4378091033029732,3882.0845789180275,12.703343931197567,3.8780309358394387,9.487586674078274,2.4402218325364657,2079,82,676,1059,124.6061560034093,70.86226131453536,0.001145266406019141,False
0.14,0.7563689034323667,1.2,314.0,21.135659999999998,0.3,68900.0,0.33,276.0,2700.0,22.313441138821414,1.5561938595565301,4201.723420802631,12.892031377832128,3.9692916321696092,9.421409760989286,2.413097772613079,2064,82,672,1050,117.15752910905181,66.64428636342508,0.0010799258447736122,False
0.15000000000000002,0.640183553144768,1.2,315.0,21.135659999999998,0.3,68900.0,0.33,276.0,2700.0,16.692351936534696,1.2448578117694389,3361.116091777485,9.97700854500709,2.6440527537981726,6.715343391527606,1.3991949420287337,1659,72,542,840,95.36052355169625,54.62156441611411,0.0007167197774869897,False
0.16,0.785144145039099,1.2,316.0,21.135659999999998,0.3,68900.0,0.33,276.0,2700.0,23.2908820625521,1.854691922664764,5007.668191194863,13.66640324686237,4.351354416956683,9.62447881568973,2.496662494291919,2331,88,762,1182,104.15424680556288,59.144595221485375,0.0010090188255696719,False
0.17,0.6402199223843037,1.2,317.0,21.135659999999998,0.3,68900.0,0.33,276.0,2700.0,16.30175231864462,1.3753591839467363,3713.469796656188,9.977867944571301,2.6444156256392413,6.3238843740733195,1.269056441692505,1580,70,510,809,83.88412745531481,48.11661026934021,0.000626951209924664,False
0.18000000000000002,0.5031300162685928,1.2,318.0,21.135659999999998,0.3,68900.0,0.33,276.0,2700.0,10.722995134543702,0.9528550498717764,2572.7086346537963,6.974559661789773,1.487808309781449,3.748435472753928,0.5349532599096726,1598,64,528,800,63.370955839445045,36.48590393223243,0.00040167511851288396,False
0.19,0.5941047473646541,1.2,319.0,21.135659999999998,0.3,68900.0,0.33,276.0,2700.0,14.013850564195817,1.316950347591288,3555.7659384964777,8.914876100962747,2.2089999216647627,5.09897446323307,0.8920495740734746,1572,68,516,792,69.70755269531116,40.06071668675511,0.0004811090846250666,False
0.2,0.8904884985725346,1.2,320.0,21.135659999999998,0.3,68900.0,0.33,276.0,2700.0,27.87636108489709,2.7708809476705647,7481.378558710525,16.678877067200254,5.94725792914917,11.197484017696837,3.176376981478605,2560,94,842,1291,91.6051600780382,52.02532175033397,0.0009980582182297785,False
0.21000000000000002,0.5682163058416897,1.2,321.0,21.135659999999998,0.3,68900.0,0.33,276.0,2700.0,12.6549416492054,1.309372680123305,3535.3062363329236,8.341551205809743,1.9856652563327524,4.313390443395656,0.6762925762094474,1447,64,474,730,63.6311127293572,36.07718725616192,0.0006067148086525003,False
0.22,0.7672442279664935,1.2,322.0,21.135659999999998,0.3,68900.0,0.33,276.0,2700.0,21.071705237356536,2.2955864570589357,6198.083434059126,13.182251480836543,4.111072082287231,7.889453756519993,1.8154856252282956,2075,82,680,1049,74.0585966730529,41.99531146660831,0.0006672800421307385,False
0.23,0.7660873443729723,1.2,323.0,21.135659999999998,0.3,68900.0,0.33,276.0,2700.0,20.804685561000024,2.367056334304182,6391.052102621291,13.151237473384018,4.0958396948644396,7.653448087616006,1.7287833605602576,2071,82,680,1045,70.90001080744916,40.16863992995721,0.0006317452898194018,False
0.24000000000000005,0.8454171903635073,1.2,324.0,21.135659999999998,0.3,68900.0,0.33,276.0,2700.0,24.526549922600154,2.9142330728165367,7868.429296604649,15.355860348926331,5.225525927889044,9.170689573673823,2.3112928550725074,2439,88,800,1233,72.58125451117643,40.931003144206244,0.0007309883830691155,False
0.25,0.6142357537664083,1.2,325.0,21.135659999999998,0.3,68900.0,0.33,276.0,2700.0,13.78576283883357,1.6904954313793026,4564.337664724117,9.372338665399736,2.393052853853457,4.4134241734338335,0.7025574224741542,1408,64,464,706,55.4608884684697,31.61062376447007,0.000393360034928555,False
0.26,0.924624014932889,1.2,326.0,21.135659999999998,0.3,68900.0,0.33,276.0,2700.0,28.276890738308246,3.6391847076604074,9825.7987106831,17.714862643460492,6.53419865510474,10.562028094847754,2.895013947444333,2538,94,834,1281,71.98736149734118,40.3858306286451,0.0007923866457841147,False
0.27,0.6706339396945311,1.2,327.0,21.135659999999998,0.3,68900.0,0.33,276.0,2700.0,15.745890614472708,2.084471254153411,5628.0723862142095,10.708184468953762,2.9589296813926365,5.037706145518946,0.8744584272392255,1682,70,554,845,55.489054772756255,31.633767710448524,0.00041651307911322544,False
0.28,0.8881206112928235,1.2,328.0,21.135659999999998,0.3,68900.0,0.33,276.0,2700.0,25.84039919446772,3.571679725937744,9643.53526003191,16.608099771249066,5.90784805243747,9.232299423218656,2.3361683264997257,2489,90,818,1256,64.43399437129992,36.45504900117986,0.0006691151743732615,False
0.29000000000000004,0.7554236865133859,1.2,329.0,21.135659999999998,0.3,68900.0,0.33,276.0,2700.0,19.09827679121127,2.7181699325733675,7339.058817948092,12.866947619242959,3.957117722556451,6.23132917196831,1.2389477899830834,1773,74,582,894,61.64453275957811,34.87085085042621,0.0005200661489406901,False
0.3,0.6470915541997474,1.2,330.0,21.135659999999998,0.3,68900.0,0.33,276.0,2700.0,14.271751407650392,2.0842140433829432,5627.3779171339465,10.140840068920072,2.7135391230984527,4.13091133873032,0.6293250797155094,1399,64,462,700,49.593052180811526,28.387677064857932,0.0003609513511798131,False
0.31,0.7130976648903607,1.2,331.0,21.135659999999998,0.3,68900.0,0.33,276.0,2700.0,16.847899021351267,2.5490302238140505,6882.381604297936,11.766733227577454,3.435953679607396,5.081165793773813,0.8869234557933456,1583,70,522,794,51.041044506034744,29.06859801166732,0.0004014404485717153,False
0.32,0.7588843309009068,1.2,332.0,21.135659999999998,0.3,68900.0,0.33,276.0,2700.0,18.68853146232304,2.9215358952558157,7888.146917190702,12.95889409645409,4.001804662848089,5.7296373658689514,1.0802687675922735,1769,74,582,890,51.44185551153238,29.01001156632139,0.00042553296413144585,False
0.33,1.0195819089682505,1.2,333.0,21.135659999999998,0.3,68900.0,0.33,276.0,2700.0,31.92572872294172,5.192478962490683,14019.693198724844,20.750802738471545,8.35871464836451,11.174925984470175,3.1662356858738265,2967,102,986,1482,60.10740567155509,33.788174454491525,0.0007159761532437305,False
0.34,0.742546492819214,1.2,334.0,21.135659999999998,0.3,68900.0,0.33,276.0,2700.0,17.598884923776367,2.9094923319375208,7855.629296231306,12.527454948276864,3.793617874462721,5.071429975499504,0.8841255425252004,1700,72,562,851,46.837195377332954,26.61031779972651,0.0003900724595698215,False
0.3500000000000001,0.96755210833683,1.2,335.0,21.135659999999998,0.3,68900.0,0.33,276.0,2700.0,28.50794546233642,4.899093265893765,13227.551817913167,19.059267879269246,7.323354624984139,9.448677583067173,2.424261359090374,2700,96,898,1347,55.26703570920336,31.036137647552053,0.0006043605516428087,False
0.36000000000000004,0.901523735935894,1.2,336.0,21.135659999999998,0.3,68900.0,0.33,276.0,2700.0,24.77863958045376,4.36243902658442,11778.585371777934,17.010584298795557,6.133140716042373,7.768055281658203,1.7707016894579528,2257,86,750,1126,51.763469594141974,29.138585567466144,0.0005078610034773293,False
0.37,0.84350191178665,1.2,337.0,21.135659999999998,0.3,68900.0,0.33,276.0,2700.0,21.68832203723384,3.9062521817667393,10546.880890770197,15.300770414107575,5.196167948534316,6.387551623126264,1.2899157667675767,2026,80,672,1012,48.63557431373779,27.47598079686308,0.00043600924271774326,False
0.38,0.9565331824656285,1.2,338.0,21.135659999999998,0.3,68900.0,0.33,276.0,2700.0,27.233663202646806,5.059472360444306,13660.575373199626,18.70976307380588,7.11527035088802,8.523900128840925,2.055797990443714,2642,94,874,1325,50.60941662688452,28.519112229639823,0.0005334057192700506,False
0.39,1.0897603021661635,1.2,339.0,21.135659999999998,0.3,68900.0,0.33,276.0,2700.0,34.56951202170298,6.61681742115322,17865.407037113695,23.14013830426556,9.898088623697474,11.429373717437418,3.2812712025442536,3058,104,1018,1525,53.34376044965042,30.10995751912815,0.0006635024824799076,False
0.4,0.9965412914516042,1.2,340.0,21.135659999999998,0.3,68900.0,0.33,276.0,2700.0,28.963041460621422,5.658567005571118,15278.13091504202,19.99333843524227,7.8893551796990895,8.969703025379154,2.230788174127971,2787,96,926,1392,49.99932930871465,28.14391977316096,0.0005430861253263612,False
0.4100000000000001,0.8388721763724054,1.2,341.0,21.135659999999998,0.3,68900.0,0.33,276.0,2700.0,20.712953698878888,4.10180770341813,11074.880799228951,15.167984238080319,5.125637020152775,5.544969460798569,1.0238293167346448,2017,78,660,1011,43.81301253601603,24.89208406652784,0.00039378534029025627,False
0.42000000000000004,0.8473569654356885,1.2,342.0,21.135659999999998,0.3,68900.0,0.33,276.0,2700.0,20.928990692296225,4.239918501036096,11447.779952797458,15.411748856906794,5.255367033286425,5.517241835389431,1.0154485322503293,2010,78,652,1012,43.49894727973485,24.720619248389536,0.0003940289001910139,False
0.43,0.9850852061861576,1.2,343.0,21.135659999999998,0.3,68900.0,0.33,276.0,2700.0,27.678872603098004,5.784438538260098,15617.984053302263,19.62168383619663,7.662441792193322,8.057188766901373,1.8780032539332243,2566,92,858,1273,46.34178316247885,26.051011901195924,0.00048412329000472595,False
0.44,1.0713944893137817,1.2,344.0,21.135659999999998,0.3,68900.0,0.33,276.0,2700.0,32.273185992864946,6.921691966028029,18688.56830827568,22.502886941893504,9.478965968307326,9.770299050971442,2.5572740022792972,3076,102,1022,1533,49.0301151971841,27.59660069287617,0.0005553198881041449,False
0.45,1.0912701917016903,1.2,345.0,21.135659999999998,0.3,68900.0,0.33,276.0,2700.0,33.195605097587645,7.278159393251642,19651.030361779434,23.192905108225247,9.933067505186981,10.002699989362398,2.654908111935339,2969,102,986,1478,46.98878701520148,26.665791395856914,0.000560618129411777,False
0.46,0.9183989941538169,1.2,346.0,21.135659999999998,0.3,68900.0,0.33,276.0,2700.0,23.620568821456505,5.228870787248452,14117.95112557082,17.523754925410728,6.424518597029317,6.096813896045777,1.1956478097808647,2165,84,712,1081,42.161467934726936,23.914649686302987,0.00040633199165278626,False
0.4700000000000001,1.0869268754226797,1.2,347.0,21.135659999999998,0.3,68900.0,0.33,276.0,2700.0,32.475536133991646,7.41430460877227,20018.62244368513,23.041271884480828,9.832662849999688,9.434264249510818,2.418358241227417,3029,100,970,1538,46.122010720729634,25.6518478516819,0.0005260575212537218,False
0.4800000000000001,1.0458701766200562,1.2,348.0,21.135659999999998,0.3,68900.0,0.33,276.0,2700.0,29.921756105313236,6.9495981221113095,18763.914929700535,21.631329808228365,8.915753021274224,8.29042629708487,1.9661548991629143,2730,94,894,1369,43.52160406674574,24.543509457939226,0.00047535312185216576,False
0.49,1.1035538195935943,1.2,349.0,21.135659999999998,0.3,68900.0,0.33,276.0,2700.0,32.98099141381255,7.833939406982619,21151.636398853072,23.624315877016592,10.220606284096458,9.356675536795962,2.3866668771138393,3418,102,1038,1785,45.23742087255085,25.858606299833347,0.0005150691712401355,False
0.5,0.8473407065273738,1.2,350.0,21.135659999999998,0.2,68900.0,0.33,276.0,2700.0,19.546244143783692,4.62476164814677,12486.85644999628,15.411280014678788,5.25511645888623,4.134964129104905,0.6303548107394592,5372,108,1340,3014,41.30021022903131,23.48157770479329,0.0003439987521463559,False
0.01,0.3681752790687575,1.2,351.0,24.15504,0.05,68900.0,0.33,276.0,2700.0,8.792097662111223,0.043958393915453677,118.68766357172493,4.479385894446202,0.7200740195566949,4.312711767665021,0.6761156256412413,28347,280,9388,14259,937.8339536052105,535.2480339175136,0.004818998231551864,True
0.02,0.42927345067561623,1.2,352.0,24.15504,0.1,68900.0,0.33,276.0,2700.0,10.743098229754583,0.10741422713672708,290.0184132691631,5.552322249962469,1.0260558455986994,5.1907759797921145,0.9186416184619723,8620,158,2850,4339,488.31136417469276,281.35168437606495,0.003143674731949856,True
0.03,0.33902531403262515,1.2,353.0,24.15504,0.08,68900.0,0.33,276.0,2700.0,7.530588412337528,0.11290227751729817,304.83614929670506,4.000546207235039,0.5965310341664578,3.5300422051024896,0.4836287566491596,9670,162,3182,4891,290.42594622293683,166.09333989965342,0.001399681596242211,True
0.04,0.4230267679554929,1.2,354.0,24.15504,0.1,68900.0,0.33,276.0,2700.0,10.169879203269364,0.20326354277883374,548.8115655028511,5.438319398352434,0.9917288304780791,4.73155980491693,0.7884652876992454,8643,156,2836,4383,284.37121541311086,162.82833083371804,0.0015127561056908678,True
0.05,0.4367427536696694,1.2,355.0,24.15504,0.08,68900.0,0.33,276.0,2700.0,10.485448690346814,0.2618744178708719,707.0609282513541,5.689925506408289,1.0680408502439138,4.795523183938525,0.806166432373042,13153,196,4324,6661,226.06077977407028,129.57077567538872,0.0012713444883984042,False
0.06000000000000001,0.4676734521391326,1.2,356.0,24.15504,0.1,68900.0,0.33,276.0,2700.0,11.436958554987871,0.342656367307519,925.1721917303014,6.274671957011181,1.2530155518618342,5.16228659797669,0.9103591845543152,9553,166,3138,4840,201.82909482880032,115.7086327845788,0.0011896007075350957,False
0.06999999999999999,0.6880735287481452,1.2,357.0,24.15504,0.2,68900.0,0.33,276.0,2700.0,20.598145059867182,0.7202166995752314,1944.5850888531247,11.137439792882494,3.149407927460392,9.460705266984688,2.429191227885161,4373,118,1442,2204,234.85161645503229,134.16489380013303,0.0020680380480774525,False
0.08,0.5964993719538463,1.2,358.0,24.15504,0.2,68900.0,0.33,276.0,2700.0,16.215422823149208,0.6475445826335432,1748.3703731105666,8.968758494689636,2.2304121884793897,7.2466643284595715,1.5828676058458466,3552,104,1166,1797,177.26271785986498,102.30489764471099,0.0013707953810561955,False
0.09,0.42898119947205493,1.2,359.0,24.15504,0.2,68900.0,0.33,276.0,2700.0,9.546804487546563,0.4280793879099502,1155.8143473568655,5.546966755897061,1.0244339553656598,3.999837731649502,0.5963545674557096,2142,76,702,1083,121.97215902899653,70.4184158820425,0.0006972553861318265,False
0.09999999999999999,0.47266837119348704,1.2,360.0,24.15504,0.2,68900.0,0.33,276.0,2700.0,10.926448560819756,0.544228032938595,1469.4156889342066,6.371356138779142,1.2845982342085307,4.555092422040613,0.7403702012699357,2296,80,756,1156,116.87419803064354,67.47717981510263,0.0007234095494183842,False
0.11,0.6456658007305078,1.2,361.0,24.15504,0.3,68900.0,0.33,276.0,2700.0,17.751520747504426,0.9735460012314586,2628.5742033249385,10.106928393758812,2.699104966103486,7.6445923537456135,1.725558964872027,1749,74,572,885,147.2752059252045,84.72392855436814,0.0011616997781479514,False
0.12,0.7164395637193427,1.2,362.0,24.15504,0.3,68900.0,0.33,276.0,2700.0,20.819375709099926,1.2455434278090602,3362.9672550844625,11.851964737901952,3.4754192509741424,8.967410971197975,2.229875823165082,2052,80,670,1041,156.3505832481592,88.33625777111457,0.0018150259151419848,False
0.13,0.6887032768021514,1.2,363.0,24.15504,0.3,68900.0,0.33,276.0,2700.0,19.288191209541203,1.2491310425802207,3372.6538149665957,11.153083307589803,3.1564266337099727,8.1351079019514,1.907295591129752,1857,76,606,942,131.3559430051999,75.38514119906782,0.0011061156620164095,False
0.14,0.703918214335925,1.2,364.0,24.15504,0.3,68900.0,0.33,276.0,2700.0,19.78206182673028,1.3789973077101536,3723.292730817415,11.534065650043548,3.3290110339957617,8.247996176686733,1.950013726285608,1858,76,606,943,124.54170232761557,71.38180105806622,0.001066412353993051,False
0.15000000000000002,0.49427677273926945,1.2,365.0,24.15504,0.3,68900.0,0.33,276.0,2700.0,10.882076733292928,0.809087171526393,2184.535363121261,6.796843141727743,1.426848971736854,4.085233591565185,0.617761800210461,1560,64,508,792,84.7982469693378,48.89905257591638,0.0005297613537116618,False
0.16,0.6211229572344288,1.2,366.0,24.15504,0.3,68900.0,0.33,276.0,2700.0,15.680011366698443,1.2458222669964727,3363.720120890476,9.531183733405799,2.4581483721581354,6.148827633292644,1.2123261051616627,1536,68,502,777,99.78690937766952,57.24599819867464,0.0007184780594490178,False
0.17,0.5745100770624376,1.2,367.0,24.15504,0.3,68900.0,0.33,276.0,2700.0,13.585532469978626,1.1444804968101259,3090.09734138734,8.479383194452751,2.038598290604566,5.106149275525874,0.8941177937944402,1589,68,520,803,87.63024642772588,50.410867691913516,0.0005813109443547659,False
0.18000000000000002,0.7003285714591171,1.2,368.0,24.15504,0.3,68900.0,0.33,276.0,2700.0,18.769083598832335,1.6770030116577541,4527.908131475936,11.443656517179342,3.2877702225194763,7.325427081652993,1.6107672108617221,1711,74,562,862,97.11050926378007,55.18719512062625,0.0008023122032762558,False
0.19,0.7591270887070425,1.2,369.0,24.15504,0.3,68900.0,0.33,276.0,2700.0,21.32679077868814,2.01167966796806,5431.535103513762,12.96535526939088,4.004951319768627,8.361435509297259,1.9932716518005669,1876,78,616,946,97.71947391036842,55.3628393895896,0.0008867866778707268,False
0.2,0.7689272048738147,1.2,370.0,24.15504,0.3,68900.0,0.33,276.0,2700.0,21.584499021150965,2.141694741295905,5782.575801498943,13.22742918153133,4.133295513645749,8.357069839619635,1.9916007723498446,2015,82,662,1016,93.08490606854059,52.66050230789961,0.00085742324418749,False
0.21000000000000002,0.5959403431989765,1.2,371.0,24.15504,0.3,68900.0,0.33,276.0,2700.0,13.737848561426174,1.423077905906484,3842.310345947507,8.95616667287531,2.225401914546509,4.781681888550864,0.802324008640025,1600,68,528,802,73.27961175973341,41.969899539690665,0.0005038997980985506,False
0.22,0.821870783787918,1.2,372.0,24.15504,0.3,68900.0,0.33,276.0,2700.0,23.775132954239925,2.5929635059161114,7001.001465973501,14.6849859993626,4.8718762790349395,9.090146954877325,2.278912773118828,2439,88,800,1233,93.34232822196743,53.80191234394911,0.0009341487293493473,False
0.23,0.8011940729264999,1.2,373.0,24.15504,0.3,68900.0,0.33,276.0,2700.0,22.51400382728004,2.5636279349263833,6921.795424301235,14.107364363798139,4.574229241411024,8.4066394634819,2.010601306484641,2002,82,660,1006,83.2226978579995,47.17347501958496,0.0007903905052421873,False
0.24000000000000005,0.8762495663131113,1.2,374.0,24.15504,0.3,68900.0,0.33,276.0,2700.0,26.139637918405285,3.107803632313153,8391.069807245512,16.255392601973853,5.712789558049311,9.884245316431432,2.6049859257361576,2468,92,812,1244,85.39732408604331,47.94946082792053,0.0008966208475855333,False
0.25,0.696701088746073,1.2,375.0,24.15504,0.3,68900.0,0.33,276.0,2700.0,17.228187194293834,2.1207984758118377,5726.155884691962,11.352623333677807,3.2464237669502727,5.875563860616028,1.125625291138435,1676,72,550,845,69.99247945861411,39.90306134232514,0.0005431656947129485,False
0.26,0.6430504610238716,1.2,376.0,24.15504,0.2,68900.0,0.33,276.0,2700.0,14.776821649369694,1.8841757260983982,5087.2744604656755,10.044855114249255,2.672753123785954,4.7319665351204385,0.7885773976875559,3275,98,1094,1628,63.86257230177709,36.53987534969295,0.0004640525261796984,False
0.27,0.7802605805430314,1.2,377.0,24.15504,0.3,68900.0,0.33,276.0,2700.0,20.65264324599904,2.746882859409467,7416.583720405561,13.533515214206492,4.2849383828428245,7.119128031792549,1.5380555234333575,1919,80,634,962,69.96060300548166,39.73922722117903,0.0006187892868602365,False
0.28,0.688542909263014,1.2,378.0,24.15504,0.3,68900.0,0.33,276.0,2700.0,16.326858751360273,2.239784063902704,6047.4169725373,11.149098686076101,3.154638360696752,5.177760065284172,0.9148542967940481,1583,70,522,794,61.91192179593652,35.276134862632986,0.0004781292973823922,False
0.29000000000000004,0.6711013325406748,1.2,379.0,24.15504,0.3,68900.0,0.33,276.0,2700.0,15.418142841376076,2.184550509847252,5898.286376587581,10.71958911850743,2.9639372752205793,4.698553722868645,0.7793867653733271,1537,66,510,766,58.7368193245103,33.4915637805218,0.00044432278646136715,False
0.3,0.8428914022531924,1.2,380.0,24.15504,0.3,68900.0,0.33,276.0,2700.0,23.08023411219013,3.405486449063906,9194.813412472546,15.283229458252384,5.186832037264225,7.797004653937746,1.7813455882003195,2208,84,732,1104,67.71705179867485,38.4137354041918,0.0006369320867572931,False
0.31,0.8693577200360494,1.2,381.0,24.15504,0.3,68900.0,0.33,276.0,2700.0,24.20148731769546,3.6888364097472683,9959.858306317625,16.052250122955556,5.601460590023638,8.149237194739904,1.91262418027637,2271,86,752,1137,66.30209792980533,37.338878974330875,0.0006495171319418758,False
0.32,1.018974858139606,1.2,382.0,24.15504,0.3,68900.0,0.33,276.0,2700.0,32.14032054439764,5.073822148388403,13699.319800648687,20.730674704232943,8.346123966205543,11.409645840164696,3.27230181781714,2967,102,986,1482,70.69052268086104,39.69813759716965,0.0008480434752469947,False
0.33,1.017706460314441,1.2,383.0,24.15504,0.3,68900.0,0.33,276.0,2700.0,31.816974303328795,5.174534483254546,13971.243104787274,20.688648226323927,8.319855880916982,11.128326077004868,3.1453213976624363,2966,102,986,1481,68.60470506623716,38.578062812180384,0.0008154397028904099,False
0.34,0.8481983456750466,1.2,384.0,24.15504,0.2,68900.0,0.33,276.0,2700.0,22.51320596342855,3.7449269086783943,10111.302653431665,15.436019983390201,5.268344383604192,7.077185980038349,1.5234174749257976,4879,120,1530,2506,63.09150685460949,36.07814017968127,0.000552052251821329,False
0.3500000000000001,0.8711002543599098,1.2,385.0,24.15504,0.3,68900.0,0.33,276.0,2700.0,23.444844341335234,4.013050569718502,10835.236538239957,16.103499908538005,5.629476828011614,7.341344432797229,1.616426258293112,2124,84,708,1056,59.267845752702335,33.31262366399076,0.0005623314921247432,False
0.36000000000000004,1.0015749631143738,1.2,386.0,24.15504,0.3,68900.0,0.33,276.0,2700.0,30.167593279008443,5.332450692324267,14397.61686927552,20.157682236485545,7.990408440068146,10.009911042522898,2.657957747743879,2779,98,920,1393,63.246757871228645,35.66778169266798,0.000713383287682358,False
0.37,0.7089034533013565,1.2,387.0,24.15504,0.3,68900.0,0.33,276.0,2700.0,15.658750856444565,2.7907815133207228,7535.110085965952,11.66016160173731,3.3868251572425168,3.9985892547072552,0.596043643921794,1469,66,488,731,48.54641914806749,27.633230268312293,0.00038906274688874814,False
0.38,1.0699150689630794,1.2,388.0,24.15504,0.3,68900.0,0.33,276.0,2700.0,33.63513677846424,6.2757523398496895,16944.531317594163,22.451923408253865,9.445712444441964,11.183213370210378,3.169960104592275,3066,104,1020,1530,61.933598305934254,34.84053245516522,0.0007558410449009765,False
0.39,1.014384470784002,1.2,389.0,24.15504,0.3,68900.0,0.33,276.0,2700.0,30.1855932363697,5.761953258013228,15557.273796635714,20.57877066491858,8.251310990945443,9.606822571451122,2.4893577329322154,2942,100,976,1472,60.1625723392154,34.24306014675654,0.0006620076173118328,False
0.4,0.8296150367809401,1.2,390.0,24.15504,0.3,68900.0,0.33,276.0,2700.0,20.462678715272382,3.9584944565013114,10687.935032553542,14.904094189984358,4.986447967702524,5.558584525288024,1.027953511201213,1983,78,660,985,50.90021764203001,28.851963978622063,0.0004541742494004917,False
0.4100000000000001,0.897160074640923,1.2,391.0,24.15504,0.3,68900.0,0.33,276.0,2700.0,23.53446510727109,4.680217542138533,12636.587363774039,16.879051548385867,6.0591994439439,6.655413558885222,1.3789819018053668,2149,84,716,1069,52.40398177418191,29.58279288569425,0.000496511467598685,False
0.42000000000000004,0.7548803280796561,1.2,392.0,24.15504,0.3,68900.0,0.33,276.0,2700.0,16.786730108415963,3.370043778421247,9099.118201737367,12.85253837172872,3.9501302730802412,3.934191736687243,0.5800864946589943,1588,68,528,790,44.97897565435989,25.52328881285531,0.0003800767456877507,False
0.43,0.7549019013457596,1.2,393.0,24.15504,0.3,68900.0,0.33,276.0,2700.0,16.629334685563173,3.4087878859901073,9203.72729217329,12.853110328748361,3.9504075504801093,3.7762243568148115,0.541619664490002,1483,66,498,730,45.0051923783743,25.531759749944527,0.0003711502643444701,False
0.44,0.9519005136665318,1.2,394.0,24.15504,0.3,68900.0,0.33,276.0,2700.0,25.71629005614862,5.4791748599504375,14793.77212186618,18.563732516502057,7.028932679095057,7.152557539646562,1.5497578191446193,2193,86,732,1089,50.67086962618656,28.594427975011836,0.0005094382245409153,False
0.45,1.1147932061301866,1.2,395.0,24.15504,0.3,68900.0,0.33,276.0,2700.0,34.588504676450235,7.591561798495726,20497.21685593846,24.022374410430473,10.488363095134797,10.566130266019762,2.8968012966390715,3104,104,1028,1550,54.65730348188413,31.547230637843267,0.0006648690752908877,False
0.46,0.8691248419773339,1.2,396.0,24.15504,0.3,68900.0,0.33,276.0,2700.0,21.233533873494245,4.679852749217133,12635.602422886259,16.04540671276891,5.597723170043324,5.188127160725337,0.9178704208261905,2217,80,668,1159,46.6122158290766,26.39789615686584,0.000432939768472902,False
0.4700000000000001,0.9082097350085199,1.2,397.0,24.15504,0.3,68900.0,0.33,276.0,2700.0,22.930162785796984,5.171141871946523,13962.083054255614,17.21304707423958,6.247549673877571,5.717115711557405,1.0764078019310475,2310,84,724,1184,47.070132786917156,26.5545064909666,0.0004520562292969622,False
0.4800000000000001,1.045361716347996,1.2,398.0,24.15504,0.3,68900.0,0.33,276.0,2700.0,29.893498771973906,6.94281636210987,18745.60417769665,21.614134181452428,8.904758721356751,8.279364590521478,1.9619423592468817,2707,94,892,1353,49.71427324387759,28.03116901373579,0.0005435088215192556,False
0.49,1.059069264047392,1.2,399.0,24.15504,0.3,68900.0,0.33,276.0,2700.0,30.4401560282239,7.2114347375134,19470.87379128618,22.07998357253404,9.204222928669678,8.36017245568986,1.9927881911562775,2781,96,912,1389,49.52310711712139,28.246218651402273,0.0005424885399175175,False
0.5,1.140733660089198,1.2,400.0,24.15504,0.3,68900.0,0.33,276.0,2700.0,34.943222554303894,8.474006250776824,22879.816877097426,24.95321151498857,11.123551002292482,9.990011039315323,2.6495447515156574,3319,104,1022,1716,52.115640548467354,29.982384989884366,0.0006117559757247983,False
0.01,0.5499541404962272,1.2,401.0,27.174419999999998,0.05,68900.0,0.33,276.0,2700.0,15.682139364818575,0.07840860242899127,211.7032265582764,7.947249751225417,1.8369436241812682,7.7348896135931575,1.758535021752277,49950,394,16568,25092,1640.4067671067198,932.2547634733642,0.011035437112837896,True
0.02,0.4892388562650904,1.2,402.0,27.174419999999998,0.1,68900.0,0.33,276.0,2700.0,13.00149866698471,0.1299982315090282,350.99522507437615,6.696593418791085,1.3928598363666633,6.304905248193625,1.262861604857635,10533,178,3494,5286,620.7349549174518,356.56521348463104,0.004444003491695298,True
0.03,0.5645041579049191,1.2,403.0,27.174419999999998,0.1,68900.0,0.33,276.0,2700.0,15.880934692248914,0.23815747171596963,643.025173633118,8.260722868724628,1.9548503147427672,7.620211823524286,1.7166928430267976,12637,200,4166,6382,559.1616406398958,318.90149100472644,0.0038178959620319675,True
0.04,0.4852685408869458,1.2,404.0,27.174419999999998,0.1,68900.0,0.33,276.0,2700.0,12.466742911901292,0.24920081695147278,672.8422057689766,6.618037380122456,1.3664283257381955,5.848705531778836,1.1172275087867227,9950,172,3268,5042,353.68218243382876,201.95234121974056,0.0021656848956854275,True
0.05,0.36329934120516866,1.2,405.0,27.174419999999998,0.1,68900.0,0.33,276.0,2700.0,7.993494711610963,0.19957556840247495,538.8540346866823,4.397802660029754,0.6984319524504907,3.595692051581209,0.4988563840480158,6522,132,2136,3312,197.47553884815304,113.15882588426949,0.0010794100412983142,False
0.06000000000000001,0.3832697113275152,1.2,406.0,27.174419999999998,0.1,68900.0,0.33,276.0,2700.0,8.486354471390083,0.2541382447995856,686.1732609588811,4.73573099391566,0.7896152954445063,3.7506234774744227,0.5354770506449207,7489,142,2458,3796,175.10373674805112,100.60509323998302,0.000979085087340603,False
0.06999999999999999,0.7471002724185644,1.2,407.0,27.174419999999998,0.2,68900.0,0.33,276.0,2700.0,23.513488007457923,0.8222537027409054,2220.0849974004445,12.64703390227635,3.8509372135621063,10.866454105181573,3.028683510821201,5085,128,1670,2574,294.2047320643314,168.0642052833906,0.002747050924215969,True
0.08,0.6214221811674628,1.2,408.0,27.174419999999998,0.2,68900.0,0.33,276.0,2700.0,17.304019544186392,0.6910884514750314,1865.9388189825847,9.538111995794571,2.461001366936165,7.765907548391821,1.7699129154611337,3584,106,1180,1808,216.28786937894856,123.90924385959062,0.0016686381728283697,False
0.09,0.7691056059283552,1.2,409.0,27.174419999999998,0.3,68900.0,0.33,276.0,2700.0,24.147972370273465,1.0851319426326596,2929.8562451081807,13.232222338447203,4.1356557285008195,10.915750031826262,3.05052378586816,2347,90,770,1186,235.0354425015917,134.78310698141703,0.0022880778072626815,False
0.09999999999999999,0.7756305032756579,1.2,410.0,27.174419999999998,0.3,68900.0,0.33,276.0,2700.0,24.23846625216355,1.2098289175057868,3266.5380772656245,13.40807842783714,4.222567760593488,10.830387824326412,3.0127388430877016,2441,90,798,1238,213.4665172573895,122.3129745147158,0.0020825618659452015,False
0.11,0.7920333433406799,1.2,411.0,27.174419999999998,0.3,68900.0,0.33,276.0,2700.0,24.842788693772818,1.3635657382762225,3681.6274933458008,13.854886333391777,4.446153542872035,10.98790236038104,3.0825878045958124,2355,90,770,1194,196.92954954277135,112.03737659175113,0.001972596303519045,False
0.12,0.42361614167642925,1.2,412.0,27.174419999999998,0.3,68900.0,0.33,276.0,2700.0,8.896648174832256,0.5301797757530005,1431.4853945331013,5.44903365325338,0.9949371899388892,3.447614521578876,0.4647574141858888,1687,66,554,850,103.01315072761327,59.46920943322262,0.0005913038260376457,False
0.13,0.7913515721410889,1.2,413.0,27.174419999999998,0.3,68900.0,0.33,276.0,2700.0,24.31900714708644,1.5761340785206623,4255.562012005788,13.836180424243384,4.436714057635084,10.482826722843058,2.860579979114421,2239,88,736,1129,167.21070417014226,95.06352712184777,0.0016450095906358725,False
0.14,0.7047208341079587,1.2,414.0,27.174419999999998,0.3,68900.0,0.33,276.0,2700.0,19.819756079084325,1.3816359053749356,3730.416944512326,11.55432481867306,3.3382766322601722,8.265431260411265,1.9566407268852366,1858,76,606,943,140.25426796396934,80.38480714014156,0.0012024487809320613,False
0.15000000000000002,0.760575772676332,1.2,415.0,27.174419999999998,0.3,68900.0,0.33,276.0,2700.0,22.29235451831133,1.6648580054027713,4495.116614587482,13.003943823353294,4.023761967045643,9.288410694958037,2.3589039616428717,2161,82,702,1102,140.70007419060468,80.0734607124951,0.0012973967988013535,False
0.16,0.6545898899392695,1.2,416.0,27.174419999999998,0.3,68900.0,0.33,276.0,2700.0,17.1231244810436,1.3612713161440855,3675.4325535890307,10.320029551329553,2.790249475081196,6.803094929714048,1.4289781589371104,1652,72,540,836,117.38403635669543,67.13774958187635,0.0008973111803187343,False
0.17,0.49154139112669587,1.2,417.0,27.174419999999998,0.3,68900.0,0.33,276.0,2700.0,10.4659202984303,0.8793134622285179,2374.146348016998,6.742332515013253,1.4083316085323707,3.723587783417047,0.5290181463038528,1389,60,456,699,84.07125229397744,48.401160729745406,0.0005261659788483029,False
0.18000000000000002,0.5840888559150033,1.2,418.0,27.174419999999998,0.3,68900.0,0.33,276.0,2700.0,13.789759851105469,1.2288638743623357,3317.9324607783064,8.691066601101607,2.1208324205743074,5.098693250003862,0.8919685462119717,1573,68,516,793,93.76091337367255,53.688291684865284,0.0006348394447893399,False
0.19,0.8483762130832682,1.2,419.0,27.174419999999998,0.3,68900.0,0.33,276.0,2700.0,25.852202295613846,2.441593762075998,6592.303157605194,15.44115316689828,5.271090404973132,10.411049128715566,2.8294966428971344,2422,90,792,1228,120.37619259459828,68.28868385499004,0.001241304015196922,False
0.2,0.5662925416608968,1.2,420.0,27.174419999999998,0.3,68900.0,0.33,276.0,2700.0,12.747433401732545,1.25798817935411,3396.568084256097,8.299619916372293,1.9696584267783557,4.447813485360252,0.7116702474242458,1618,68,532,814,84.87436803169739,48.76696034765431,0.0005513324933839924,False
0.21000000000000002,0.6419596653474149,1.2,421.0,27.174419999999998,0.3,68900.0,0.33,276.0,2700.0,15.620664224285893,1.6207735505067558,4376.088586368241,10.019016634388331,2.6618103342260024,5.601647589897562,1.0410367837192467,1620,70,526,825,87.61740354459685,49.97841791249808,0.0006348494573574118,False
0.22,0.7062343681423358,1.2,422.0,27.174419999999998,0.3,68900.0,0.33,276.0,2700.0,18.22968306352096,1.982964017937024,5354.002848429965,11.592572441789054,3.3557934333954926,6.637110621731905,1.3728294154584686,1745,74,574,878,90.2072972264286,51.217452055296384,0.0007286404607829571,False
0.23,0.7650330283051883,1.2,423.0,27.174419999999998,0.3,68900.0,0.33,276.0,2700.0,20.754309953010274,2.361263139385363,6375.41047634048,13.123002416305079,4.0819890206767235,7.6313075367051955,1.7207258812913606,2022,80,662,1023,91.0646956664409,51.5976751742803,0.0008102160449275245,False
0.24000000000000005,0.6672740322453867,1.2,424.0,27.174419999999998,0.3,68900.0,0.33,276.0,2700.0,16.14208828805301,1.9080976766708768,5151.863727011368,10.626362424294832,2.923088709317505,5.515725863758178,1.0149910326466283,1502,68,494,755,82.21385030693403,46.97542658000652,0.0005926237138441306,False
0.25,0.5831385469476658,1.2,425.0,27.174419999999998,0.3,68900.0,0.33,276.0,2700.0,12.576399994789725,1.5393250758738224,4156.17770485932,8.669962486888888,2.11258325155948,3.9064375079008364,0.5732581756856574,1451,64,478,728,68.79849021688752,39.48729920372191,0.00047016549939800416,False
0.26,0.7829055617774099,1.2,426.0,27.174419999999998,0.3,68900.0,0.33,276.0,2700.0,20.98405474429372,2.6911160284385227,7266.013276784011,13.605414129089418,4.320829323505015,7.378640615204301,1.6297132950664919,1933,80,638,970,164.52024493925606,91.70275273709348,0.0007536207626293214,False
0.27,0.6757910023676514,1.2,427.0,27.174419999999998,0.3,68900.0,0.33,276.0,2700.0,15.963173931598591,2.1138045019654044,5707.272155306592,10.834323628941316,3.0144774263373217,5.128850302657275,0.9006729243719174,1584,70,522,795,71.77022277032769,40.933027571835886,0.0005407378998406993,False
0.28,0.5966578194415966,1.2,428.0,27.174419999999998,0.2,68900.0,0.33,276.0,2700.0,12.619929886366986,1.7208140228036428,4646.197861569835,8.972328867643162,2.231833548581093,3.647601018723824,0.5110195257774501,2683,86,888,1343,61.72262812716233,35.311795051851185,0.0004408644529647633,False
0.29000000000000004,0.820387230562145,1.2,429.0,27.174419999999998,0.3,68900.0,0.33,276.0,2700.0,22.17726279564422,3.1646229032161446,8544.48183868359,14.643183853031731,4.850121335378283,7.53407894261249,1.6854984321621385,2215,84,734,1108,76.6285886075229,43.35556563765883,0.0007075136345103181,False
0.3,0.9820962070258266,1.2,430.0,27.174419999999998,0.3,68900.0,0.33,276.0,2700.0,30.514712226342176,4.520658166186712,12205.777048704122,19.52525826575014,7.6039367595860625,10.989453960592037,3.083278593399351,2864,100,948,1436,82.4793097767875,46.51134691596386,0.0009627954427982095,False
0.31,0.9488998729569647,1.2,431.0,27.174419999999998,0.3,68900.0,0.33,276.0,2700.0,28.41613110068472,4.342106196110656,11723.686729498771,18.469434428101458,6.973371121511385,9.946696672583261,2.631264925400729,2541,94,836,1281,78.53059547878006,44.415847804813076,0.0008675229389111277,False
0.32,0.9326350078126991,1.2,432.0,27.174419999999998,0.3,68900.0,0.33,276.0,2700.0,27.297822835655523,4.299022514989667,11607.360790472101,17.962232711303102,6.677102056777531,9.335590124352422,2.378079541787864,2556,92,844,1284,74.8531571827209,42.30910421628991,0.0008044197016812804,False
0.33,0.8538459180284563,1.2,433.0,27.174419999999998,0.3,68900.0,0.33,276.0,2700.0,22.997494939838596,3.719320388278664,10042.165048352394,15.599394884445097,5.355981381833454,7.398100055393499,1.6366609935547896,2069,82,690,1028,69.37903584234849,39.13297948630501,0.0006548262474794363,False
0.34,0.6859117929798118,1.2,434.0,27.174419999999998,0.3,68900.0,0.33,276.0,2700.0,15.195558295024007,2.5009268050496196,6752.502373633973,11.083816140443611,3.125389706733812,4.111742154580396,0.6244629016841925,1495,66,494,748,58.17585198546193,33.02088949432939,0.00044887516964587157,False
0.3500000000000001,0.671103743362166,1.2,435.0,27.174419999999998,0.3,68900.0,0.33,276.0,2700.0,14.436401635696424,2.4365730962317786,6578.747359825802,10.71964795814691,2.9639631183073223,3.716753677549514,0.5273900220755436,1460,64,486,725,55.735067670006785,31.808965642661708,0.0004257623198284461,False
0.36000000000000004,0.9481202202273753,1.2,436.0,27.174419999999998,0.3,68900.0,0.33,276.0,2700.0,27.22581614654834,4.802930808481445,12967.913182899902,18.4449701105787,6.958980914373577,8.780846035969638,2.156050105892132,2555,92,846,1280,68.24490561093441,38.43137835547541,0.0007221937602153593,False
0.37,1.0521582464326755,1.2,437.0,27.174419999999998,0.3,68900.0,0.33,276.0,2700.0,32.83550851352297,5.968481679880226,16114.900535676608,21.84452320016455,9.052442099986497,10.990985313358419,3.083960420106271,3050,104,1016,1520,70.77760178550132,40.17216670578511,0.000851727306142641,False
0.38,0.7298540861550071,1.2,438.0,27.174419999999998,0.3,68900.0,0.33,276.0,2700.0,16.372847072808042,2.995917295774985,8088.976698592459,12.196912265674952,3.636716295298137,4.175934807133091,0.640798999523152,1555,68,518,772,54.28173632744871,30.55644115599973,0.0004424355388849711,False
0.39,1.0594109112399024,1.2,439.0,27.174419999999998,0.3,68900.0,0.33,276.0,2700.0,32.770022592680306,6.265916982493797,16917.975852733252,22.091654728977428,9.211768486693309,10.678367863702878,2.9458515041995117,3150,104,1046,1575,68.61255742904318,38.49960585994971,0.0008095434640196906,False
0.4,0.8915729861574063,1.2,440.0,27.174419999999998,0.2,68900.0,0.33,276.0,2700.0,23.454301041426792,4.556818921732194,12303.411088676925,16.71133997480972,5.965363564396924,6.74296106661707,1.4085446426647295,6334,122,1584,3558,64.27505936263982,36.44947255320452,0.0005780329863434957,False
0.4100000000000001,0.9070167268449487,1.2,441.0,27.174419999999998,0.3,68900.0,0.33,276.0,2700.0,24.02847193567938,4.781488941962236,12910.020143298036,17.176838523881187,6.227035970302371,6.851633411798193,1.445547028340135,2161,84,720,1075,60.99836062719698,34.58472078496482,0.0005676028524938277,False
0.42000000000000004,0.8341783456931222,1.2,442.0,27.174419999999998,0.3,68900.0,0.33,276.0,2700.0,20.312422572547348,4.110439195888838,11098.185828899863,15.033909680686627,5.054755948619824,5.278512891860721,0.9443167527309857,2024,78,652,1022,55.14161983122338,31.358355883185226,0.0004954938406880352,False
0.43,0.8887570585087645,1.2,443.0,27.174419999999998,0.3,68900.0,0.33,276.0,2700.0,22.73075008354416,4.7205921965560185,12745.59893070125,16.627109638566907,5.918424280147578,6.103640444977252,1.1978320835915595,2089,82,692,1041,55.5990117950883,31.184589724995057,0.0005282122561401429,False
0.44,1.1185469495454692,1.2,444.0,27.174419999999998,0.3,68900.0,0.33,276.0,2700.0,35.05803245983588,7.534358188761633,20342.767109656408,24.156025703265062,10.578787660449914,10.902006756570817,3.0444294716882805,3175,106,1060,1579,63.11083824990048,35.615188216319176,0.0007755258363439609,False
0.45,0.762663831636151,1.2,445.0,27.174419999999998,0.3,68900.0,0.33,276.0,2700.0,16.64555764250302,3.5543987158576003,9596.87653281552,13.059656192614327,4.050973114747684,3.585901449888695,0.4965743988900839,1514,66,494,757,47.64578971756136,27.068272485648517,0.00041068876332149627,False
0.46,0.9029091314541193,1.2,446.0,27.174419999999998,0.3,68900.0,0.33,276.0,2700.0,22.857026251247383,5.053255996100354,13643.791189470956,17.052444016799196,6.156736093856144,5.804582234448187,1.1034800977557895,2175,82,698,1102,54.042641140954615,30.168225926902807,0.0005112740502660877,False
0.4700000000000001,0.9374603059320888,1.2,447.0,27.174419999999998,0.3,68900.0,0.33,276.0,2700.0,24.382570748287616,5.512457743131823,14883.635906455922,18.112010607491268,6.76413631069487,6.2705601407963485,1.2516785675630473,2166,84,716,1078,53.60112133009707,30.29568008582754,0.0005279210897993184,False
0.4800000000000001,0.9718261205305643,1.2,448.0,27.174419999999998,0.3,68900.0,0.33,276.0,2700.0,25.94365271867502,5.994853309318137,16186.103935158972,19.195654890615995,7.405105464660447,6.747997828059024,1.4102521553423095,2638,90,830,1347,53.978549391801,30.51830666731654,0.000551266791087809,False
0.49,1.0536125009234092,1.2,449.0,27.174419999999998,0.3,68900.0,0.33,276.0,2700.0,30.13532985931407,7.136752326130489,19269.23128055232,21.89397035127146,9.084245543877655,8.24135950804261,1.9474932177471658,2899,96,934,1466,55.4884626637746,31.695035264105776,0.0006073550508576512,False
0.5,0.936686135229889,1.2,450.0,27.174419999999998,0.3,68900.0,0.33,276.0,2700.0,23.776818013340627,5.6824051155360085,15342.493811947223,18.087940834344565,6.750123840752993,5.688877178996062,1.0677187252169844,2446,84,724,1288,55.05768144510648,31.06951329886603,0.0005054168337158646,False
0.01,0.46561033021020737,1.2,451.0,30.1938,0.05,68900.0,0.33,276.0,2700.0,12.27867799595498,0.06139129558467305,165.75649807861723,6.234920111002808,1.2401111633953033,6.043757884952173,1.17871986781063,39622,342,13132,19918,1455.411401781637,827.1074632376926,0.009065905423012088,True
0.02,0.6023490872802201,1.2,452.0,30.1938,0.1,68900.0,0.33,276.0,2700.0,17.753439003449046,0.17751763487366903,479.2976141589064,9.100991288687485,2.283263215365076,8.65244771476156,2.1057455804914067,14142,214,4686,7107,882.6815809022809,503.12990605908317,0.007230228669675669,True
0.03,0.6960373229282095,1.2,453.0,30.1938,0.1,68900.0,0.33,276.0,2700.0,21.932318582760672,0.32892823007364297,888.106221198836,11.33600164897337,3.238893800703866,10.596316933787302,2.9099655706302228,17130,240,5654,8643,755.9217131596565,430.287653441103,0.00628330279419988,True
0.04,0.35024196090345483,1.2,454.0,30.1938,0.1,68900.0,0.33,276.0,2700.0,7.730955088358699,0.15448506048062088,417.1096632976764,4.18227170647668,0.6424199680253826,3.548683381882019,0.4879349075447617,6414,130,2098,3261,267.1943155299364,152.67781309319142,0.0014023009626368003,False
0.05,0.4134023036888553,1.2,455.0,30.1938,0.1,68900.0,0.33,276.0,2700.0,9.664110312982269,0.24134095843675737,651.6205877792449,5.264591080487772,0.9402258079408847,4.399519232494496,0.6988848495041273,7814,148,2570,3953,259.92351708842915,148.8257197135882,0.0014482609150094467,False
0.06000000000000001,0.6422057293427509,1.2,456.0,30.1938,0.2,68900.0,0.33,276.0,2700.0,18.67411161001073,0.5597709589582048,1511.381589187153,10.024842721293137,2.6642763702523045,8.649268888717593,2.1045054112940997,4120,114,1362,2071,312.0516030299049,179.9246911553086,0.002653370901344175,True
0.06999999999999999,0.635957807318848,1.2,457.0,30.1938,0.2,68900.0,0.33,276.0,2700.0,18.169714531614858,0.6352216310863965,1715.0984039332707,9.877381145834258,2.6021031096573553,8.2923333857806,1.9668814785709587,3833,108,1256,1943,272.89637156099803,156.26236267787465,0.0022245419280267566,False
0.08,0.6529465561236358,1.2,458.0,30.1938,0.2,68900.0,0.33,276.0,2700.0,18.72568705347234,0.7479551518464681,2019.4789099854638,10.280637508764366,2.773322597973684,8.445049544707972,2.025367446127216,4046,112,1332,2042,258.0935984066312,147.84554919507124,0.0020393479695846417,False
0.09,0.6980445473194762,1.2,459.0,30.1938,0.3,68900.0,0.33,276.0,2700.0,20.616862869330255,0.9262320150900188,2500.826440743051,11.386299424089879,3.2616981622363403,9.230563445240376,2.3354661471463216,2052,80,672,1038,241.0098591051153,138.33152842498458,0.0020897539513739004,False
0.09999999999999999,0.5457388416402156,1.2,460.0,30.1938,0.2,68900.0,0.33,276.0,2700.0,13.714944531250335,0.6836528314601238,1845.8626449423343,7.857427185254349,1.803633062747663,5.857517345995986,1.1199802312875393,3037,94,994,1540,167.05545110516476,96.38871259881819,0.0011515148575993277,False
0.11,0.502312042503158,1.2,461.0,30.1938,0.3,68900.0,0.33,276.0,2700.0,11.850094749441736,0.6489675713380102,1752.2124426126275,6.958057384694394,1.4821100533137552,4.892037364747342,0.833142481975745,1730,68,562,881,145.10143032966812,83.72879256034668,0.0009048018189348663,False
0.12,0.7656297763504052,1.2,462.0,30.1938,0.3,68900.0,0.33,276.0,2700.0,23.24505237763273,1.3910840279210281,3755.926875386776,13.138980165270883,4.089824913616187,10.106072212361848,2.698740885695159,2195,86,716,1115,195.35053122490632,111.82074496794483,0.001864991013749128,False
0.13,0.7440096618846423,1.2,463.0,30.1938,0.3,68900.0,0.33,276.0,2700.0,21.932964219895172,1.4210412882531747,3836.8114782835714,12.565819881964053,3.8119757196431685,9.36714433793112,2.3909344313899936,2173,82,706,1108,175.89922624886646,100.50168442370219,0.0016120904416576634,False
0.14,0.46155685911219246,1.2,464.0,30.1938,0.1,68900.0,0.33,276.0,2700.0,9.88095956675671,0.6859201495120032,1851.9844036824086,6.157130154329193,1.214995894086434,3.7238294124275164,0.5290757445744309,8312,152,2756,4172,102.73469148148615,59.25066573240956,0.0006393361997940156,False
0.15000000000000002,0.5681694356631699,1.2,465.0,30.1938,0.3,68900.0,0.33,276.0,2700.0,13.690878664213914,1.0197473163453765,2753.3177541325167,8.340528495385675,1.9852743103061896,5.350350168828239,0.9655269939608131,1700,70,556,860,122.585137271878,70.43285231122206,0.0008070622418630425,False
0.16,0.5189503150569126,1.2,466.0,30.1938,0.3,68900.0,0.33,276.0,2700.0,11.622575061478178,0.9212273625788525,2487.313878962902,7.297035294675512,1.6006904651520235,4.325539766802667,0.679463102573171,1749,68,574,882,103.422274497286,59.600401279820645,0.0006651014413313988,False
0.17,0.5912750616949244,1.2,467.0,30.1938,0.3,68900.0,0.33,276.0,2700.0,14.257916570862523,1.2016331453852573,3244.4094925401946,8.851389996634794,2.1838634948283144,5.40652657422773,0.9822303494430571,1691,70,552,857,113.40760205624665,65.12804505042615,0.0007604606990172208,False
0.18000000000000002,0.6902202174219928,1.2,468.0,30.1938,0.3,68900.0,0.33,276.0,2700.0,18.30911250892583,1.6356056135661676,4416.135156628653,11.19080641406239,3.173373803361198,7.1183060948634385,1.5377681897950302,1699,74,558,856,119.99258060286128,68.23460079014014,0.0009726367747545843,False
0.19,0.7096979424409775,1.2,469.0,30.1938,0.3,68900.0,0.33,276.0,2700.0,18.992745339224108,1.789945351218972,4832.852448291224,11.680315005144031,3.3960970337811323,7.3124303340800765,1.6061516825621602,1696,74,558,853,116.77293353683764,66.35533680947267,0.0009706045327392616,False
0.2,0.772570178450195,1.2,470.0,30.1938,0.3,68900.0,0.33,276.0,2700.0,21.762258468106303,2.1594706859914843,5830.5708521770075,13.325464696228869,4.1816611577749185,8.436793771877435,2.0221904717834343,2007,82,660,1011,116.81277122765346,66.06759673900606,0.0010818228677574714,False
0.21000000000000002,0.7949740337830378,1.2,471.0,30.1938,0.3,68900.0,0.33,276.0,2700.0,22.64644930429591,2.358480983907735,6367.898656550885,13.935704579640955,4.487015252154175,8.710744724654955,2.1285342682464403,2282,86,748,1154,113.48981396249584,64.064725635483,0.001079053173129573,False
0.22,0.7108980904484745,1.2,472.0,30.1938,0.3,68900.0,0.33,276.0,2700.0,18.440328779485352,2.0061350466931045,5416.564626071382,11.710788633618355,3.4101334233732197,6.729540145866997,1.4039983766801152,1731,74,570,870,102.11770215176945,58.00640254303567,0.0008209118396502758,False
0.23,0.5489148523201293,1.2,473.0,30.1938,0.3,68900.0,0.33,276.0,2700.0,11.607707595720823,1.3094038682970763,3535.390444402106,7.925062385597019,1.828695673366776,3.6826452101238045,0.5192918050696997,1549,64,508,781,76.82821761510647,44.08545515230586,0.000518555208725837,False
0.24000000000000005,0.608194118556658,1.2,474.0,30.1938,0.3,68900.0,0.33,276.0,2700.0,13.713679460455115,1.6166886173591295,4365.05926686965,9.233977188589426,2.3368470292323655,4.479702271865689,0.720158411873236,1439,64,472,725,82.52834597667403,47.10624811883556,0.0005755208786871552,False
0.25,0.6474351307387617,1.2,475.0,30.1938,0.3,68900.0,0.33,276.0,2700.0,15.130527084557686,1.858590962094785,5018.195597655919,10.149019707061864,2.717024682912985,4.981507377495822,0.8584337208182002,1507,68,496,757,83.09423019619594,47.34170850447178,0.0006078118224405478,False
0.26,0.818512190636882,1.2,476.0,30.1938,0.3,68900.0,0.33,276.0,2700.0,22.721414326810553,2.9169727741657088,7875.826490247414,14.59042990493761,4.822714252707036,8.130984421872943,1.9057414785413274,2228,84,736,1118,94.12535794113514,53.40484021823224,0.0008928680077150262,False
0.27,0.8560546227958112,1.2,477.0,30.1938,0.3,68900.0,0.33,276.0,2700.0,24.39830077215193,3.2525466254401016,8781.875888688275,15.663507104116318,5.390506619598311,8.734793668035612,2.137959994158209,2425,88,798,1222,93.00162853611275,52.648905253850984,0.0009294664227636198,False
0.28,0.7251459920472108,1.2,478.0,30.1938,0.3,68900.0,0.33,276.0,2700.0,17.921741251241176,2.4630676138860306,6650.282557492283,12.075330949106952,3.579578511238601,5.846410302134224,1.1165108973525704,1782,74,586,897,81.0269674614881,45.855957391190614,0.0006424720249818761,False
0.29000000000000004,0.6681736806772529,1.2,479.0,30.1938,0.3,68900.0,0.33,276.0,2700.0,15.296789323302637,2.1669542497266163,5850.776474261864,10.648243271550507,2.9326585406189,4.648546051752129,0.7657042908922835,1374,64,456,684,72.6523765014588,41.38717897443664,0.0005543286412830603,False
0.3,0.7821747461028443,1.2,480.0,30.1938,0.3,68900.0,0.33,276.0,2700.0,20.142629357335164,2.9648457358354094,8005.083486755606,13.585530679729745,4.31089353998647,6.557098677605419,1.3460478041510604,1974,80,650,993,80.58794038402412,45.830363163555496,0.0006859069541453855,False
0.31,0.976101290211961,1.2,481.0,30.1938,0.3,68900.0,0.33,276.0,2700.0,29.930408186626213,4.576819144431671,12357.411689965511,19.332538129115427,7.487462582347918,10.597870057510786,2.9106434379162476,2779,98,920,1393,88.66859464719126,50.05642301552461,0.0010145969756469807,False
0.32,0.7664623332655817,1.2,482.0,30.1938,0.3,68900.0,0.33,276.0,2700.0,19.032370516875137,2.976550143984802,8036.685388758965,13.161286579324624,4.100773146882137,5.871083937550512,1.124223002897335,1894,78,626,949,74.07126560471309,41.911926388135385,0.0006179601261618908,False
0.33,0.6532161310322732,1.2,483.0,30.1938,0.3,68900.0,0.33,276.0,2700.0,14.03687899023046,2.2408187565933173,6050.210642801957,10.287094783948614,2.7760948702095,3.749784206281845,0.5352761136161828,1291,62,428,643,61.91421163727989,35.434561190816,0.00048117120196156376,False
0.34,0.8957591707691235,1.2,484.0,30.1938,0.3,68900.0,0.33,276.0,2700.0,24.908604336460066,4.1521446320937505,11210.790506653126,16.836925934557296,6.035583028003378,8.07167840190277,1.8834383959096277,2285,86,756,1145,77.85726324141176,44.159684989698086,0.0007681184834665808,False
0.3500000000000001,0.7054038821267081,1.2,485.0,30.1938,0.3,68900.0,0.33,276.0,2700.0,15.838543125543659,2.6819478569550323,7241.259213778588,11.571578592614225,3.346174682846167,4.266964532929434,0.6642268258911348,1451,66,482,722,63.2012470789233,35.891392841091594,0.0005052133224460435,False
0.36000000000000004,0.8599558364298618,1.2,486.0,30.1938,0.3,68900.0,0.33,276.0,2700.0,22.68766332520951,3.9860633006404558,10762.370911729231,15.777047424066268,5.451834655238597,6.910615901143242,1.4657713545981408,2192,84,728,1094,72.9486631543958,41.370414594666265,0.000661585703522227,False
0.37,0.9154509986926983,1.2,487.0,30.1938,0.3,68900.0,0.33,276.0,2700.0,25.28490139639303,4.571619363211188,12343.372280670208,17.43359148351484,6.37299160141475,7.85130991287819,1.8013722382035615,2333,88,774,1166,72.28913326972578,40.71337816105315,0.0007221988022400759,False
0.38,0.7783135783324027,1.2,488.0,30.1938,0.3,68900.0,0.33,276.0,2700.0,18.477616822123224,3.3958235481448944,9168.723579991214,13.480701916956782,4.258640028064602,4.996914905166442,0.8628164799197076,1832,76,606,915,62.83100074314409,35.487442029586475,0.0005390692617417412,False
0.39,0.7638796667223116,1.2,489.0,30.1938,0.3,68900.0,0.33,276.0,2700.0,17.667735895267278,3.3209710764982603,8966.621906545302,13.092146873045888,4.066871250850193,4.57558902222139,0.7459001743519327,1526,68,510,755,61.23622183814632,34.821526286909524,0.0005124571275426768,False
0.4,1.0020564136859376,1.2,490.0,30.1938,0.3,68900.0,0.33,276.0,2700.0,29.267789396246826,5.719516592696198,15442.694800279736,20.17343443104702,8.000117159420114,9.094354965199805,2.2806005667239155,2806,96,932,1402,71.24786417320067,40.01676880088476,0.0007831596076062657,False
0.4100000000000001,0.940659486373999,1.2,491.0,30.1938,0.3,68900.0,0.33,276.0,2700.0,25.751398022864986,5.134688789835279,13863.659732555252,18.211636195214034,6.822239192333485,7.539761827650953,1.6875504024982062,2331,88,776,1161,68.10545046610808,38.312096207895955,0.0006712326410574801,False
0.42000000000000004,1.0922503696871049,1.2,492.0,30.1938,0.3,68900.0,0.33,276.0,2700.0,33.97484012406109,6.979546881706724,18844.776580608155,23.22719050990009,9.955817481117535,10.747649614160999,2.976270599410811,3130,104,1042,1561,71.64361930083716,40.51841553439202,0.0008701279237135194,False
0.43,0.9591160137232164,1.2,493.0,30.1938,0.3,68900.0,0.33,276.0,2700.0,26.298982105987765,5.487762081381171,14816.957619729163,18.791413033912104,7.1636999197253,7.507569072075661,1.6759378383441286,2584,92,862,1283,64.6519044148199,36.82146186401767,0.0006592105934381107,False
0.44,1.0797492607708752,1.2,494.0,30.1938,0.3,68900.0,0.33,276.0,2700.0,32.75847604949503,7.028455778486504,18976.83060191356,22.79172719820091,9.668177821584244,9.96674885129412,2.6397220430977404,2972,102,992,1476,68.63242746978376,38.57987620484411,0.0008058067930030374,False
0.45,0.9100745031358883,1.2,495.0,30.1938,0.3,68900.0,0.33,276.0,2700.0,23.398501074286177,5.073810988008811,13699.289667623789,17.26971561726567,6.279700838701889,6.128785457020506,1.2058898506930786,2161,84,716,1075,61.08982526195703,34.60144655417014,0.0005839122805665077,False
0.46,1.1084182954603998,1.2,496.0,30.1938,0.3,68900.0,0.33,276.0,2700.0,33.96865099679384,7.608929687576036,20544.110156455296,23.796208376565446,10.335944040924765,10.172442620228395,2.7270143533487294,3125,104,1022,1570,66.65370972682213,37.66324216775392,0.000800759706292718,False
0.4700000000000001,0.8488442916950272,1.2,497.0,30.1938,0.3,68900.0,0.33,276.0,2700.0,20.114647372315048,4.509495749778268,12175.638524401324,15.454665531187967,5.278321240721022,4.659981841127081,0.7688254909427537,1908,74,626,953,55.68785569034487,31.757854585564743,0.0005086342624547034,False
0.4800000000000001,1.125333800559678,1.2,498.0,30.1938,0.3,68900.0,0.33,276.0,2700.0,34.49760823216677,8.047802632556152,21729.06710790161,24.39856915907209,10.743553406410893,10.09903907309468,2.6957507738547406,3200,104,1028,1622,66.18619532670738,36.88711119145563,0.0007836260362940285,False
0.49,0.9243438003408713,1.2,499.0,30.1938,0.3,68900.0,0.33,276.0,2700.0,23.351817071232766,5.4747916930505705,14781.93757123654,17.706239141055978,6.529235900358137,5.645577930176788,1.0544442073075668,2412,84,724,1264,58.23602264308578,32.58798121262866,0.0005616335221921911,False
0.5,1.164240490235414,1.2,500.0,30.1938,0.3,68900.0,0.33,276.0,2700.0,36.36405982795562,8.829215569189753,23838.88203681233,25.8113279216075,11.72018050078138,10.552731906348122,2.8909649315916273,3736,108,1126,1953,67.1539821237847,37.70876253100891,0.0007954872981669788,False
0.01,0.6393346565470075,1.2,501.0,33.21318,0.08,68900.0,0.33,276.0,2700.0,19.6790934723959,0.09839337296687449,265.6621070105611,9.956958691918045,2.6355918165954355,9.722134780477854,2.537198443628561,24369,284,8116,12189,2061.535189422949,1177.4357736108093,0.01788384541217576,True
0.02,0.5544445803928402,1.2,502.0,33.21318,0.1,68900.0,0.33,276.0,2700.0,15.662388795427225,0.15660713279345417,422.83925854232626,8.043426468923682,1.8728460197796961,7.618962326503542,1.716238886986242,12266,198,4070,6155,896.0430877702588,510.8382045892202,0.006823681202796625,True
0.03,0.5967990932484648,1.2,503.0,33.21318,0.1,68900.0,0.33,276.0,2700.0,17.286164727078535,0.25923592223835484,699.9369900435581,8.975512789934177,2.233101328533244,8.310651937144359,1.9738654062948893,13821,210,4566,6966,724.7398797565546,412.77632758079505,0.005174175956014639,True
0.04,0.34347747782934074,1.2,504.0,33.21318,0.08,68900.0,0.33,276.0,2700.0,7.517810243260196,0.15022216357865056,405.59984166235654,4.072299083874474,0.6145016641074306,3.445511159385722,0.46427950052878,9258,158,3034,4701,302.04521185230266,173.01509472768765,0.0015026519621384553,True
0.05,0.3928431901881213,1.2,505.0,33.21318,0.1,68900.0,0.33,276.0,2700.0,8.963328935997298,0.2238214240121328,604.3178448327586,4.901282720007643,0.8357433313074689,4.062046215989655,0.6119219072953361,7550,144,2480,3824,266.2581000423048,152.6233760064221,0.0014653879338987015,False
0.06000000000000001,0.6754023244820011,1.2,506.0,33.21318,0.2,68900.0,0.33,276.0,2700.0,20.223953827719917,0.6062662254894816,1636.9188088216004,10.82479347320701,3.0102682165401413,9.399160354512908,2.40400199105066,4379,118,1446,2204,361.2565188194247,206.96963539554756,0.003214115335718369,True
0.06999999999999999,0.5518447538035518,1.2,507.0,33.21318,0.2,68900.0,0.33,276.0,2700.0,14.538294333276092,0.508121924144513,1371.929195190185,7.987681340386367,1.8520070064145018,6.550612992889724,1.3438850822699888,3286,98,1076,1666,256.3607102428668,147.83096364259816,0.0018774890489161315,False
0.08,0.6201745109052006,1.2,508.0,33.21318,0.2,68900.0,0.33,276.0,2700.0,17.248780498157405,0.6888788896338716,1859.9730020114532,9.509238177826468,2.4491189648106895,7.739542320330937,1.760240075176818,3605,106,1182,1826,254.65139609840324,146.9291647919687,0.0020317555760395517,False
0.09,0.7338262551512909,1.2,509.0,33.21318,0.2,68900.0,0.33,276.0,2700.0,22.36317253088033,1.0048159498597744,2713.003064621391,12.299922413029602,3.685368947644711,10.063250117850728,2.680552997784937,4920,126,1620,2484,270.8883660370679,155.0452481877825,0.00251396713208924,False
0.09999999999999999,0.7277978379635419,1.2,510.0,33.21318,0.3,68900.0,0.33,276.0,2700.0,21.83001281775227,1.0894062457852196,2941.396863620093,12.143743410653032,3.6116910989003137,9.686269407099237,2.522284853115094,2230,84,726,1135,246.93690722777268,141.60155814266037,0.0022472562105129447,False
0.11,0.8048296588222097,1.2,511.0,33.21318,0.3,68900.0,0.33,276.0,2700.0,25.513937369990558,1.400478915468195,3781.293071764126,14.208149028212953,4.625700881327255,11.305788341777605,3.2252219658590597,2352,90,768,1194,244.40263508082865,139.8399390199335,0.002491910916218515,False
0.12,0.4379843170875596,1.2,512.0,33.21318,0.2,68900.0,0.33,276.0,2700.0,9.381115709391803,0.5592478278265735,1509.9691351317483,5.71293411860536,1.0751195329204422,3.6681815907864435,0.5158717050938687,2075,74,678,1052,128.84793477871713,74.3833977121201,0.0007536951745592689,False
0.13,0.6236248357845162,1.2,513.0,33.21318,0.3,68900.0,0.33,276.0,2700.0,16.373016030041526,1.059644655912742,2861.0405709644033,9.58918174269176,2.4820667554866267,6.783834287349766,1.4224220995738848,1753,72,572,889,165.61628728532878,94.81110068178484,0.0012483557958342644,False
0.14,0.7253710893145754,1.2,514.0,33.21318,0.3,68900.0,0.33,276.0,2700.0,20.80070910069682,1.450302616887813,3915.8170655970953,12.081131155908352,3.582297288019231,8.719577944788469,2.131994671131418,2178,82,706,1113,176.16750776540812,100.53490507897995,0.001555175636218945,False
0.15000000000000002,0.5226334326342154,1.2,515.0,33.21318,0.3,68900.0,0.33,276.0,2700.0,11.927515171637468,0.8874950544022322,2396.236646886027,7.373013405543794,1.6277061176240164,4.554501766093674,0.7402110632217842,1735,68,570,874,122.86900136760532,70.5909187226506,0.0007852061788113931,False
0.16,0.5254837429399075,1.2,516.0,33.21318,0.3,68900.0,0.33,276.0,2700.0,11.866323516325338,0.940727238966628,2539.9635452098955,7.432045758284681,1.6488055754802906,4.434277758040657,0.7080783365136626,1748,68,574,881,115.12274851535457,66.33257002601299,0.0007446974730687093,False
0.17,0.8150697894368037,1.2,517.0,33.21318,0.3,68900.0,0.33,276.0,2700.0,24.5865758764535,2.079569186360489,5614.836803173321,14.493808522788775,4.772654529509977,10.092767353664726,2.6930853431494883,2410,90,790,1219,158.96007811910758,90.26723890019153,0.0015901404765507352,False
0.18000000000000002,0.7757504374820232,1.2,518.0,33.21318,0.3,68900.0,0.33,276.0,2700.0,22.363211791222398,2.000474548972855,5401.281282226708,13.411320855131036,4.224176042273977,8.951890936091361,2.2237014933011223,2285,86,748,1157,143.97371526786952,81.45911399449193,0.0013474353823675553,False
0.19,0.8406620026810279,1.2,519.0,33.21318,0.3,68900.0,0.33,276.0,2700.0,25.445242332594674,2.402932565589179,6487.917927090783,15.219254656275472,5.152830947953962,10.225987676319201,2.7498983823647833,2402,90,788,1214,145.48969568804947,82.04521581005093,0.001486886539412137,False
0.2,0.649624822490837,1.2,520.0,33.21318,0.3,68900.0,0.33,276.0,2700.0,16.131760070360563,1.5964208462169103,4310.336284785658,10.201220115696078,2.739305037070186,5.930539954664486,1.1428841908532756,1579,70,510,808,113.87321203509194,65.18267079778197,0.0008419400454836438,False
0.21000000000000002,0.7790153812876455,1.2,521.0,33.21318,0.3,68900.0,0.33,276.0,2700.0,21.85872323130394,2.27576974624365,6144.578314857855,13.499727651374823,4.268107499943047,8.358995579929118,1.9923377536993967,2004,82,660,1008,122.9419552740345,69.49439320554697,0.0011428114449133768,False
0.22,0.8613064169148177,1.2,522.0,33.21318,0.3,68900.0,0.33,276.0,2700.0,25.82000061796605,2.817898948925984,7608.327162100157,15.816443643108258,5.473169426322424,10.00355697485779,2.65527047739644,2464,92,810,1243,126.50963926575089,71.66932228364499,0.0013179073288626937,False
0.23,0.7394293282747537,1.2,523.0,33.21318,0.3,68900.0,0.33,276.0,2700.0,19.548109982999396,2.222550142834,6000.885385651801,12.445900947052927,3.7546949081229535,7.102209035946469,1.5321447652889533,1800,76,594,903,109.47417062918723,61.95426400744035,0.000926294797149374,False
0.24000000000000005,0.5916370633864585,1.2,524.0,33.21318,0.3,68900.0,0.33,276.0,2700.0,13.064595984091643,1.5387986001955136,4154.756220527886,8.859500548435422,2.187069180896905,4.2050954356562205,0.6482705807013915,1431,64,474,714,87.56427742856528,50.131055390806694,0.0006086031036913286,False
0.25,0.8592588596652311,1.2,525.0,33.21318,0.3,68900.0,0.33,276.0,2700.0,25.015029240312895,3.0941537315642176,8354.215075223388,15.756734655590892,5.44084549924248,9.258294584722004,2.346691767678262,2432,88,798,1229,110.89990687739356,62.325469467607704,0.0011277856270493077,False
0.26,0.8760587794072044,1.2,526.0,33.21318,0.3,68900.0,0.33,276.0,2700.0,25.664021490938914,3.2995117055023995,8908.681604856478,16.249752945142593,5.709688779991366,9.414268545796322,2.410177074488966,2384,90,788,1196,109.30835115261026,61.439096762464814,0.0011199436130707654,False
0.27,0.9316924876153151,1.2,527.0,33.21318,0.3,68900.0,0.33,276.0,2700.0,28.424110251828168,3.7960309051963996,10249.28344403028,17.933045073240624,6.660186046379809,10.491065178587544,2.864155141183409,2556,94,840,1290,109.6375183661647,61.412424960658086,0.0012066534943524592,False
0.28,0.7958218557664735,1.2,528.0,33.21318,0.3,68900.0,0.33,276.0,2700.0,21.19181229511691,2.920877560028633,7886.36941207731,13.959045418200954,4.498840142013037,7.2327668769159565,1.577962581984404,1929,80,638,966,94.37406216142764,53.46582671089392,0.0008512633713046744,False
0.29000000000000004,0.5999045428114694,1.2,529.0,33.21318,0.3,68900.0,0.33,276.0,2700.0,12.589137579425929,1.7743447468644924,4790.730816534129,9.04562776610833,2.2610831373417533,3.5435098133175984,0.48673839047726086,1400,62,464,698,73.1809429344441,41.843323919724284,0.0005254945284653326,False
0.3,0.7968279438616742,1.2,530.0,33.21318,0.3,68900.0,0.33,276.0,2700.0,20.834619124551462,3.0686442009181034,8285.33934247888,13.98676681745497,4.512898114380661,6.847852307096492,1.4442539134625578,1970,80,650,989,89.80191016094959,51.02520717191505,0.0007828247216082282,False
0.31,0.9919312570451608,1.2,531.0,33.21318,0.3,68900.0,0.33,276.0,2700.0,30.828767474423575,4.716064834040259,12733.3750519087,19.843384594326196,7.797531052993008,10.98538288009738,3.081466218952749,2843,100,940,1427,98.70668969694773,55.428565307129055,0.001151569619284045,False
0.32,0.8528173682306052,1.2,532.0,33.21318,0.3,68900.0,0.33,276.0,2700.0,23.154450845510933,3.6360829965665262,9817.42409072962,15.569580943254179,5.339951962218997,7.584869902256754,1.7038689656524708,2197,84,730,1096,88.56713705304544,50.269743388799036,0.0008279031917935816,False
0.33,0.7510272777765779,1.2,533.0,33.21318,0.3,68900.0,0.33,276.0,2700.0,18.152608343358533,2.919914099859454,7883.768069620525,12.750572730180107,3.9008053553891306,5.402035613178427,0.9808912555296767,1685,72,558,842,77.36020381161677,43.80975066003928,0.0006396210138965182,False
0.34,0.7010778973872701,1.2,534.0,33.21318,0.3,68900.0,0.33,276.0,2700.0,15.823334400920823,2.6076487430520783,7040.651606240612,11.462502375570484,3.2963523110246498,4.360832025350339,0.6887035679725715,1456,66,482,727,71.5619823502272,40.65481322661989,0.0005652294425490767,False
0.3500000000000001,0.8696968798073346,1.2,535.0,33.21318,0.3,68900.0,0.33,276.0,2700.0,23.374627633436234,4.000762645836232,10802.059143757828,16.062219190930094,5.606906557975495,7.31240844250614,1.6061439121392622,2124,84,708,1056,81.40876042660537,45.761275600932166,0.0007707539186543264,False
0.36000000000000004,0.8253774485999399,1.2,536.0,33.21318,0.3,68900.0,0.33,276.0,2700.0,21.014453062600108,3.6848854533706143,9949.19072410066,14.78401335154303,4.923545140258545,6.230439711057079,1.2386596868879307,2024,80,672,1010,75.1740775859747,42.45749832114965,0.0006811220596541049,False
0.37,1.0213636300149087,1.2,537.0,33.21318,0.3,68900.0,0.33,276.0,2700.0,31.052690557207793,5.6386603579619194,15224.382966497182,20.809932893758866,8.395739455213617,10.242757663448927,2.7570790972516974,2843,100,946,1418,84.74371717030454,47.760610079276205,0.000985617093094981,False
0.38,0.9511720630327012,1.2,538.0,33.21318,0.3,68900.0,0.33,276.0,2700.0,26.946976990642476,5.005001980163553,13513.505346441592,18.540819438596994,7.015418262709791,8.406157552045482,2.010416282546238,2280,88,760,1134,79.30830740416512,44.741250176050954,0.0008301465601669383,False
0.39,0.7961213332690784,1.2,539.0,33.21318,0.3,68900.0,0.33,276.0,2700.0,19.10200569350322,3.6006536871542663,9721.76495531652,13.967294457273843,4.503021797218186,5.134711236229377,0.9023681100639198,1812,76,600,904,69.20325025640015,39.01936562852403,0.0005982001790476349,False
0.4,0.8251056933747274,1.2,540.0,33.21318,0.3,68900.0,0.33,276.0,2700.0,20.252479206985992,3.9164545548436314,10574.427298077804,14.776328003652932,4.919528551689663,5.47615120333306,1.003073996846032,1986,78,652,994,70.34656494868156,39.96239200774246,0.000618007729765138,False
0.4100000000000001,0.844556947169135,1.2,541.0,33.21318,0.3,68900.0,0.33,276.0,2700.0,20.98061777425996,4.1566788388712315,11223.032864952325,15.331105419813492,5.212326802493095,5.64951235444647,1.0556479636218636,2081,80,684,1045,68.9962246690274,38.9902139560008,0.0006247085509271423,False
0.42000000000000004,0.8886824268408896,1.2,542.0,33.21318,0.3,68900.0,0.33,276.0,2700.0,22.919031602572396,4.657827092193993,12576.133148923782,16.62487995885222,5.917183454426618,6.294151643720177,1.2593563622326247,2082,82,692,1036,68.66082713197041,38.91230952932404,0.0006594400293419031,False
0.43,0.8428766991815937,1.2,543.0,33.21318,0.3,68900.0,0.33,276.0,2700.0,20.537977721805966,4.249146138782132,11472.694574711757,15.282807130030854,5.186607329952149,5.255170591775112,0.9374611911700166,2057,78,652,1047,66.69378075265713,37.93891237332347,0.0006015696517895912,False
0.44,1.006831095446137,1.2,544.0,33.21318,0.3,68900.0,0.33,276.0,2700.0,28.641317897883933,6.122680985132204,16531.23865985695,20.329968778799863,8.096812361708688,8.31134911908407,1.9741313765764836,2670,94,894,1323,71.90418151243131,40.75653386957784,0.0007702817260256147,False
0.45,0.9680006298320749,1.2,545.0,33.21318,0.3,68900.0,0.33,276.0,2700.0,26.35105874719128,5.738136464412461,15492.968453913645,19.073558983061595,7.331906321056269,7.277499764129686,1.5937698566438074,2452,90,818,1213,68.91673815261552,39.016896040907184,0.0007014863468485184,False
0.46,1.0936788822260395,1.2,546.0,33.21318,0.3,68900.0,0.33,276.0,2700.0,33.10104016508073,7.409379196281665,20005.323829960496,23.277201333211973,9.989033528445143,9.823838831868759,2.5796543321634777,3019,102,992,1513,73.45114888559743,41.38506527746003,0.0008587215477522385,False
0.4700000000000001,0.9348647268787972,1.2,547.0,33.21318,0.3,68900.0,0.33,276.0,2700.0,24.251951043688315,5.481762112550989,14800.75770388767,18.031370761270626,6.717229845520556,6.220580282417689,1.2354677329695676,2185,84,716,1093,65.38295229157664,36.96332456262837,0.0006436093823853585,False
0.4800000000000001,0.9197239907235839,1.2,548.0,33.21318,0.3,68900.0,0.33,276.0,2700.0,23.309589510238066,5.36267813929327,14479.230976091829,17.564350643380575,6.447764401916502,5.745238866857491,1.085086262623232,2375,84,720,1237,90.59837525012908,49.392516245066545,0.000623007896589626,False
0.49,0.8144713125778023,1.2,549.0,33.21318,0.2,68900.0,0.33,276.0,2700.0,18.246504928887422,4.2239902181759605,11404.773589075094,14.477040853122647,4.76398533849038,3.769464075764775,0.5399951203144191,5263,106,1318,2948,66.58899587412391,37.92144887919183,0.000521664481809889,False
0.5,1.1719316457750664,1.2,550.0,33.21318,0.3,68900.0,0.33,276.0,2700.0,36.83497146803217,8.946943479208892,24156.74739386401,26.09510869712775,11.919789786683843,10.739862770904423,2.972846307474951,4000,110,1182,2111,75.10984186266003,42.46373890226565,0.0008882186624007627,False
0.01,0.6079034049965458,1.2,551.0,36.23256,0.05,68900.0,0.33,276.0,2700.0,18.22776081382769,0.0911367096740359,246.06911611989696,9.227342595075378,2.3341635512844845,9.000418218752312,2.2430268416104484,59023,432,19590,29632,2498.3486177653267,1416.8712706411104,0.017709509789932073,True
0.02,0.4637152570009545,1.2,552.0,36.23256,0.1,68900.0,0.33,276.0,2700.0,12.018142304506675,0.12016466788424761,324.44460328746857,6.198500457396756,1.2283300565400244,5.819641847109919,1.1081653886557767,9785,170,3242,4916,810.8528378318026,462.3891339350751,0.005386212388255778,True
0.03,0.5034672264067176,1.2,553.0,36.23256,0.1,68900.0,0.33,276.0,2700.0,13.368244976479058,0.20046712597937477,541.2612401443118,6.981367629768541,1.4901613497859756,6.386877346710517,1.2896942238066007,10738,180,3532,5434,627.2681647412634,357.87467390583527,0.004135989450059079,True
0.04,0.6917700602893662,1.2,554.0,36.23256,0.1,68900.0,0.33,276.0,2700.0,21.481885098127975,0.42950366067600637,1159.659883825217,11.229407458245362,3.190747699841795,10.252477639882613,2.761244039165789,17022,238,5598,8619,737.0936450040524,419.91175351062265,0.005554606566625579,True
0.05,0.4652056787812289,1.2,555.0,36.23256,0.08,68900.0,0.33,276.0,2700.0,11.524101934684545,0.287840748979314,777.1700222441478,6.227135911863183,1.2375897691452444,5.296966022821362,0.9497490201659304,14537,208,4784,7355,367.0668055658467,210.290874785769,0.0021294685533411856,True
0.06000000000000001,0.37093090363138065,1.2,556.0,36.23256,0.1,68900.0,0.33,276.0,2700.0,8.08501242827235,0.24209798350605416,653.6645554663462,4.525756730529858,0.7324813718356693,3.5592556977424916,0.49038338832961514,6716,134,2198,3413,227.5682584843431,130.848414896661,0.0012500632799917,False
0.06999999999999999,0.3852330444711124,1.2,557.0,36.23256,0.1,68900.0,0.33,276.0,2700.0,8.395039591809805,0.2931080081932244,791.391622121706,4.769494655481806,0.7989462418715199,3.6255449363279997,0.5058382336782954,7009,138,2304,3547,195.11308351779846,112.39769798262535,0.001139280337163254,False
0.08,0.7227491595914499,1.2,558.0,36.23256,0.2,68900.0,0.33,276.0,2700.0,22.051364378198343,0.8809822448355072,2378.6520610558696,12.013649401929262,3.550709915111259,10.037714976269081,2.6697276702757518,4795,124,1578,2422,323.95115362682736,185.25642404061747,0.002989830336588516,True
0.09,0.42136181222525126,1.2,559.0,36.23256,0.1,68900.0,0.33,276.0,2700.0,9.286304122474764,0.41635687148171974,1124.1635530006433,5.4080992494013715,0.9826994367044335,3.8782048730733925,0.5663425652227138,7620,146,2510,3849,167.4449299920616,96.59003236561298,0.0010190406392781514,False
0.09999999999999999,0.7129288970846273,1.2,560.0,36.23256,0.3,68900.0,0.33,276.0,2700.0,21.104768586565587,1.0531440342258866,2843.488892409894,11.762436432886949,3.4339681964503,9.342332153678639,2.3808241622244135,2037,80,668,1029,263.64845012762567,151.062559189944,0.0023496828320979835,False
0.11,0.7057410200798224,1.2,561.0,36.23256,0.3,68900.0,0.33,276.0,2700.0,20.531777936440914,1.1264601466229625,3041.4423958819984,11.58009901004612,3.3500773373649713,8.951678926394795,2.223617190742009,2055,80,672,1041,239.2696939726192,136.94890501844267,0.002080234097496122,False
0.12,0.7102617685711201,1.2,562.0,36.23256,0.3,68900.0,0.33,276.0,2700.0,20.52333186626603,1.2277807972390267,3315.008152545372,11.694626920875548,3.4026867349298935,8.828704945390482,2.174905937690867,2039,80,668,1031,221.02204421302056,126.38230367005703,0.001921446725975248,False
0.13,0.4628883588290147,1.2,563.0,36.23256,0.08,68900.0,0.33,276.0,2700.0,10.085094527220866,0.6509297582293988,1757.5103472193769,6.18263735299443,1.2232110876132225,3.902457174226436,0.5722813293838237,12726,192,4190,6407,131.87594055020222,76.07755266246721,0.000824916467096554,False
0.14,0.6530949651554703,1.2,564.0,36.23256,0.3,68900.0,0.33,276.0,2700.0,17.461140797412536,1.2165328356579117,3284.6386562763614,10.284192205480823,2.774848601200697,7.176948591931714,1.5583157655427855,1613,72,528,815,179.02226126570653,102.25069830594539,0.001378893039941097,False
0.15000000000000002,0.5762623684218485,1.2,565.0,36.23256,0.3,68900.0,0.33,276.0,2700.0,14.015182242301009,1.0440700847020004,2818.989228695401,8.51793510328973,2.0534904063289137,5.497247139011279,1.0094203216269133,1714,70,560,868,149.09799636713052,85.63610672473997,0.0009967472115421242,False
0.16,0.5583235385788519,1.2,566.0,36.23256,0.3,68900.0,0.33,276.0,2700.0,13.12400408209519,1.0413416842282124,2811.6225474161733,8.126914368033422,1.9042079355224601,4.997089714061769,0.8628662512942478,1658,68,544,836,134.11235122446922,77.04705578655451,0.0008866709479517082,False
0.17,0.529840741892894,1.2,567.0,36.23256,0.3,68900.0,0.33,276.0,2700.0,11.862973819443825,0.9980630115146684,2694.7701310896045,7.522677527642974,1.6813842591006283,4.340296291800851,0.6833212475859599,1741,68,572,877,120.45617032744725,69.41492201695145,0.0007771639762131179,False
0.18000000000000002,0.7606297921701045,1.2,568.0,36.23256,0.3,68900.0,0.33,276.0,2700.0,21.619741787133606,1.9335622486048671,5220.618071233142,13.005383759161434,4.024464472399997,8.614358027972171,2.0909022237951302,2156,82,702,1097,155.73374653122235,88.39870131470373,0.0014144531041225792,False
0.19,0.7923823752076857,1.2,569.0,36.23256,0.3,68900.0,0.33,276.0,2700.0,22.966213543171012,2.1674248305939323,5852.047042603617,13.864467320092535,4.450991011661915,9.101746223078477,2.283566181067983,2284,86,748,1156,150.5129165955965,85.09743107357639,0.0014423725473455184,False
0.2,0.717737630928436,1.2,570.0,36.23256,0.3,68900.0,0.33,276.0,2700.0,19.15723996789778,1.8989688359706312,5127.215857120704,11.885146223347029,3.4908254290819523,7.272093744550752,1.591856593111321,1912,76,630,961,132.4001960385768,75.19472163903647,0.001121573777129708,False
0.21000000000000002,0.7874254113746477,1.2,571.0,36.23256,0.3,68900.0,0.33,276.0,2700.0,22.272250467344065,2.319190106027863,6261.81328627523,13.728684815934631,4.382602138170315,8.543565651409434,2.063412032142452,2283,86,748,1155,135.17838143302868,76.34774975072698,0.0012708190791835793,False
0.22,0.5389295767415672,1.2,572.0,36.23256,0.3,68900.0,0.33,276.0,2700.0,11.396148157002626,1.231275178220007,3324.442981194019,7.713273905383864,1.7506212097960314,3.6828742516187623,0.5193460315760243,1549,64,512,775,94.38294663317926,54.24026154613691,0.0006310470055218153,False
0.23,0.6798905343135013,1.2,573.0,36.23256,0.3,68900.0,0.33,276.0,2700.0,16.870619870286053,1.9146387798720772,5169.524705654609,10.93507298400098,3.0590994504672633,5.935546886285072,1.144460670595186,1643,72,540,827,112.13782055525242,63.98111447769238,0.0008555073531034085,False
0.24000000000000005,0.7818421539410426,1.2,574.0,36.23256,0.2,68900.0,0.33,276.0,2700.0,21.35127725457885,2.53320035265398,6839.640952165746,13.576486222234223,4.306376603103134,7.774791032344627,1.7731762504491537,4775,122,1582,2396,118.94660731695313,67.60272156861355,0.0010730763442192732,False
0.25,0.7522348935528835,1.2,575.0,36.23256,0.3,68900.0,0.33,276.0,2700.0,19.738992269152746,2.4346491101689547,6573.552597456178,12.782490464314042,3.916222416666511,6.9565018048387035,1.4815733064975563,1801,76,594,904,111.5051387180222,63.00575063539215,0.0009478846512957155,False
0.26,0.6171825638698127,1.2,576.0,36.23256,0.3,68900.0,0.33,276.0,2700.0,13.736460288137518,1.7489287491382148,4722.10762267318,9.440157382143637,2.420771226971172,4.2963029059938815,0.671842477832957,1308,62,430,657,92.52758694709713,52.943396153493595,0.0006549151770897611,False
0.27,0.8125855098189254,1.2,577.0,36.23256,0.3,68900.0,0.33,276.0,2700.0,22.214790488726937,2.957772737177729,7985.986390379868,14.42426473673867,4.736734271627958,7.790525751988268,1.7789615344502288,2221,84,734,1114,109.10351523186594,61.952737015875165,0.0010082136647447306,False
0.28,0.9377663742011069,1.2,578.0,36.23256,0.3,68900.0,0.33,276.0,2700.0,28.517895587358016,3.946529220942389,10655.62889654445,18.12153074341288,6.769681279275654,10.396364843945136,2.8231520583332657,2539,94,836,1279,115.22491312369303,64.92041790339219,0.0012780096574177364,False
0.29000000000000004,0.8842132240268974,1.2,579.0,36.23256,0.3,68900.0,0.33,276.0,2700.0,25.40892806348183,3.633214367052599,9809.678791042017,16.491614202675784,5.843181476938457,8.917313860806047,2.209967109885858,2492,90,818,1259,106.93328876971786,60.5008896806468,0.0010908457132234603,False
0.3,0.6615655073548226,1.2,580.0,36.23256,0.3,68900.0,0.33,276.0,2700.0,14.856932778688996,2.171991249038733,5864.376372404579,10.487996272319839,2.862823177843736,4.368936506369158,0.6908319288050029,1393,64,460,697,85.51858408990387,48.785473909445884,0.0006348181957427255,False
0.31,0.6137956521395215,1.2,581.0,36.23256,0.3,68900.0,0.33,276.0,2700.0,12.81256696906958,1.9235537557103888,5193.59514041805,9.36222877399316,2.388930297227441,3.450338195076421,0.4653765415170523,1374,62,458,681,77.78673189732942,44.50127503560771,0.0005581937469553609,False
0.32,0.8940356326077965,1.2,582.0,36.23256,0.3,68900.0,0.33,276.0,2700.0,25.2541245652024,3.9720307917171644,10724.483137636344,16.78516627869813,6.006608559229901,8.468958286504268,2.034577767512736,2394,88,788,1206,97.84361313033637,55.15383021879007,0.0009900696867847234,False
0.33,0.9341057737003893,1.2,583.0,36.23256,0.3,68900.0,0.33,276.0,2700.0,27.14869257276665,4.4042679977117825,11891.523593821812,18.00782348121252,6.703553815927362,9.14086909155413,2.29928581821558,2557,92,844,1285,98.29460213670028,55.2993089859518,0.0010375488698919197,False
0.34,0.9112939789699213,1.2,584.0,36.23256,0.3,68900.0,0.33,276.0,2700.0,25.715648682007473,4.289342170836776,11581.223861259296,17.306821600804216,6.300783460684715,8.408827081203256,2.011441289847939,2283,88,758,1140,105.32712023169437,60.31958909152098,0.001086949237121035,False
0.3500000000000001,0.7034888622277913,1.2,585.0,36.23256,0.3,68900.0,0.33,276.0,2700.0,15.758701116143463,2.6679755053099976,7203.533864336993,11.523234890489846,3.3240611838640506,4.235466225653617,0.656085678554053,1451,66,482,722,75.65920067904102,42.671389729491736,0.0006039427310721606,False
0.36000000000000004,0.8350841686154529,1.2,586.0,36.23256,0.3,68900.0,0.33,276.0,2700.0,21.478082993537612,3.768338840939514,10174.514870536688,15.059740483831204,5.068385706130994,6.418342509706408,1.3000468651914798,2051,80,680,1025,107.55877624933544,60.26451087186965,0.0007552701364925664,False
0.37,0.9939354809732301,1.2,587.0,36.23256,0.3,68900.0,0.33,276.0,2700.0,29.504905801976594,5.352320178244146,14451.264481259195,19.90851177027753,7.837366887071499,9.596394031699063,2.485046708827353,2844,98,942,1425,92.53456890468073,52.179236192124314,0.001019607371365076,False
0.38,0.7458197538749313,1.2,588.0,36.23256,0.3,68900.0,0.33,276.0,2700.0,17.053254845644833,3.1251947726139986,8438.025886057796,12.61335574120959,3.8347640192807697,4.439899104435243,0.7095692466667711,1539,68,514,762,73.93832221015076,42.13133251477053,0.0006087952915175926,False
0.39,0.8929268793364373,1.2,589.0,36.23256,0.2,68900.0,0.33,276.0,2700.0,23.722368609240522,4.501624455723043,12154.386030452217,16.75190871921156,5.988016391276745,6.9704598900289625,1.4863919355537023,6723,126,1730,3736,87.22983827956162,49.56577075271813,0.0007891006274577112,False
0.4,1.0789773023624838,1.2,590.0,36.23256,0.3,68900.0,0.33,276.0,2700.0,33.677558571642145,6.601470427775265,17823.970154993214,22.764965576782817,9.65059388652415,10.912592994859327,3.049123458748886,3064,104,1020,1528,89.10119847221752,50.596347258964286,0.0010833440967527354,False
0.4100000000000001,0.8434640696453892,1.2,591.0,36.23256,0.3,68900.0,0.33,276.0,2700.0,20.92903415596877,4.146104197121558,11194.481332228208,15.29968287402812,5.195588955196443,5.629351281940648,1.0494847580748843,2086,80,688,1044,77.24493865565088,43.875688844959974,0.000681291872761161,False
0.42000000000000004,1.0093285539610115,1.2,592.0,36.23256,0.3,68900.0,0.33,276.0,2700.0,29.21990978018735,5.981011509493236,16148.731075631737,20.412074305222752,8.147688110290254,8.807835474964598,2.166676600797018,2925,98,960,1471,82.91068393896832,46.589365866757916,0.0008981026119926387,False
0.43,0.8894566774088325,1.2,593.0,36.23256,0.3,68900.0,0.33,276.0,2700.0,22.7650061895637,4.727957259350216,12765.484600245583,16.648018109843118,5.930064233567872,6.116988079720581,1.2021069742176564,2089,82,692,1041,74.24561287165137,41.60605691494298,0.0007052995916919065,False
0.44,0.7801911275232551,1.2,594.0,36.23256,0.1,68900.0,0.33,276.0,2700.0,17.55091641650154,3.682792659228079,9943.540179915813,13.531629631612688,4.283998504823414,4.019286784888852,0.6012058455953349,29582,206,4738,18769,75.74635238847705,43.34532914033893,0.0005914160284774592,False
0.45,1.0477696177348232,1.2,595.0,36.23256,0.3,68900.0,0.33,276.0,2700.0,30.693023811475708,6.7150786038764565,18130.712230466434,21.69562451468703,8.956901506130725,8.997399296788679,2.2418229022542686,2979,98,966,1504,78.78772300594612,44.50316994353915,0.0008852539969421206,False
0.46,0.7686731595637601,1.2,596.0,36.23256,0.2,68900.0,0.33,276.0,2700.0,16.745258567004292,3.6475494287244423,9848.383457555994,13.220605047303293,4.129936014152082,3.5246535197009994,0.4823865854276397,4912,102,1246,2737,69.84138134674122,39.97965446361838,0.0005533096470933402,False
0.4700000000000001,0.872555109917257,1.2,597.0,36.23256,0.3,68900.0,0.33,276.0,2700.0,21.21792933932319,4.768767012025184,12875.670932467996,16.146347211486653,5.652936256215254,5.071582127836539,0.8841692441900699,2257,80,672,1185,68.91205780575434,39.094130227714935,0.0006408411537635829,False
0.4800000000000001,0.8018101200495569,1.2,598.0,36.23256,0.1,68900.0,0.33,276.0,2700.0,17.85220538477898,4.052905949183088,10942.846062794337,14.12441886890858,4.582925295340937,3.7277865158704007,0.5300193461578493,31619,206,4758,20334,73.99359826670278,42.011202423507,0.0005711150787602638,False
0.49,1.0435988617327854,1.2,599.0,36.23256,0.3,68900.0,0.33,276.0,2700.0,29.579840528635273,7.000657440114185,18901.7750883083,21.554566486310815,8.866708661228165,8.025274042324458,1.8660512211139801,2758,94,884,1400,72.75519476400811,41.1065408858877,0.0007999486282618715,False
0.5,1.0611236134614825,1.2,600.0,36.23256,0.3,68900.0,0.33,276.0,2700.0,30.33762347411933,7.322606480730684,19771.037497972848,22.15020729962114,9.249655043862782,8.187416174498189,1.9270485631320984,2940,96,936,1496,73.18943479328394,41.85646334681457,0.0008061823616088483,False
0.01,0.4779401285822905,1.2,601.0,39.25194,0.05,68900.0,0.33,276.0,2700.0,12.753897114707947,0.06376739117843688,172.1719561817796,6.474079078538726,1.3184569363690726,6.27981803616922,1.2546895451906357,41073,350,13624,20631,1999.0874296904851,1139.5653631579012,0.012353748970094058,True
0.02,0.45835755106809617,1.2,602.0,39.25194,0.1,68900.0,0.33,276.0,2700.0,11.815882437762188,0.11814206921681268,318.98358688539423,6.096023985656628,1.1953951553682773,5.7198584521055595,1.0772530861514646,9611,168,3184,4829,876.256468557247,500.02350477476773,0.005716942268066034,True
0.03,0.38516406917882606,1.2,603.0,39.25194,0.1,68900.0,0.33,276.0,2700.0,9.031321871312242,0.13541327940191863,365.61585438518034,4.768306837627966,0.7986173055493174,4.263015033684276,0.6632040261473988,7760,146,2550,3929,516.8750617071663,294.46772710230823,0.0028015317582795666,True
0.04,0.5234360181911065,1.2,604.0,39.25194,0.1,68900.0,0.33,276.0,2700.0,13.9715279846709,0.27929651840686437,754.1005996985338,7.389614983116028,1.6336302527045012,6.581913001554872,1.354333734297637,11292,186,3716,5712,562.5822255801829,320.9513263313155,0.003584849956093002,True
0.05,0.6434049718221404,1.2,605.0,39.25194,0.2,68900.0,0.33,276.0,2700.0,18.95241649722979,0.4735486130429446,1278.5812552159505,10.053259111114253,2.6763156229515053,8.899157386115538,2.202767009908561,4123,114,1364,2071,484.1675717098067,279.13233830040645,0.0041853615877723155,True
0.06000000000000001,0.4930272542515809,1.2,606.0,39.25194,0.08,68900.0,0.33,276.0,2700.0,12.393220873975284,0.37134423687714285,1002.6294395682856,6.771919432934578,1.4183717659766952,5.621301441040706,1.0470275290995523,15361,214,5062,7762,346.1150649514708,198.383256575733,0.002119740217361552,True
0.06999999999999999,0.6733263302912991,1.2,607.0,39.25194,0.2,68900.0,0.33,276.0,2700.0,19.897121301744882,0.6956808680409485,1878.338343710561,10.773955600528083,2.987848796476983,9.123165701216799,2.292167928436035,4223,116,1398,2120,374.46519568925703,214.11365331138228,0.003220435139014602,True
0.08,0.4372009091759909,1.2,608.0,39.25194,0.1,68900.0,0.33,276.0,2700.0,9.995017434707115,0.39872836709586,1076.5665911588221,5.698411518743454,1.0706496647004538,4.296605915963662,0.6719212976045937,8245,152,2714,4168,210.07785554852285,121.26369321921177,0.0012973416308025736,False
0.09,0.5161375634853193,1.2,609.0,39.25194,0.2,68900.0,0.33,276.0,2700.0,12.734210624561525,0.5715126640756243,1543.0841930041856,7.2392413498477035,1.5802470442706944,5.494969274713822,1.0087343801950701,2861,92,940,1445,229.65896485962685,132.4720550074488,0.001509977528072852,False
0.09999999999999999,0.7252135880458539,1.2,610.0,39.25194,0.3,68900.0,0.33,276.0,2700.0,21.70316612310717,1.0830639110529672,2924.2725598430115,12.077072599107906,3.5803948141566897,9.626093523999264,2.4973309031037223,2225,84,724,1133,290.6576151542114,166.63220493976462,0.0026375589313044744,True
0.11,0.5364776927386453,1.2,611.0,39.25194,0.2,68900.0,0.33,276.0,2700.0,13.162830486407593,0.7211680368711328,1947.1536995520587,7.661652457722689,1.7317724726696753,5.501178028684904,1.0106044357985424,2857,92,940,1441,199.48015324226128,115.11735640496723,0.0013119141186133337,False
0.12,0.6237951099491369,1.2,612.0,39.25194,0.3,68900.0,0.33,276.0,2700.0,16.58112476195249,0.9912483709802153,2676.3706016465812,9.593134719355286,2.4836998819318197,6.987990042597206,1.4924515109516043,1699,72,554,862,212.38124531748878,121.83256253633064,0.0016087608589746953,False
0.13,0.6738925966554727,1.2,613.0,39.25194,0.3,68900.0,0.33,276.0,2700.0,18.60603856526594,1.2047911207023292,3252.936025896289,10.787811841001565,2.9939536479238247,7.818226724264376,1.7891625272214955,1914,76,626,969,210.00726664717678,120.37542585777743,0.0017206294501298065,False
0.14,0.6670711610211111,1.2,614.0,39.25194,0.3,68900.0,0.33,276.0,2700.0,18.08644215392668,1.260303930613898,3402.820612657524,10.621431091721599,2.920933426393117,7.465011062205081,1.6606294957792191,1746,74,574,879,193.90637842685268,110.95220368905358,0.0015566473243175541,False
0.15000000000000002,0.5843245785601185,1.2,615.0,39.25194,0.3,68900.0,0.33,276.0,2700.0,14.341528132922232,1.0685460264985902,2885.0742715461934,8.69630495668559,2.1228817191544773,5.645223176236641,1.0543356926558871,1653,70,540,837,165.46630967302772,95.23319566669082,0.0011081444713635594,False
0.16,0.6774711342205766,1.2,616.0,39.25194,0.3,68900.0,0.33,276.0,2700.0,18.142180763870403,1.44279581877023,3895.5487106796213,10.87556316406401,3.032715152566295,7.266617599806393,1.589919333796065,1693,74,558,850,172.90719200068932,98.65741234615129,0.0013926195566700908,False
0.17,0.736881762467926,1.2,617.0,39.25194,0.3,68900.0,0.33,276.0,2700.0,20.69188361290602,1.7485203439589545,4721.004928689177,12.379430637850646,3.7230728598066247,8.312452975055376,1.9745525158476702,1967,78,642,998,173.97253131074535,98.86498477110746,0.0015331582555695418,False
0.18000000000000002,0.8251721642175489,1.2,618.0,39.25194,0.3,68900.0,0.33,276.0,2700.0,24.873406765617244,2.2263920966683934,6011.258661004662,14.7782076545493,4.920510809135894,10.095199111067943,2.6941187124675,2407,90,790,1216,178.6747757315725,101.33628708271391,0.0018061660918575566,False
0.19,0.8795124517234353,1.2,619.0,39.25194,0.3,68900.0,0.33,276.0,2700.0,27.525183614581604,2.600526987377938,7021.422865920433,16.351985034097165,5.765986553672933,11.173198580484438,3.165459566294995,2541,94,838,1278,177.43721024865633,100.4493065005967,0.0019219690041894538,False
0.2,0.6202618462061091,1.2,620.0,39.25194,0.3,68900.0,0.33,276.0,2700.0,14.899430324301209,1.4731878716109748,3977.6072533496317,9.511258034199495,2.4499495451893485,5.388172290101714,0.9767616735783737,1428,66,470,717,129.877188320125,74.1654085620265,0.0009077553679625269,False
0.21000000000000002,0.7858663908870406,1.2,621.0,39.25194,0.3,68900.0,0.33,276.0,2700.0,22.195323867807407,2.3111128130765164,6240.004595306595,13.68610735802535,4.361232034775194,8.509216509782057,2.050119221698677,2283,86,748,1155,146.21680558798604,82.59100896775229,0.0013713635510330584,False
0.22,0.753661155067531,1.2,622.0,39.25194,0.3,68900.0,0.33,276.0,2700.0,20.422774430931682,2.2242040683522015,6005.350984550944,12.820234293435469,3.9344805010857185,7.602540137496213,1.710276432733517,1966,78,640,1000,162.11499891243562,92.79575797485256,0.0014042696590128266,False
0.23,0.8632188834639947,1.2,623.0,39.25194,0.3,68900.0,0.33,276.0,2700.0,25.685355611240258,2.9283333900817787,7906.5001532208025,15.872308409773117,5.503471250815514,9.81304720146714,2.5751378607337356,2477,92,816,1247,142.98295361680658,80.59705787779473,0.0014859528310441083,False
0.24000000000000005,0.6453216488762074,1.2,624.0,39.25194,0.3,68900.0,0.33,276.0,2700.0,15.21927782674262,1.7973604213136316,4852.873137546805,10.098750365171092,2.695628055282713,5.120527461571527,0.8982676339690816,1497,68,492,753,111.81506849695884,63.92640043926579,0.0008164497169680078,False
0.25,0.7377222126823653,1.2,625.0,39.25194,0.3,68900.0,0.33,276.0,2700.0,19.067879961120166,2.350760071665126,6347.052193495841,12.401341378691217,3.7334863611409075,6.666538582428949,1.3827262894757815,1857,76,610,936,119.16494448001518,67.52559679242522,0.0009895084069728767,False
0.26,0.7571826033650643,1.2,626.0,39.25194,0.3,68900.0,0.33,276.0,2700.0,19.76859944660751,2.533106839739295,6839.388467296097,12.913642980782404,3.979790668785673,6.854956465825106,1.446683829046378,1836,76,606,921,117.80667830621047,66.69471129257964,0.0009951038502734276,False
0.27,0.5824827419781803,1.2,627.0,39.25194,0.3,68900.0,0.33,276.0,2700.0,12.238525303585524,1.6109769371836402,4349.637730395829,8.65541184594727,2.1069022188573663,3.5831134576382535,0.49592528167372607,1421,62,472,707,91.49685925795906,52.541451988288244,0.0006342679351712733,False
0.28,0.7294135242505669,1.2,628.0,39.25194,0.3,68900.0,0.33,276.0,2700.0,18.112071246287588,2.489713813192527,6722.227295619823,12.18551161618746,3.6313453119270758,5.926559630100128,1.1416314987345486,1763,74,580,887,104.37521112872061,59.33746742358039,0.0008416883810037063,False
0.29000000000000004,0.7739776960993344,1.2,629.0,39.25194,0.3,68900.0,0.33,276.0,2700.0,19.95601379195945,2.8425417976816307,7674.862853740403,13.363431522260335,4.200443698166971,6.592582269699115,1.3579019004853405,1968,80,650,987,106.97309818393511,60.85558510696404,0.0009108996347962821,False
0.3,0.8270599576750572,1.2,630.0,39.25194,0.3,68900.0,0.33,276.0,2700.0,22.29641489374918,3.287913566297761,8877.366629003955,14.831636709053047,4.94845943027926,7.464778184696133,1.6605458639814987,2217,84,734,1110,107.50050010956346,61.00176141681007,0.0009961243680630446,False
0.31,0.7454437531052645,1.2,631.0,39.25194,0.3,68900.0,0.33,276.0,2700.0,18.269368536658565,2.769357998686682,7477.266596454042,12.603474594285405,3.8300232455847523,5.66589394237316,1.0606652468980702,1798,74,590,907,96.79808290800399,54.99376272257661,0.0007928651540214743,False
0.32,0.8926627941763603,1.2,632.0,39.25194,0.3,68900.0,0.33,276.0,2700.0,25.182816870414943,3.960621560551172,10693.678213488163,16.743991920417024,5.983593506174149,8.438824949997919,2.022971945622977,2219,86,736,1109,106.01363380915447,59.721439707001686,0.0010706044936329197,False
0.33,1.0041597349881024,1.2,633.0,39.25194,0.3,68900.0,0.33,276.0,2700.0,31.036671003178036,5.045784438729639,13623.617984570024,20.242319629798164,8.042620798161392,10.794351373379872,2.9968363594317537,3057,102,1014,1530,112.15242182239344,62.99884154876978,0.0012920210415825278,False
0.34,1.028902596556977,1.2,634.0,39.25194,0.3,68900.0,0.33,276.0,2700.0,32.21904901983017,5.394920228266617,14566.284616319866,21.06101235156963,8.553570385441814,11.158036668260543,3.158650157175197,2978,102,990,1487,109.24820287332443,61.7359717081659,0.0013049695542042352,False
0.3500000000000001,1.009427327884899,1.2,635.0,39.25194,0.3,68900.0,0.33,276.0,2700.0,30.85170559970084,5.309251289932539,14334.978482817856,20.415324782891002,8.149704451493278,10.436380816809837,2.840453161560739,2860,100,950,1429,104.63815645925118,59.78252434500746,0.0012177301553250623,False
0.36000000000000004,0.908457801032696,1.2,636.0,39.25194,0.3,68900.0,0.33,276.0,2700.0,25.135894093532247,4.426744838938549,11952.211065134083,17.220580526808188,6.251820580394072,7.915313566724059,1.8250757414555228,2341,88,776,1171,96.67732918651495,54.40399493685261,0.000958067886279986,False
0.37,0.9532460862745278,1.2,637.0,39.25194,0.3,68900.0,0.33,276.0,2700.0,27.27844149243119,4.940424280978165,13339.145558641047,18.6060919503774,7.0539400228160885,8.67234954205379,2.113515741837923,2547,92,844,1275,96.90618220726361,54.50388018037929,0.0010191251394848426,False
0.38,0.9799874940598445,1.2,638.0,39.25194,0.3,68900.0,0.33,276.0,2700.0,28.504869912887695,5.301001635390038,14312.704415553102,19.45736594628539,7.562835196662844,9.047503966602306,2.261833561272806,2807,96,930,1406,96.00826181903669,53.93410559950116,0.0010393379185236148,False
0.39,0.9288444608928801,1.2,639.0,39.25194,0.3,68900.0,0.33,276.0,2700.0,25.556463395089402,4.85927293896357,13120.036935201639,17.84498403228579,6.609237703278288,7.711479362803612,1.7499647643147185,2328,88,772,1164,90.27021975703092,51.08015889945884,0.0009045557702314435,False
0.4,0.734302536358789,1.2,640.0,39.25194,0.3,68900.0,0.33,276.0,2700.0,16.237276948455843,3.113414103138004,8406.218078472612,12.312300424781686,3.6912301170241215,3.9249765236741574,0.5778160138861175,1511,66,506,746,76.3212898137213,43.04928226465469,0.0006110933597252878,False
0.4100000000000001,0.7699469920734253,1.2,641.0,39.25194,0.3,68900.0,0.33,276.0,2700.0,17.596897350341113,3.4630161519678886,9350.1436103133,13.254838905480197,4.146798650430441,4.342058444860916,0.683782498462552,1670,72,558,825,77.47250154233919,44.0703440478048,0.0006484415941966093,False
0.42000000000000004,0.844238272198558,1.2,642.0,39.25194,0.3,68900.0,0.33,276.0,2700.0,20.782292605592474,4.2091119028283135,11364.602137636446,15.32193973843381,5.20744262342891,5.460352867158663,0.9983307206005962,2009,78,652,1011,80.46864607820862,45.75000742861045,0.0007277989305506914,False
0.43,0.8487173268582839,1.2,643.0,39.25194,0.3,68900.0,0.33,276.0,2700.0,20.811242940717595,4.307898160848309,11631.325034290434,15.450999801049273,5.276359274348635,5.360243139668322,0.968461113500326,2073,78,660,1053,165.776282859099,91.39708212930543,0.0007161491988157845,False
0.44,0.7505993176518736,1.2,644.0,39.25194,0.3,68900.0,0.33,276.0,2700.0,16.29343616702964,3.4061470043442594,9196.5969117295,12.739270380879622,3.8953510373350393,3.5541657861500173,0.48920403299077986,1525,66,504,759,70.59678177187025,39.93860169013333,0.0005908444300309516,False
0.45,0.850978945230102,1.2,645.0,39.25194,0.3,68900.0,0.33,276.0,2700.0,20.56014073121453,4.435179910817691,11974.985759207766,15.51635793869195,5.311377422716119,5.043782792522581,0.876197511898428,2146,78,654,1113,73.73716160711894,42.29626100387896,0.0006938308411044439,False
0.46,0.8880070374116367,1.2,646.0,39.25194,0.3,68900.0,0.33,276.0,2700.0,22.13383930455046,4.886922998360062,13194.692095572169,16.604708534583512,5.905961998668337,5.529130769966947,1.0190390003082745,2168,80,676,1114,75.69297236905606,42.66104960610774,0.0007215079726318214,False
0.4700000000000001,0.8648102711588572,1.2,647.0,39.25194,0.3,68900.0,0.33,276.0,2700.0,20.854448482278976,4.68334901062013,12645.042328674352,15.918864261297257,5.528767282871733,4.935584220981719,0.845418272251603,2276,80,680,1192,72.38605991034306,41.53383799347956,0.0006842552089875896,False
0.4800000000000001,0.8700982922402525,1.2,648.0,39.25194,0.3,68900.0,0.33,276.0,2700.0,20.927602173121244,4.79100117838523,12935.70318164012,16.07402181363593,5.613356501183269,4.8535803594853135,0.8223553227980389,2319,80,680,1225,73.17730307946755,41.34912329546344,0.0006806460877293059,False
0.49,0.817843792234767,1.2,649.0,39.25194,0.2,68900.0,0.33,276.0,2700.0,18.39418296220141,4.260171336337889,11502.4626081123,14.571645986116454,4.812968310868477,3.8225369760849546,0.5527969745305885,5360,106,1328,3018,79.28423611798813,45.19235381018444,0.0006196844023034985,False
0.5,0.9034316747496296,1.2,650.0,39.25194,0.3,68900.0,0.33,276.0,2700.0,22.155314595711697,5.277029261128776,14247.979005047695,17.068245188042347,6.165650862248401,5.08706940766935,0.8886216011196248,2334,80,674,1241,72.14850243316141,41.20893898093359,0.0006960468112292449,False
0.01,0.6343568571131908,1.2,651.0,42.271319999999996,0.08,68900.0,0.33,276.0,2700.0,19.44593495702009,0.09722758038999796,262.51446705299446,9.839753905504848,2.5863200425435857,9.606181051515241,2.4890924621535877,24284,282,8012,12200,2588.826110035759,1485.6938554658261,0.022471835091298176,True
0.02,0.61095371914805,1.2,652.0,42.271319999999996,0.1,68900.0,0.33,276.0,2700.0,18.141255056839363,0.18139579540758827,489.7686476004883,9.297061895243692,2.3624161184251626,8.84419316159567,2.181020323017574,14843,218,4914,7466,1218.6441716530508,689.4008316083772,0.010387940791234807,True
0.03,0.37135823313038074,1.2,653.0,42.271319999999996,0.1,68900.0,0.33,276.0,2700.0,8.571047146204574,0.1285091585253035,346.97472801831947,4.532964797501355,0.7344169011383107,4.0380823487032185,0.6059077426130072,7280,140,2376,3710,522.4465550840009,298.8264715948548,0.0028369791181009772,True
0.04,0.4973017646762773,1.2,654.0,42.271319999999996,0.1,68900.0,0.33,276.0,2700.0,12.933259209466796,0.2585311429027825,698.0340858375127,6.857344086898097,1.4475008168996137,6.0759151225686985,1.1889696739968312,10745,178,3532,5441,581.6542460469966,332.3692397730235,0.003522053245253399,True
0.05,0.7225518251396144,1.2,655.0,42.271319999999996,0.2,68900.0,0.33,276.0,2700.0,22.76359442550041,0.5688280612497099,1535.8357653742166,12.008577509836945,3.5483397086376014,10.755016915663466,2.9795116473878913,4887,126,1618,2454,601.9881674582924,343.5179497552543,0.005612588200687808,True
0.06000000000000001,0.7302533787419685,1.2,656.0,42.271319999999996,0.2,68900.0,0.33,276.0,2700.0,22.90615180349082,0.6867321647626058,1854.1768448590356,12.2072491816776,3.6415884955432514,10.698902621813218,2.9548563307806455,4933,126,1626,2488,506.699739534953,289.2790579008127,0.0047473825436549775,True
0.06999999999999999,0.6997993017677695,1.2,657.0,42.271319999999996,0.2,68900.0,0.33,276.0,2700.0,21.163343753775145,0.7399986538620094,1997.9963654274252,11.430353668501784,3.2817169626745692,9.73299008527336,2.54171830881256,4418,118,1454,2231,423.494879455269,241.87856094579274,0.0037395971159471177,True
0.08,0.3836918525436997,1.2,658.0,42.271319999999996,0.08,68900.0,0.33,276.0,2700.0,8.191745595810849,0.32659749354000844,881.8132325580228,4.742982428346029,0.7916159730929201,3.4487631674648194,0.46501847955291165,10286,168,3392,5192,200.0431309445728,115.23214551480945,0.0011665614920475433,False
0.09,0.7409987280641459,1.2,659.0,42.271319999999996,0.2,68900.0,0.33,276.0,2700.0,22.720964834460936,1.0209166035210975,2756.474829506963,12.486930440576065,3.7742596901910144,10.23403439388487,2.7533430866699167,4927,126,1622,2488,348.68905682161625,199.5557107939468,0.0032626822580355567,True
0.09999999999999999,0.7157464466450993,1.2,660.0,42.271319999999996,0.3,68900.0,0.33,276.0,2700.0,21.2413433799473,1.059972773894602,2861.9264895154256,11.834264466777569,3.4672105867288137,9.40707891316973,2.407237812834212,1942,80,638,979,321.2746637191957,184.19866190094677,0.00381801190002454,True
0.11,0.8098409323883803,1.2,661.0,42.271319999999996,0.3,68900.0,0.33,276.0,2700.0,25.779014404843075,1.4150581523850823,3820.6570114397223,14.347614632936278,4.697250989551489,11.431399771906797,3.2821928371664066,2357,90,770,1196,313.6718486058584,179.245769481281,0.0032107059256805195,True
0.12,0.7647293599717577,1.2,662.0,42.271319999999996,0.3,68900.0,0.33,276.0,2700.0,23.199558087398792,1.3883543705069485,3748.5568003687613,13.114875224243315,4.078005214447489,10.084682863155477,2.689650843940541,2206,86,720,1120,275.4766559651386,157.52589009512724,0.002599747840212393,False
0.13,0.5714320261397501,1.2,663.0,42.271319999999996,0.3,68900.0,0.33,276.0,2700.0,14.188880390799788,0.9176758393620277,2477.724766277475,8.411850278448782,2.0126023132944386,5.777030112351007,1.094926473932411,1665,70,544,843,198.08686634960432,114.13119805222524,0.0013347684768715512,False
0.14,0.47183867092876614,1.2,664.0,42.271319999999996,0.1,68900.0,0.33,276.0,2700.0,10.241027066957791,0.711124874526079,1920.0371612204133,6.355252612532117,1.2793186000798007,3.8857744544256745,0.5681937255537217,8327,154,2764,4175,147.1814628664717,84.86416483041435,0.0009233263484570393,False
0.15000000000000002,0.7109261824095113,1.2,665.0,42.271319999999996,0.3,68900.0,0.33,276.0,2700.0,19.894646149006768,1.4850298777049304,4009.580669803312,11.71150236587942,3.410462412416248,8.183143783127347,1.9254325347113177,1837,76,602,928,207.35914262897862,118.04020374418288,0.0017698132248313663,False
0.16,0.4863231685817405,1.2,666.0,42.271319999999996,0.2,68900.0,0.33,276.0,2700.0,10.437436887789577,0.8264163086837639,2231.3240334461625,6.6388654374798515,1.373418871710796,3.7985714503097254,0.5470025630270321,2394,80,788,1206,135.43339163805786,78.07837639212634,0.0008513576787551695,False
0.17,0.6776325706628838,1.2,667.0,42.271319999999996,0.3,68900.0,0.33,276.0,2700.0,17.945227269402686,1.5150545547611716,4090.6472978551633,10.879529424618996,3.0344711849322747,7.06569784478369,1.5194166301711032,1688,74,554,851,192.11661828727205,108.73785337870349,0.0015581610190134397,False
0.18000000000000002,0.5992866805432496,1.2,668.0,42.271319999999996,0.3,68900.0,0.33,276.0,2700.0,14.402189970910001,1.2839825851447426,3466.752979890805,9.031658330429773,2.2554985013403277,5.370531640480229,0.9715159161955851,1584,68,520,798,148.5505363694507,85.16153750323853,0.0010255077171630648,False
0.19,0.8347490544864167,1.2,669.0,42.271319999999996,0.3,68900.0,0.33,276.0,2700.0,25.135332321483528,2.373491114533623,6408.426009240782,15.050181834016877,5.063340576013366,10.08515048746665,2.689849461479743,2407,90,790,1216,183.5401994018359,104.1511102774935,0.0018714745151457448,False
0.2,0.6167619873175821,1.2,670.0,42.271319999999996,0.3,68900.0,0.33,276.0,2700.0,14.755435992659736,1.4587884384468286,3938.728783806437,9.430464763600522,2.4168029565267304,5.324971229059214,0.9580145180799018,1428,66,470,717,139.12300596259897,79.46221969748864,0.0009696111203354768,False
0.21000000000000002,0.5615401596877542,1.2,671.0,42.271319999999996,0.3,68900.0,0.33,276.0,2700.0,12.3999419342068,1.2825977100484502,3463.013817130816,8.196433413672786,1.9304608783396002,4.2035085205340135,0.64786316829115,1445,64,476,725,121.05103494605075,69.39149480512833,0.0008129966187180365,False
0.22,0.871094661463943,1.2,672.0,42.271319999999996,0.3,68900.0,0.33,276.0,2700.0,26.339662726834867,2.8750617809015515,7762.666808434189,16.10333529344969,5.629386763272204,10.236327433385178,2.7543249823706524,2444,92,804,1232,163.48338674953948,92.32665179611489,0.0017122768240229148,False
0.23,0.590576295733121,1.2,673.0,42.271319999999996,0.3,68900.0,0.33,276.0,2700.0,13.188244871543201,1.4911656550166503,4026.1472685449558,8.835743645307273,2.177683912067472,4.352501226235928,0.6865182570508215,1439,64,472,725,117.00679616470227,66.88994124478009,0.0008037169762272682,False
0.24000000000000005,0.814082087178886,1.2,674.0,42.271319999999996,0.3,68900.0,0.33,276.0,2700.0,22.936119439859294,2.7233814148876325,7353.129820196607,14.466140662790188,4.758352627928159,8.469978777069105,2.034971213040526,2340,86,768,1182,141.73868277696883,80.14001143276198,0.0013556165488374655,False
0.25,0.5934259492578179,1.2,675.0,42.271319999999996,0.3,68900.0,0.33,276.0,2700.0,12.971094192023493,1.5886618505280439,4289.386996425718,8.899628413027871,2.2029536963506593,4.071465778995622,0.6142918458226154,1453,64,480,727,107.12801503833141,61.426111805901,0.0007493137122675728,False
0.26,0.718405696449028,1.2,676.0,42.271319999999996,0.3,68900.0,0.33,276.0,2700.0,17.999181616861808,2.303082521872371,6218.322809055401,11.902239970177355,3.498771194727925,6.096941646684453,1.195688672855554,1854,74,610,933,119.28798447960058,67.87195359201782,0.0009632259117953586,False
0.27,0.9567965853034492,1.2,677.0,42.271319999999996,0.3,68900.0,0.33,276.0,2700.0,29.823832191333473,3.984993367029613,10759.482090979956,18.718082239775082,7.120199651184233,11.10574995155839,3.13520628415462,2726,98,902,1367,141.4347104498397,79.3603105481808,0.0016148961843155739,False
0.28,0.7388081639627826,1.2,678.0,42.271319999999996,0.3,68900.0,0.33,276.0,2700.0,18.534293721065126,2.5488249596613826,6881.827391085733,12.429678680411612,3.746968997472343,6.104615040653513,1.1981440378109602,1760,74,578,887,119.87354006847801,67.08468254205454,0.0010027989155588473,False
0.29000000000000004,0.9457274063237207,1.2,679.0,42.271319999999996,0.3,68900.0,0.33,276.0,2700.0,28.717319131518224,4.112931071917875,11104.913894178262,18.369982640400508,6.914935277664735,10.347336491117716,2.8020042057468597,2523,94,830,1272,130.256388769916,74.09860489508853,0.001453526509039653,False
0.3,0.8632694625926798,1.2,680.0,42.271319999999996,0.3,68900.0,0.33,276.0,2700.0,24.107702473783963,3.5596067033029812,9610.93809891805,15.873787116637631,5.504274095740658,8.233915357146332,1.9446673924376765,2288,86,756,1148,119.1356910111453,67.16590864915196,0.0011663007199461896,False
0.31,0.7679544092989028,1.2,681.0,42.271319999999996,0.3,68900.0,0.33,276.0,2700.0,19.289649156926306,2.927501494828183,7904.254036036094,13.201306851454797,4.120440636842113,6.0883423054715085,1.19293914201393,1868,78,618,935,107.28342626994548,60.793517050488745,0.0008924251833158678,False
0.32,0.6510473395356252,1.2,682.0,42.271319999999996,0.3,68900.0,0.33,276.0,2700.0,14.108412405696514,2.1887168461962037,5909.535484729749,10.23519629632266,2.7538406063817056,3.8732161093738533,0.5651237601855019,1296,62,428,648,89.14375624603804,50.7033333171553,0.0006886420614645971,False
0.33,0.893823595284083,1.2,683.0,42.271319999999996,0.3,68900.0,0.33,276.0,2700.0,25.024745593691094,4.053816746164328,10945.305214643686,16.778803733240842,6.003050152062601,8.245941860450252,1.9492334058982728,2288,86,756,1148,110.97742565545951,62.429339428607946,0.0011114674601705621,False
0.34,0.7416633886115729,1.2,684.0,42.271319999999996,0.3,68900.0,0.33,276.0,2700.0,17.560172482795846,2.9029112169708324,7837.860285821248,12.504325606766734,3.7825650405386955,5.055846876029111,0.879653823567863,1698,72,562,849,93.7352631944878,53.27666651539112,0.0007787775804165204,False
0.3500000000000001,0.7945534222163685,1.2,685.0,42.271319999999996,0.3,68900.0,0.33,276.0,2700.0,19.7594490258687,3.3681063895119134,9093.887251682167,13.924131699079963,4.481156167617766,5.835317326788738,1.1130497781058528,1893,78,626,948,97.71929914119977,55.16963632283017,0.0008397578702248717,False
0.36000000000000004,0.9150813914166182,1.2,686.0,42.271319999999996,0.3,68900.0,0.33,276.0,2700.0,25.47940936453981,4.4885775877195995,12119.159486842918,17.422302579274287,6.366550105491615,8.057106785265521,1.8779725177720152,2326,88,770,1165,103.59415732590038,58.856727911483304,0.0010452545066853335,False
0.37,0.8982370748468802,1.2,687.0,42.271319999999996,0.3,68900.0,0.33,276.0,2700.0,24.400734302890843,4.408048450913282,11901.730817465861,16.911470814457402,6.077395641099582,7.489263488433441,1.6693471901863006,2254,86,750,1123,100.82261960265366,56.699425852681344,0.0009746121172594768,False
0.38,0.8345373283838986,1.2,688.0,42.271319999999996,0.3,68900.0,0.33,276.0,2700.0,21.067539554246597,3.8879088672483353,10497.353941570505,15.044144105599422,5.060154698863694,6.023395448647175,1.1722458316153586,2022,80,672,1008,91.5835467931488,52.076847148824434,0.0008387415913562472,False
0.39,0.7772356251100966,1.2,689.0,42.271319999999996,0.3,68900.0,0.33,276.0,2700.0,18.255535997873544,3.4355920965064803,9276.098660567497,13.451502934323257,4.244124202186342,4.804033063550287,0.8085321056798613,1909,76,618,964,86.3453183222705,49.053026838997596,0.0007402916875886828,False
0.4,1.0071448029509045,1.2,690.0,42.271319999999996,0.3,68900.0,0.33,276.0,2700.0,29.550313470875054,5.776021407621851,15595.257800578998,20.340273502494618,8.103191641756204,9.210039968380435,2.3271702341343534,2887,98,960,1441,101.5435384214589,56.9190387880636,0.0011082282090711282,False
0.4100000000000001,0.8147595546175542,1.2,691.0,42.271319999999996,0.3,68900.0,0.33,276.0,2700.0,19.59568285020824,3.872767179440649,10456.471384489752,14.485115475748314,4.768159393948147,5.110567374459928,0.8953922145074977,2044,78,656,1036,84.43250718631161,47.58884526071963,0.0007609393842229288,False
0.42000000000000004,1.0279551743130504,1.2,692.0,42.271319999999996,0.3,68900.0,0.33,276.0,2700.0,30.25790461508148,6.198990424821008,16737.27414701672,21.02938070881723,8.533631699902335,9.22852390626425,2.334641275081327,2893,98,962,1444,97.1288651330355,54.46797210588031,0.0010857848906376437,False
0.43,0.9810925421198622,1.2,693.0,42.271319999999996,0.3,68900.0,0.33,276.0,2700.0,27.46451444445952,5.7383515341527085,15493.549142212312,19.4929302394272,7.584356168455329,7.971584205032322,1.8460046343026209,2583,92,862,1284,91.61312660960982,52.17629203406733,0.0009613262049236981,False
0.44,0.9422902617403088,1.2,694.0,42.271319999999996,0.3,68900.0,0.33,276.0,2700.0,25.22013730153932,5.370021253936386,14499.057385628243,18.262519104740402,6.8519797602353005,6.957618196798919,1.4819585062989145,2189,86,732,1085,88.83702897311402,50.12817696802257,0.0008778003543368446,False
0.45,0.9028170949235244,1.2,695.0,42.271319999999996,0.3,68900.0,0.33,276.0,2700.0,23.040472468275226,4.993254551656344,13481.78728947213,17.049661637676877,6.155166774112568,5.990810830598349,1.1619122224562242,2138,82,692,1078,84.25854078303851,47.602583801303325,0.0008091750167790354,False
0.46,1.0517052277196357,1.2,696.0,42.271319999999996,0.3,68900.0,0.33,276.0,2700.0,30.690158764053958,6.854876474045865,18508.166479923835,21.82913064335796,9.042549608952248,8.861028120695998,2.187673134906383,3213,100,1006,1656,91.4842192493875,51.08742288072941,0.0010160660648550369,False
0.4700000000000001,1.032882522958119,1.2,697.0,42.271319999999996,0.3,68900.0,0.33,276.0,2700.0,29.4196588928062,6.696173457093682,18079.668334152942,21.194136823427225,8.637656445301257,8.225522069378975,1.941482988207575,2723,94,900,1361,87.93833701513775,49.84276544454595,0.0009509459670025685,False
0.4800000000000001,0.8422244135031514,1.2,698.0,42.271319999999996,0.3,68900.0,0.33,276.0,2700.0,19.643974032771528,4.482930424701299,12103.912146693507,15.264076467939415,5.176644683187272,4.379897564832113,0.693714258485973,1952,74,614,995,82.69679904543614,47.121133498683534,0.0006934367654171576,False
0.49,1.0106086208161864,1.2,699.0,42.271319999999996,0.3,68900.0,0.33,276.0,2700.0,27.785419950656188,6.561024398509314,17714.765875975147,20.454218076253937,8.173843899083009,7.33120187440225,1.6128195005736945,2720,92,850,1395,85.66129285251097,48.4717104171917,0.0008936591240526166,False
0.5,1.0999831670441071,1.2,700.0,42.271319999999996,0.3,68900.0,0.33,276.0,2700.0,32.54592686416507,7.87468232824212,21261.642286253722,23.498520770757917,10.136476741034501,9.047406093407151,2.2617944127923817,3525,102,1038,1868,90.55886411734375,51.62900519401831,0.0009988254795568643,False
0.01,0.38060636765313466,1.2,701.0,45.2907,0.05,68900.0,0.33,276.0,2700.0,9.21036964090685,0.046049753809431854,124.33433528546601,4.690084020506928,0.7770632426148835,4.520285620399921,0.7310134888054516,29576,286,9800,14870,1827.6367287048054,1041.5219425733499,0.009557252121776426,True
0.02,0.44773808603638454,1.2,702.0,45.2907,0.1,68900.0,0.33,276.0,2700.0,11.419249060364628,0.11417573544282682,308.2744856956324,5.895038334291538,1.131728330093601,5.52421072607309,1.0175525946507742,9557,166,3162,4808,962.1727495246552,547.2920099833785,0.006335206308250743,True
0.03,0.6486712612495953,1.2,703.0,45.2907,0.1,68900.0,0.33,276.0,2700.0,19.65297486567931,0.294738074317426,795.7928006570502,10.178473205864815,2.729588396056222,9.474501659814496,2.434850321738796,15691,226,5172,7927,1081.5949415653117,616.9472399811931,0.008249848791196114,True
0.04,0.7291071559778604,1.2,704.0,45.2907,0.1,68900.0,0.33,276.0,2700.0,23.34070772051359,0.4666801131237191,1260.0363054340417,12.177586440721585,3.6276132718525647,11.163121279792003,3.1609331587288456,18330,250,6036,9270,986.928802073174,561.7696960423233,0.007670838497041898,True
0.05,0.6611489316050867,1.2,705.0,45.2907,0.2,68900.0,0.33,276.0,2700.0,19.779462877026322,0.494224772537858,1334.4068858522166,10.477931159752456,2.8584562295256797,9.301531717273866,2.3642314569878216,4242,116,1404,2130,574.2093723254181,330.89352414002303,0.0050853361159416,True
0.06000000000000001,0.47180934104266303,1.2,706.0,45.2907,0.1,68900.0,0.33,276.0,2700.0,11.590745207124758,0.34726996687162603,937.6289105533903,6.354683669846519,1.2791322095880837,5.236061537278239,0.9318622427164577,9481,166,3120,4795,386.1557848664616,221.28712617309625,0.0022667014512096646,True
0.06999999999999999,0.5738344717340048,1.2,707.0,45.2907,0.2,68900.0,0.33,276.0,2700.0,15.453325144020052,0.5401480025205815,1458.39960680557,8.464539911923707,2.032874588882813,6.988785232096346,1.4927265863622314,3366,100,1102,1707,365.4621714229474,210.92552866895684,0.0027508239775567247,True
0.08,0.5034484080974857,1.2,708.0,45.2907,0.2,68900.0,0.33,276.0,2700.0,12.426971157058938,0.49600651598993145,1339.217593172815,6.980987629817111,1.4900299758265372,5.445983527241827,0.9940234598366058,2733,88,894,1386,291.89217980374593,168.51970511665823,0.0018878534494300664,True
0.09,0.434969210922358,1.2,709.0,45.2907,0.2,68900.0,0.33,276.0,2700.0,9.753577350010282,0.4373841667208175,1180.9372501462071,5.657125468530397,1.0579786219477108,4.096451881479885,0.6205944552268933,2126,76,694,1079,224.54994680171765,129.40013608887654,0.001332967638105949,False
0.09999999999999999,0.7312853575923862,1.2,710.0,45.2907,0.3,68900.0,0.33,276.0,2700.0,22.001728278580778,1.0979920188266472,2964.5784508319475,12.23398368748538,3.6541999109409873,9.767744591095399,2.5562078921143403,2229,84,726,1134,338.10533919556667,193.79069401136147,0.003094133966276994,True
0.11,0.630811444135323,1.2,711.0,45.2907,0.3,68900.0,0.33,276.0,2700.0,17.09204056039228,0.9372745909402882,2530.641395538778,9.756655111679313,2.551581454457152,7.335385448712968,1.6143068635168638,1720,72,560,874,273.9809328333673,157.759046433622,0.0020781606169103,False
0.12,0.5786196524094969,1.2,712.0,45.2907,0.3,68900.0,0.33,276.0,2700.0,14.670939500107082,0.8766372552694893,2366.9205892276213,8.569919103378616,2.0736308414469105,6.101020396728465,1.1969935861774212,1771,72,580,895,264.4149894265216,150.45058138292777,0.0024568455393819528,False
0.13,0.4407941772514524,1.2,713.0,45.2907,0.2,68900.0,0.33,276.0,2700.0,9.322305994424525,0.6013485035976357,1623.6409597136164,5.76514940896006,1.0912453912878253,3.5571565854644653,0.4898968876901896,2079,74,680,1053,165.6591214405771,95.6330366551962,0.0009625090638725895,False
0.14,0.6157684246031301,1.2,714.0,45.2907,0.3,68900.0,0.33,276.0,2700.0,15.839262439791685,1.1030013506244527,2978.1036466860223,9.407584746743831,2.4074445667776976,6.431677693047854,1.3044432161532449,1558,70,508,790,213.79664061195604,122.44536432427982,0.0015315531948270685,False
0.15000000000000002,0.6315876627984627,1.2,715.0,45.2907,0.3,68900.0,0.33,276.0,2700.0,16.320383431222538,1.2169601738711129,3285.7924694520048,9.774821420773248,2.5591618017792244,6.54556201044929,1.3422016279081115,1762,72,576,892,199.04178184948884,114.09493591301961,0.001494173719025,False
0.16,0.694339804619567,1.2,716.0,45.2907,0.3,68900.0,0.33,276.0,2700.0,18.91030875182571,1.5042460578066557,4061.4643560779705,11.293543632282493,3.2196867772330373,7.616765119543217,1.7154407194263817,1843,76,602,934,200.59158241478568,114.5452507606798,0.0016824551077270974,False
0.17,0.5519939170793071,1.2,717.0,45.2907,0.3,68900.0,0.33,276.0,2700.0,12.704718031780713,1.069611269563303,2887.9504278209183,7.9908750854565564,1.8531987133164334,4.7138429463241565,0.7835874437531303,1674,68,550,843,155.93782767713293,89.60719427512308,0.0010304499516651502,False
0.18000000000000002,0.7414850533583754,1.2,718.0,45.2907,0.3,68900.0,0.33,276.0,2700.0,20.69489745697561,1.850326258890647,4995.880899004747,12.499657215102244,3.780335494746834,8.195240241873366,1.930009235856187,1964,78,642,995,190.39394004901726,108.07367648668824,0.0016806604644948367,False
0.19,0.7876302892200812,1.2,719.0,45.2907,0.3,68900.0,0.33,276.0,2700.0,22.728540465250816,2.1448458881910835,5791.083898115925,13.734284651126847,4.385415415159331,8.994255814123969,2.2405695269682475,2284,86,748,1156,187.24586988521824,105.89956766589404,0.0017818429541870406,False
0.2,0.6456455620979706,1.2,720.0,45.2907,0.3,68900.0,0.33,276.0,2700.0,15.962216550931227,1.5794664942739782,4264.559534539741,10.10644738380785,2.698900420561153,5.855769167123377,1.1194339262871749,1600,70,518,817,154.92673956892335,88.73593140533677,0.001136110099603467,False
0.21000000000000002,0.7382542930758955,1.2,721.0,45.2907,0.3,68900.0,0.33,276.0,2700.0,19.904843925263414,2.0706124191093966,5590.653531595371,12.415222020720739,3.740088564235228,7.489621904542675,1.6694761451258313,1955,78,638,992,161.9343207495695,91.75354976358847,0.0013984167148722159,False
0.22,0.6006649280312004,1.2,722.0,45.2907,0.3,68900.0,0.33,276.0,2700.0,13.753918484394243,1.4906299142330846,4024.7007684293285,9.062832716028572,2.2679678392723144,4.691085768365671,0.7773379250392298,1597,68,528,799,131.74431378825977,75.25435097156453,0.0009167124975367631,False
0.23,0.8415599939078235,1.2,723.0,45.2907,0.3,68900.0,0.33,276.0,2700.0,24.5559554007163,2.798452365871556,7555.821387853201,15.24500836886175,5.166509266901033,9.31094703185455,2.3680569010294774,2427,88,796,1227,162.03276612859884,91.0653910934612,0.0016304517711947203,False
0.24000000000000005,0.8838032984767235,1.2,724.0,45.2907,0.3,68900.0,0.33,276.0,2700.0,26.542121465625883,3.1561016579795944,8521.474476544905,16.479415895077626,5.836423643256464,10.062705570548257,2.6803219852768696,2450,92,806,1235,161.1575951083792,91.1398091790198,0.0017056521431581529,False
0.25,0.7644479751976689,1.2,725.0,45.2907,0.3,68900.0,0.33,276.0,2700.0,20.311967254108463,2.5062709832885868,6766.931654879184,13.107346484364975,4.074315947528395,7.204620769743489,1.568044964239808,1883,78,622,944,139.2212691503694,79.00577487506183,0.0012258213612863825,False
0.26,0.8528740505793283,1.2,726.0,45.2907,0.3,68900.0,0.33,276.0,2700.0,24.458463040928798,3.1427891070010796,8485.530588902915,15.571223267425953,5.34083452918051,8.887239773502845,2.1980454221794306,2428,88,798,1225,144.4787097013432,81.5997306202227,0.0014484200449558825,False
0.27,0.6486951481518607,1.2,727.0,45.2907,0.3,68900.0,0.33,276.0,2700.0,14.836480291662136,1.9617008605739827,5296.592323549753,10.179042741502254,2.7298315350530933,4.657437550159882,0.7681306744791105,1367,64,452,683,116.38616122185323,66.10514603934533,0.0008479752772476566,False
0.28,0.8571605564259872,1.2,728.0,45.2907,0.3,68900.0,0.33,276.0,2700.0,24.233381101888625,3.346697192976671,9036.082421037012,15.695655178324202,5.4078471928564635,8.537725923564423,2.0611499998797926,2425,88,798,1222,134.94858954648797,76.45607414924497,0.001338517394925445,False
0.29000000000000004,0.6861151794319411,1.2,729.0,45.2907,0.3,68900.0,0.33,276.0,2700.0,16.04724886746771,2.275770883630552,6144.58138580249,11.088856305224303,3.127644517307667,4.958392562243409,0.8518736336771151,1609,70,530,808,110.98171357875889,63.438877024152944,0.0008639243384595956,False
0.3,0.6459670088574535,1.2,730.0,45.2907,0.3,68900.0,0.33,276.0,2700.0,14.226726941497475,2.07746037345998,5609.143008341946,10.114088399780426,2.702150333342957,4.112638541717049,0.6246899598829767,1404,64,462,705,105.97984528473503,60.63520613769068,0.0007689557684979868,False
0.31,0.7673925910909325,1.2,731.0,45.2907,0.3,68900.0,0.33,276.0,2700.0,19.26387519952956,2.923506531431689,7893.46763486556,13.186231267852458,4.113028137524047,6.077643931677104,1.1895216060923581,1869,78,618,936,114.89330082829977,65.1075488717723,0.0009551887014921032,False
0.32,0.9493686039580487,1.2,732.0,45.2907,0.3,68900.0,0.33,276.0,2700.0,28.20707754308286,4.444503268178038,12000.158824080703,18.484149847696276,6.982031766570809,9.722927695386584,2.5375284983927706,2622,94,864,1320,128.5322027127714,72.4210456594528,0.0013905066056775855,False
0.33,0.7136494797446927,1.2,733.0,45.2907,0.2,68900.0,0.33,276.0,2700.0,16.52304167747627,2.6510355999888793,7157.796119969974,11.780787320509255,3.4424506150660408,4.742254356967017,0.7914150150771615,4255,104,1214,2278,109.75484191707508,62.81133549695079,0.0008223963911937194,False
0.34,0.9508443177219297,1.2,734.0,45.2907,0.3,68900.0,0.33,276.0,2700.0,27.8250720371917,4.6479441412181295,12549.44918128895,18.530514711387955,7.009343284817675,9.294557325803744,2.361399143599545,2556,92,846,1281,120.05455744542358,67.59209910312097,0.0012973240854551342,False
0.3500000000000001,0.6714630830265453,1.2,735.0,45.2907,0.3,68900.0,0.33,276.0,2700.0,14.450784410564228,2.4390900818336316,6585.543220950805,10.728419803970455,2.9678166889457533,3.722364606593773,0.5287266071121217,1460,64,486,725,92.93304828490858,53.03790546247858,0.0007101307507853254,False
0.36000000000000004,0.7757708891153636,1.2,736.0,45.2907,0.3,68900.0,0.33,276.0,2700.0,18.7190035400027,3.2717045393032285,8833.602256118716,13.411873802145317,4.2244503313450315,5.307129737857382,0.952745792041803,1794,76,598,891,100.26648338054376,56.68005452708518,0.0008486847577071536,False
0.37,0.9846956747991211,1.2,737.0,45.2907,0.3,68900.0,0.33,276.0,2700.0,28.992013814006047,5.2574351604696,14195.07493326792,19.609104769640442,7.65480098056703,9.382909044365604,2.3973658200974297,2815,96,932,1411,112.92108259471289,63.75951908801169,0.0012489387947934038,False
0.38,1.0000593891057075,1.2,738.0,45.2907,0.3,68900.0,0.33,276.0,2700.0,29.61470940079752,5.511871138093007,14882.05207285112,20.108133421630313,7.959895535534605,9.506575979167206,2.448024397441597,2709,96,902,1350,111.32867338775786,62.35775885595529,0.0012464314945736085,False
0.39,0.7052059445760979,1.2,739.0,45.2907,0.3,68900.0,0.33,276.0,2700.0,15.191703402575067,2.8381447404232767,7662.990799142847,11.566577488952607,3.343884727892197,3.62512591362246,0.5057399874689201,1393,64,466,688,84.70128785299113,48.0597408164966,0.0006892761295030026,False
0.4,1.0195364464069563,1.2,740.0,45.2907,0.3,68900.0,0.33,276.0,2700.0,30.24378210204128,5.9147151338550925,15969.73086140875,20.749295011753627,8.357771297995864,9.494487090287652,2.4430561641407715,2778,98,930,1377,108.18465122381916,60.898047181187046,0.0012160143545160147,False
0.4100000000000001,0.9395018174817334,1.2,741.0,45.2907,0.3,68900.0,0.33,276.0,2700.0,25.6911658667814,5.122341197838148,13830.321234163,18.17555556166918,6.801177035596024,7.515610305112219,1.6788358377578758,2340,88,778,1167,102.07895569684773,57.42701067695465,0.0010043121236921319,False
0.42000000000000004,0.9896332669173737,1.2,742.0,45.2907,0.3,68900.0,0.33,276.0,2700.0,28.141331190406206,5.754510005638711,15537.177015224519,19.76883573426647,7.7520168327823304,8.372495456139735,1.9975068271436198,2532,92,850,1251,102.02297949617969,57.36147052274481,0.001078377405540843,False
0.43,1.053971169653413,1.2,743.0,45.2907,0.3,68900.0,0.33,276.0,2700.0,31.5033966510964,6.606711208579751,17838.120263165325,21.906173875430227,9.092100414832904,9.597222775666172,2.4853892062531537,3050,102,1016,1518,104.72020085753661,59.177255322799134,0.0011860364657758208,False
0.44,0.7880879876687527,1.2,744.0,45.2907,0.2,68900.0,0.33,276.0,2700.0,17.89392752755891,3.7582551036606993,10147.288779883887,13.746798530503726,4.3917044395283185,4.147128997055182,0.6334493358676192,5002,104,1268,2786,92.74985982811826,52.75947937635274,0.0007442499276893817,False
0.45,1.1256525124268784,1.2,745.0,45.2907,0.3,68900.0,0.33,276.0,2700.0,35.24091500663868,7.738354122788125,20893.556131527937,24.40998750591728,10.751331339458117,10.830927500721401,3.0129772166699924,3287,106,1092,1641,103.20521513882426,58.50130220090613,0.0012705746711771805,False
0.46,0.9262586992440827,1.2,746.0,45.2907,0.3,68900.0,0.33,276.0,2700.0,24.01261003292495,5.319040265886193,14361.408717892722,17.76520879600352,6.563198004027081,6.24740123692143,1.2441577381408875,2151,84,712,1071,91.02853719955682,51.56661312801478,0.0008815133888664256,False
0.4700000000000001,0.9810240891023171,1.2,747.0,45.2907,0.3,68900.0,0.33,276.0,2700.0,26.625409790021898,6.03952491793938,16306.717278436325,19.490726291358325,7.583021893993529,7.134683498663573,1.5434969760541497,2485,90,814,1242,90.93501198463322,51.60207012999463,0.0009468428122319143,False
0.4800000000000001,0.8924936169142345,1.2,748.0,45.2907,0.3,68900.0,0.33,276.0,2700.0,21.98723013603741,5.045311889485114,13622.342101609807,16.738921211037454,5.980761232398501,5.248308924999957,0.9354493429133868,2254,80,672,1182,92.66984657300104,52.45284796396227,0.0008112748254338539,False
0.49,1.0481308498877533,1.2,749.0,45.2907,0.3,68900.0,0.33,276.0,2700.0,29.830620373223418,7.062098502038284,19067.665955503366,21.707862223564746,8.964740873511568,8.122758149658672,1.9026423714732843,2803,94,900,1421,97.88912005145306,55.145141440994344,0.001006363660840439,False
0.5,1.1188689888085046,1.2,750.0,45.2907,0.3,68900.0,0.33,276.0,2700.0,33.64657577051126,8.149844554828665,22004.580298037396,24.167508341755084,10.586568698025523,9.479067428756178,2.4367241431968587,3333,102,1008,1739,96.99149976343288,52.971764918329825,0.0011076962379574105,False
0.01,0.7093749422615139,1.2,751.0,48.31008,0.08,68900.0,0.33,276.0,2700.0,23.091812463840647,0.11545696792409897,311.7338133950672,11.672119709522658,3.3923256135497684,11.419692754317989,3.2768686456256693,27416,308,9132,13712,3335.4610740331386,1905.96713267486,0.032002491346399896,True
0.02,0.7042082840733054,1.2,752.0,48.31008,0.1,68900.0,0.33,276.0,2700.0,22.58302744894747,0.22581351932865548,609.6965021873698,11.541385519784361,3.332357778975024,11.041641929163108,3.1065442596463684,17828,246,5918,8945,1637.578365092645,933.1010377364507,0.015523808218336762,True
0.03,0.6429253505814296,1.2,753.0,48.31008,0.1,68900.0,0.33,276.0,2700.0,19.384140794329497,0.290705563246868,784.9050207665437,10.041890012900344,2.671496593005024,9.342250781429152,2.3807910297581563,15785,226,5206,7970,1180.580618429555,672.956579642326,0.008650651600665698,True
0.04,0.5463048761784132,1.2,754.0,48.31008,0.1,68900.0,0.33,276.0,2700.0,14.908233118558522,0.29803062108461664,804.682676928465,7.869462691859664,1.8080840437922727,7.038770426698858,1.510053422707656,11838,192,3898,5985,744.6198694893095,425.0696479233059,0.004771826007266506,True
0.05,0.6558670492802762,1.2,755.0,48.31008,0.2,68900.0,0.33,276.0,2700.0,19.531619900416466,0.4880286981225049,1317.677484930763,10.350690966905669,2.8034493726159897,9.180928933510797,2.3154206744934847,4210,116,1392,2116,607.7269451526897,350.7369191381472,0.005342504396507316,True
0.06000000000000001,0.37860552329356767,1.2,756.0,48.31008,0.1,68900.0,0.33,276.0,2700.0,8.333743669034886,0.24955992072892985,673.8117859681106,4.655908877811085,0.7677133208036979,3.677834791223801,0.5181534000747681,6946,136,2282,3517,312.2300207637463,179.50340253048557,0.0017123103480795791,True
0.06999999999999999,0.3964715202687895,1.2,757.0,48.31008,0.1,68900.0,0.33,276.0,2700.0,8.765535404711263,0.3060753616447733,826.4034764408879,4.964628441573515,0.8536416223866311,3.8009069631377486,0.5475662607418579,7383,142,2420,3747,268.944177955113,154.60445561827274,0.0015800631227036886,False
0.08,0.4515305367943023,1.2,758.0,48.31008,0.2,68900.0,0.33,276.0,2700.0,10.50236195427517,0.4190221478785818,1131.359799272171,5.966489491440876,1.1542203459499105,4.535872462834294,0.7351981980713287,2329,80,766,1174,277.2623424667899,160.0454936052041,0.0016721184334590486,True
0.09,0.39793377885924713,1.2,759.0,48.31008,0.2,68900.0,0.33,276.0,2700.0,8.50360065486765,0.3811352154393998,1029.0650816863795,4.990251034093966,0.8609199198534243,3.5133496207736847,0.4797847044140245,1992,72,652,1008,229.7029628860899,132.60920003282894,0.001256692904515603,False
0.09999999999999999,0.636265268247455,1.2,760.0,48.31008,0.3,68900.0,0.33,276.0,2700.0,17.54180202367276,0.874995706081246,2362.4884064193643,9.884614794179576,2.6051411304079046,7.657187229493182,1.7301454243266585,1756,74,576,886,318.78936443656005,183.5562940471091,0.0024954807990044724,True
0.11,0.7874565337992744,1.2,761.0,48.31008,0.3,68900.0,0.33,276.0,2700.0,24.60473988846321,1.3504730539841887,3646.2772457573096,13.729535403394818,4.383029421364831,10.875204485068393,3.032556367380642,2354,90,770,1193,348.25351877003743,199.02711788960312,0.003465326670445371,True
0.12,0.6078111265469432,1.2,762.0,48.31008,0.3,68900.0,0.33,276.0,2700.0,15.893536047615221,0.9499930481199788,2564.9812299239425,9.225237083067562,2.333312163564197,6.66829896454766,1.3833191154442184,1705,72,560,859,260.9354426849017,150.13726344123924,0.0018795889359522445,False
0.13,0.4365562171715085,1.2,763.0,48.31008,0.3,68900.0,0.33,276.0,2700.0,9.178797610095819,0.5920204586162705,1598.4552382639304,5.686471965783963,1.0669797935844316,3.4923256443118555,0.4749593349681611,1395,60,456,705,173.78913382050587,100.22074640259005,0.0010137141312100133,False
0.14,0.638159644122898,1.2,764.0,48.31008,0.3,68900.0,0.33,276.0,2700.0,16.803780132610765,1.1705175891217852,3160.39749062882,9.92923628397237,2.6239085569106764,6.874543848638394,1.4533909677888912,1677,72,548,849,232.65361713781607,133.6371097460264,0.001758729811604102,False
0.15000000000000002,0.5668213801880775,1.2,765.0,48.31008,0.3,68900.0,0.33,276.0,2700.0,13.637178653248705,1.0157198155230762,2742.4435019123057,8.31113746519687,1.9740506307031054,5.3260411880518355,0.9583308151800292,1698,70,556,858,196.75055991007372,113.18903011295507,0.00128539161581364,False
0.16,0.6436692431254653,1.2,766.0,48.31008,0.3,68900.0,0.33,276.0,2700.0,16.646031814129476,1.3231039027909541,3572.380537535576,10.059525954638763,2.678973238874259,6.586505859490712,1.355869336083305,1660,72,542,841,205.43671532193315,117.57178672737669,0.001542778918054042,False
0.17,0.49310899967402927,1.2,767.0,48.31008,0.1,68900.0,0.33,276.0,2700.0,10.521655118876991,0.8840509219664869,2386.9374893095146,6.7735487807338846,1.4189254059862448,3.7481063381431063,0.5348744840197579,9025,156,2824,4663,151.35721654242536,87.30807475013005,0.000940837009159036,False
0.18000000000000002,0.5596063206805512,1.2,768.0,48.31008,0.3,68900.0,0.33,276.0,2700.0,12.827597532720203,1.1422692657076616,3084.127017410686,8.154607251868631,1.914650753362661,4.672990280851572,0.7723814876549995,1633,68,536,823,160.07773835556648,91.93129855862767,0.001060660890572089,False
0.19,0.53459137410717,1.2,769.0,48.31008,0.3,68900.0,0.33,276.0,2700.0,11.712370136933888,1.0983097070014036,2965.43620890379,7.622041137407576,1.7173575287339082,4.090328999526312,0.6190478217325046,1557,64,512,783,144.75113898605392,83.30467504131616,0.0009508616611954214,False
0.2,0.7880456187782401,1.2,770.0,48.31008,0.3,68900.0,0.33,276.0,2700.0,22.52482084127023,2.235726923307877,6036.462692931268,13.745639906527355,4.391122027471447,8.779180934742875,2.1553951041635697,2283,86,748,1155,189.59231965942809,107.14443663020516,0.0017949564216325697,False
0.21000000000000002,0.7083477875997917,1.2,771.0,48.31008,0.3,68900.0,0.33,276.0,2700.0,18.524394179472313,1.9256651958013284,5199.296028663587,11.646075739190637,3.380349919240409,6.878318440281676,1.4546847234390805,1760,74,578,887,168.42708557109927,95.66399485816602,0.001374924491090329,False
0.22,0.8183260938830325,1.2,772.0,48.31008,0.3,68900.0,0.33,276.0,2700.0,23.59515811113331,2.5731662731743286,6947.5489375706875,14.58519892265654,4.819999507812407,9.009959188476769,2.246833234638079,2441,88,800,1235,177.2615471715758,99.83131105482853,0.0017319575068286176,False
0.23,0.9215535693321115,1.2,773.0,48.31008,0.3,68900.0,0.33,276.0,2700.0,28.84449026855464,3.291633875672967,8887.41146431701,17.620478453357265,6.479951094419937,11.224011815197375,3.1883172187469704,2613,96,862,1314,186.50858727564125,104.90107681102924,0.0020781588643376133,False
0.24000000000000005,0.9335478417109258,1.2,774.0,48.31008,0.3,68900.0,0.33,276.0,2700.0,29.26428229393411,3.4827609573766103,9403.454584916848,17.990522317149274,6.693511501946768,11.273759976784834,3.2107505445701574,2620,96,864,1318,179.90511392226708,101.07947045253358,0.002027096073692611,False
0.25,0.8191792592654606,1.2,775.0,48.31008,0.3,68900.0,0.33,276.0,2700.0,22.971762781527207,2.8387454242160066,7664.612645383218,14.609187648023315,4.832453326503392,8.362575133503892,1.9937079022873858,2150,84,714,1073,156.08120832769302,87.88591358999355,0.0014958728683364105,False
0.26,0.6739967089497028,1.2,776.0,48.31008,0.3,68900.0,0.33,276.0,2700.0,16.065613352614264,2.0517186475201914,5539.640348304517,10.790360291217096,2.995076924424449,5.2752530613971675,0.9433582769042577,1660,70,546,835,129.02422105207503,73.68046653658585,0.0009909995414240766,False
0.27,0.8943884365210907,1.2,777.0,48.31008,0.3,68900.0,0.33,276.0,2700.0,26.402669977470453,3.5231364681581065,9512.468464026888,16.795755272565675,6.012532299405583,9.606914704904778,2.4893958312474767,2552,92,838,1289,154.40594914223564,87.34715732635819,0.0016200543301263077,False
0.28,0.6360983852333841,1.2,778.0,48.31008,0.3,68900.0,0.33,276.0,2700.0,14.159098750603373,1.9362976637967375,5228.003692251191,9.880688234515652,2.6034918837459124,4.278410516087721,0.6671942199491749,1378,64,456,688,118.14339080127671,67.47786230814606,0.000851587596510823,False
0.29000000000000004,0.8031001939312561,1.2,779.0,48.31008,0.3,68900.0,0.33,276.0,2700.0,21.337219318935325,3.042816599093355,8215.60481755206,14.160163875030236,4.601169891570507,7.17705544390509,1.5583532924771517,1922,80,634,965,134.3527456179293,75.69016356158475,0.0012057800804773646,False
0.3,0.8186270309906305,1.2,780.0,48.31008,0.3,68900.0,0.33,276.0,2700.0,21.884041004317748,3.2260574828830455,8710.355203784224,14.593658379713261,4.824390008215082,7.2903826246044865,1.5983325253320366,2074,82,692,1030,131.46881898557038,74.31005558981613,0.0012007554703560588,False
0.31,0.7470681414888662,1.2,781.0,48.31008,0.3,68900.0,0.33,276.0,2700.0,18.342140178153578,2.7806376031184072,7507.721528419699,12.646188341632408,3.850530866189295,5.69595183652117,1.0698932630708877,1782,74,586,897,119.81603216351712,67.95739574133688,0.000979140541574254,False
0.32,0.9490898235073446,1.2,782.0,48.31008,0.3,68900.0,0.33,276.0,2700.0,28.191814137235685,4.442061123242491,11993.565032754725,18.475397102064345,6.976879967037951,9.71641703517134,2.5348188437954606,2623,94,864,1321,136.77588165979736,77.07951027283019,0.0014823773140064576,False
0.33,0.7157005203653337,1.2,783.0,48.31008,0.3,68900.0,0.33,276.0,2700.0,16.61064023549025,2.6654893620611864,7196.821277565203,11.83309206458899,3.4666671099099493,4.777548170901261,0.8011777478487629,1629,70,538,816,108.97815549230634,62.009275673291235,0.0008728686284184866,False
0.34,1.0312070473743087,1.2,784.0,48.31008,0.3,68900.0,0.33,276.0,2700.0,32.353423195369494,5.417763838108354,14627.962362892556,21.138045357570586,8.602193186325243,11.215377837798908,3.184429348216889,2978,102,990,1487,134.62605484710596,76.17100896308992,0.0016128527856568312,False
0.3500000000000001,0.8758929756044942,1.2,785.0,48.31008,0.3,68900.0,0.33,276.0,2700.0,23.685390608830147,4.055146166530168,10948.894649631453,16.24485253127926,5.706994915423129,7.440538077550887,1.6518487488929612,2259,86,750,1128,118.63220661352611,66.61903918003657,0.0011347194930206319,False
0.36000000000000004,0.9743229544816578,1.2,786.0,48.31008,0.3,68900.0,0.33,276.0,2700.0,28.64988561611351,5.059263313003178,13660.01094510858,19.275543222470883,7.453133528853695,9.374342393642628,2.3938702158505176,2806,96,928,1408,122.79325742823829,69.30414393126745,0.0013503387910076495,False
0.37,0.9784073525445518,1.2,787.0,48.31008,0.3,68900.0,0.33,276.0,2700.0,28.645409723539434,5.193313403733271,14021.94619007983,19.40656481084956,7.532129949707486,9.238844912689874,2.3388165459742156,2801,96,928,1403,121.48254270553238,68.19821805530033,0.0013177495995393056,False
0.38,0.848840016991869,1.2,788.0,48.31008,0.3,68900.0,0.33,276.0,2700.0,21.751738560462407,4.017906678429005,10848.348031758314,15.454542105322364,5.2782551768776855,6.297196455140043,1.2603484984486801,2052,80,680,1026,109.52372626269371,61.827502529212154,0.0009822833206505443,False
0.39,0.9686662482856614,1.2,789.0,48.31008,0.3,68900.0,0.33,276.0,2700.0,27.66572476664568,5.270578906416638,14230.563047324924,19.094776700236228,7.344609094725793,8.570948066409454,2.0740301883091545,2802,96,928,1404,114.68807424337459,64.49512435342267,0.0012109113738750662,False
0.4,1.054125172303687,1.2,790.0,48.31008,0.3,68900.0,0.33,276.0,2700.0,32.22029774104576,6.310018261655987,17037.049306471166,21.91141473073459,9.095474427212238,10.30888301031117,2.7854561655562513,2951,102,986,1466,116.44425984594348,65.72050988982109,0.0013830701823399998,False
0.4100000000000001,0.9174785595202504,1.2,791.0,48.31008,0.3,68900.0,0.33,276.0,2700.0,24.55815231384943,4.890073419487093,13203.198232615152,17.495580292314546,6.4084020941730735,7.0625720215348835,1.5183286746859803,2180,86,728,1082,106.33291435674657,60.0299524510915,0.0010281984130671375,False
0.42000000000000004,0.9884020102809346,1.2,792.0,48.31008,0.3,68900.0,0.33,276.0,2700.0,28.074551102895516,5.740486187261954,15499.312705607275,19.72894727108104,7.72770088296572,8.345603831814476,1.9872146957037655,2566,92,858,1273,106.69751142684959,60.49261741756942,0.00114657559033236,False
0.43,0.988332456626474,1.2,793.0,48.31008,0.3,68900.0,0.33,276.0,2700.0,27.85380185918355,5.8220483283184885,15719.530486459918,19.72669510981899,7.726328740908082,8.127106749364561,1.9042804125895936,2593,92,866,1288,105.87736599091235,60.0758437438315,0.001111353776114069,False
0.44,0.9738274413888612,1.2,794.0,48.31008,0.3,68900.0,0.33,276.0,2700.0,26.865700944192117,5.732045255320004,15476.52218936401,19.25967639660875,7.443586176180989,7.606024547583367,1.711540920860985,2574,92,858,1279,102.44385452286046,58.318713337698824,0.0010562047950706235,False
0.45,0.7644253575864081,1.2,795.0,48.31008,0.3,68900.0,0.33,276.0,2700.0,16.71980569462931,3.5711045275860154,9641.98222448224,13.106741413249457,4.074019497503522,3.613064281379854,0.5029149699175064,1621,68,522,816,85.52349891771544,48.66639263321165,0.0007323852098657646,False
0.46,0.8036259031681017,1.2,796.0,48.31008,0.2,68900.0,0.33,276.0,2700.0,18.24944182266516,3.993511577526439,10782.481259321385,14.174742074989304,4.608617852157753,4.074699747675854,0.6151062746313141,5054,106,1298,2801,97.267417375874,55.26910412091815,0.0007872454541022704,False
0.4700000000000001,0.8009785963163505,1.2,797.0,48.31008,0.08,68900.0,0.33,276.0,2700.0,17.97352731583375,4.006332536505164,10817.097848563944,14.10140141106136,4.571190076819088,3.872125904772389,0.5648575403139233,57622,254,7228,38106,126.34890799832819,71.10468606702221,0.0007755088870897333,False
0.4800000000000001,1.0159902392569438,1.2,798.0,48.31008,0.3,68900.0,0.33,276.0,2700.0,28.283255879182835,6.556358067840016,17702.166783168042,20.631848159080583,8.28439833850268,7.651407720102252,1.7280402706626639,2809,94,892,1433,98.28261417819972,55.58876497256166,0.001043056408223913,False
0.49,1.1335333196241963,1.2,799.0,48.31008,0.3,68900.0,0.33,276.0,2700.0,34.74944415791359,8.267210329287321,22321.467889075768,24.69314166809381,10.9448164612504,10.056302489819778,2.6776061319630795,3267,104,1022,1678,105.43453970962265,60.21114881691489,0.001238226458322144,False
0.5,0.9625999605680926,1.2,800.0,48.31008,0.3,68900.0,0.33,276.0,2700.0,25.07892399085195,6.007931609913838,16221.415346767362,18.901815189718043,7.229360432929154,6.177108801133908,1.2214288230153159,2723,88,798,1440,92.0086598588959,51.93055567273547,0.000937345406588868,False
0.01,0.44621113214120767,1.2,801.0,51.32946,0.05,68900.0,0.33,276.0,2700.0,11.546457395163266,0.057730192580713095,155.87151996792537,5.866372035481384,1.1227487718616753,5.680085359681882,1.0650185792809623,37102,330,12306,18637,2383.9790414784334,1355.600339241511,0.014288826533767564,True
0.02,0.49012438256537794,1.2,802.0,51.32946,0.1,68900.0,0.33,276.0,2700.0,13.036203392654611,0.13034527876528568,351.9322526662713,6.7141683386589435,1.398797626033955,6.322035053995668,1.2684523472686693,10505,178,3486,5270,1177.2461924004192,674.5989471143428,0.008424058445197304,True
0.03,0.4695053355879026,1.2,803.0,51.32946,0.1,68900.0,0.33,276.0,2700.0,12.051232393172144,0.18071193722981554,487.92223052050196,6.3100580069113406,1.2645424182508298,5.741174386260804,1.0838304810210142,9819,170,3242,4950,808.7341742461418,460.60106987543907,0.005172730095500827,True
0.04,0.491311860911581,1.2,804.0,51.32946,0.1,68900.0,0.33,276.0,2700.0,12.700126730996105,0.25386849333336925,685.444932000097,6.737766993636693,1.4067845634877016,5.962359737359413,1.1529160701543324,10524,176,3458,5331,702.8682813607043,401.1329110348321,0.004181722514144142,True
0.05,0.4326160501509005,1.2,805.0,51.32946,0.08,68900.0,0.33,276.0,2700.0,10.338239364482769,0.2581941847242698,697.1242987555285,5.613727959184643,1.0447175841648582,4.724511405298126,0.7865233994405884,12907,194,4248,6529,483.02261189229966,276.41085621383195,0.002659953658461741,True
0.06000000000000001,0.5260384755041063,1.2,806.0,51.32946,0.2,68900.0,0.33,276.0,2700.0,13.68671921596466,0.4101491871368235,1107.4028052694234,7.443558478370776,1.6529315661638608,6.243160737593883,1.2427823790270374,2964,94,976,1494,445.5260479866413,256.70266013162023,0.003126935717807451,True
0.06999999999999999,0.7077683713417721,1.2,807.0,51.32946,0.2,68900.0,0.33,276.0,2700.0,21.551408649313654,0.7535809252058571,2034.668498055814,11.631396075991336,3.3736062468401635,9.920012573322317,2.6200253216343063,4573,122,1510,2302,507.7221169045615,290.8337212158004,0.004634354524515793,True
0.08,0.4301784071436379,1.2,808.0,51.32946,0.08,68900.0,0.33,276.0,2700.0,9.750152301919542,0.3889337617843565,1050.1211568177625,5.568919163295373,1.0310879637212003,4.181233138624169,0.6421542019368438,12107,186,3988,6119,273.05808524940255,157.36336840422402,0.0016587202705312454,False
0.09,0.7585767323122206,1.2,809.0,51.32946,0.2,68900.0,0.33,276.0,2700.0,23.608761978378137,1.0608674749973726,2864.342182492906,12.950709266978452,3.997819784194655,10.658052711399685,2.9369523091972822,4964,126,1632,2510,429.7773750687716,246.14965344604707,0.004155009099268015,True
0.09999999999999999,0.4138348900965836,1.2,810.0,51.32946,0.3,68900.0,0.33,276.0,2700.0,8.876300149989573,0.44172061239708593,1192.645653472132,5.272349600564393,0.9425048764301742,3.6039505494251802,0.5007842640330883,1692,66,556,852,222.27058314238738,128.32526175133867,0.001278218262959499,False
0.11,0.5937432316197573,1.2,811.0,51.32946,0.2,68900.0,0.33,276.0,2700.0,15.494717201010356,0.8494218061742841,2293.438876670567,8.906754013375286,2.205778521820687,6.58796318763507,1.356356715646403,3362,100,1100,1706,278.20473845126344,160.36630472962435,0.002075190744431521,True
0.12,0.5320242951962939,1.2,812.0,51.32946,0.3,68900.0,0.33,276.0,2700.0,12.808185595067094,0.7648720209670902,2065.1544566111434,7.568278007540674,1.6978601902010892,5.23990758752642,0.9329881692339991,1811,70,592,917,237.7624394593841,137.0038000403731,0.001542621040303807,False
0.13,0.5954420082318707,1.2,813.0,51.32946,0.3,68900.0,0.33,276.0,2700.0,15.176630202117364,0.9818795770976708,2651.0748581637113,8.944948567451354,2.220941538968479,6.23168163466601,1.2390619618708083,1652,70,538,839,670.4133463065903,364.16684020480074,0.0017539193808302593,True
0.14,0.45217613287419745,1.2,814.0,51.32946,0.3,68900.0,0.33,276.0,2700.0,9.557083653848736,0.6632488356084445,1790.7718561428,5.978688762319816,1.1580762255134875,3.5783948915289194,0.49482738990504305,1373,60,448,695,182.8729033264205,105.22452315558483,0.0010564789720233726,False
0.15000000000000002,0.5119640691312355,1.2,815.0,51.32946,0.3,68900.0,0.33,276.0,2700.0,11.529419828967384,0.8576379037019766,2315.622339995337,7.153854457809089,1.5502124444754555,4.375565371158295,0.6925745407734789,1753,68,576,883,183.99182466013022,106.01095706494776,0.0011774102077136794,False
0.16,0.6837076561473778,1.2,816.0,51.32946,0.3,68900.0,0.33,276.0,2700.0,18.424499133680207,1.4653812883550164,3956.5294785585443,11.029261620309196,3.101019604575496,7.395237513371011,1.6356383162204795,1695,74,558,852,228.75842551863852,130.6852031467515,0.0018566565137989308,False
0.17,0.7017569889077906,1.2,817.0,51.32946,0.3,68900.0,0.33,276.0,2700.0,19.042283249067786,1.6083043130327055,4342.421645188305,11.479593999140173,3.304142201924288,7.5626892499276135,1.6958378888915826,1848,76,604,936,215.7600879512368,123.29216027839962,0.0018200061570327172,False
0.18000000000000002,0.5583378879066199,1.2,818.0,51.32946,0.3,68900.0,0.33,276.0,2700.0,12.778569112973962,1.1378567079304982,3072.2131114123454,8.127223914654916,1.9043245535013038,4.651345198319046,0.7664678455708056,1662,68,546,837,169.18873149081693,97.14957044816299,0.001125627575735771,False
0.19,0.5844891204077403,1.2,819.0,51.32946,0.3,68900.0,0.33,276.0,2700.0,13.629939748187535,1.2804788200705006,3457.2928141903517,8.699962321872906,2.1243129261250155,4.929977426314629,0.8438341060545149,1568,68,516,788,167.84317453361066,96.21207984229422,0.0011415300147981258,False
0.2,0.6855002308753897,1.2,820.0,51.32946,0.3,68900.0,0.33,276.0,2700.0,17.696230986022673,1.7528679377831222,4732.74343201443,11.073620309067488,3.1208301262929354,6.622610676955185,1.3679621885098132,1747,74,574,880,185.27997502787863,105.54913936120406,0.0014477322711233594,False
0.21000000000000002,0.6827419254694873,1.2,821.0,51.32946,0.3,68900.0,0.33,276.0,2700.0,17.37818189731347,1.8053129061746571,4874.3448466715745,11.005397319891014,3.0903798334041648,6.372784577422458,1.2850669272295077,1644,72,538,831,174.87135911793877,99.85602885421534,0.0013655423398269279,False
0.22,0.7732966305873779,1.2,822.0,51.32946,0.3,68900.0,0.33,276.0,2700.0,21.36384536948213,2.3277218715927512,6284.849053300429,13.345054028476438,4.191348584635655,8.018791341005693,1.8636267130429038,2052,82,674,1035,180.711321014486,102.20505795277202,0.0016469156736047537,False
0.23,0.8677838688813301,1.2,823.0,51.32946,0.3,68900.0,0.33,276.0,2700.0,25.926404911749742,2.956054059640402,7981.345961029085,16.006027078706666,5.576233119892286,9.920377833043077,2.6201790602518837,2478,92,816,1248,187.65987145628097,105.45493716118295,0.001963167640358306,False
0.24000000000000005,0.9037079390873595,1.2,824.0,51.32946,0.3,68900.0,0.33,276.0,2700.0,27.61643153254792,3.2850188660102693,8869.550938227727,17.076601910344795,6.170367363989503,10.539829622203126,2.885348497979234,2466,92,812,1242,185.99156024505308,104.63940928862799,0.0020197242666378993,False
0.25,0.721032732176957,1.2,825.0,51.32946,0.3,68900.0,0.33,276.0,2700.0,18.30919336792122,2.2559242475152583,6090.9954682911975,11.969566532743729,3.5301272010432214,6.3396268351774925,1.274202953527963,1762,74,578,889,152.8675898737054,86.99684628439904,0.0012334851248150503,False
0.26,0.6342367133093423,1.2,826.0,51.32946,0.3,68900.0,0.33,276.0,2700.0,14.418570479544915,1.8376030740211764,4961.5282998571765,9.83693275606348,2.5851380265558896,4.581637723481435,0.7475349525347132,1368,64,454,681,130.52782810778976,74.42064125218538,0.0009661222957157866,False
0.27,0.8711232665640922,1.2,827.0,51.32946,0.3,68900.0,0.33,276.0,2700.0,25.177387621244634,3.357723350067621,9065.853045182577,16.104177232469624,5.629847412832835,9.07321038877501,2.272124062765214,2492,90,818,1259,160.10646755787968,90.6870619829774,0.0016351007237567965,False
0.28,0.7440879745415716,1.2,828.0,51.32946,0.3,68900.0,0.33,276.0,2700.0,18.77353103081144,2.5823181830258664,6972.259094169839,12.567874791106638,3.8129598628462347,6.205656239704803,1.2306416798203683,1762,74,578,889,138.93394558384176,78.91188604916624,0.001145676518194381,False
0.29000000000000004,0.612581434589317,1.2,829.0,51.32946,0.2,68900.0,0.33,276.0,2700.0,13.074209286125138,1.8446801443358778,4980.63638970687,9.334361350350315,2.377579437047745,3.739847935774822,0.5328992927118672,2887,90,964,1435,118.37067746078954,67.36667845381801,0.0008321158298969359,False
0.3,0.7627181784494479,1.2,830.0,51.32946,0.3,68900.0,0.33,276.0,2700.0,19.240482473234916,2.829523703220622,7639.71399869568,13.061107705675031,4.051682904886724,6.179374767559885,1.222159201666102,1742,74,574,875,134.17503464467194,76.19050440719484,0.0011096603132801498,False
0.31,0.9907760606873615,1.2,831.0,51.32946,0.3,68900.0,0.33,276.0,2700.0,30.762783392125293,4.705837301284025,12705.760713466867,19.80589239925207,7.774629706035517,10.956890992873223,3.068792404751492,2844,100,940,1428,152.464160077774,85.61574678743716,0.0017753048061527347,False
0.32,0.7114684616594663,1.2,832.0,51.32946,0.3,68900.0,0.33,276.0,2700.0,16.60265219206698,2.5877952120154966,6987.047072441841,11.725283937841851,3.4168170535313322,4.877368254225129,0.8290218415158357,1609,70,530,808,120.56642411702359,68.67300015439723,0.0009443182629615081,False
0.33,0.7324230477247498,1.2,833.0,51.32946,0.3,68900.0,0.33,276.0,2700.0,17.332738281987417,2.78463553973323,7518.51595727972,12.263487775051988,3.6681351736323595,5.069250506935429,0.8834996338991297,1700,72,562,851,116.14911194568386,66.02840799246395,0.0009538620825490496,False
0.34,0.6577578459831585,1.2,834.0,51.32946,0.3,68900.0,0.33,276.0,2700.0,14.060824327271938,2.308022030531767,6231.659482435772,10.396159559613805,2.823063396743363,3.6646647676581328,0.5150413662115958,1315,62,436,655,103.6280412556525,58.94780217509496,0.0008043768895707058,False
0.3500000000000001,0.8311343097528339,1.2,835.0,51.32946,0.3,68900.0,0.33,276.0,2700.0,21.483915024692887,3.6698879393061477,9908.697436126598,14.947255845056954,5.009124134999348,6.536659179635933,1.3392361956932,2112,82,704,1050,122.64491069030562,69.4631327239031,0.0010847823616417257,False
0.36000000000000004,1.012996972561277,1.2,836.0,51.32946,0.3,68900.0,0.33,276.0,2700.0,30.81480514557653,5.448948828306517,14712.161836427596,20.53296012316296,8.222789769839068,10.281845022413567,2.7738409415325505,2847,100,946,1422,133.9274805756888,75.30264451591411,0.001550379854674331,False
0.37,0.7723053521096692,1.2,837.0,51.32946,0.3,68900.0,0.33,276.0,2700.0,18.385499656396565,3.2952300413118416,8897.121111541972,13.31832675220267,4.17813316892031,5.067172904193894,0.882903127608468,1813,76,602,904,108.46849515959629,61.52098585893833,0.000932453244868165,False
0.38,0.6927260070703155,1.2,838.0,51.32946,0.3,68900.0,0.33,276.0,2700.0,14.840105646888219,2.7046964248502423,7302.680347095654,11.25324677596362,3.201493808483375,3.5868588709245994,0.49679738363313275,1379,64,462,680,98.64887788630138,56.32542709574261,0.0007799570907482346,False
0.39,1.077043574865511,1.2,839.0,51.32946,0.3,68900.0,0.33,276.0,2700.0,33.80987072714655,6.468687368714711,17465.45589552972,22.69799444476526,9.606637413724563,11.111876282381292,3.137950045009852,3077,104,1024,1535,129.04475055007043,73.42485809193765,0.001574929165780163,False
0.4,1.0837466242587839,1.2,840.0,51.32946,0.3,68900.0,0.33,276.0,2700.0,33.960769152205536,6.658112543887943,17976.903868497444,22.930544093675746,9.759561956730545,11.03022505852979,3.1014494128426024,3039,104,1012,1515,126.82775208683074,71.18110185594985,0.001547588634684618,False
0.4100000000000001,0.7351373211749274,1.2,841.0,51.32946,0.3,68900.0,0.33,276.0,2700.0,16.113931733487803,3.159008200512959,8529.32214138499,12.334009294609038,3.7015172983695384,3.7799224388787653,0.5425090978565792,1489,66,498,736,97.93651481199548,55.62216749389627,0.0007881336780054067,False
0.42000000000000004,1.0961951260865463,1.2,842.0,51.32946,0.3,68900.0,0.33,276.0,2700.0,34.2096538306209,7.028857760084284,18977.915952227566,23.36541729695747,10.047715596459973,10.84423653366343,3.0188578363756893,3070,104,1022,1531,121.72562522934727,68.59896394457333,0.0014890560670055377,False
0.43,0.8134551725946417,1.2,843.0,51.32946,0.3,68900.0,0.33,276.0,2700.0,19.18750828169393,3.9587952091582217,10688.747064727198,14.448592032908257,4.749289094630971,4.738916248785673,0.790493885472749,1921,76,640,951,99.72805600811412,56.4777028729558,0.0008798551260736054,False
0.44,1.0882298002017394,1.2,844.0,51.32946,0.3,68900.0,0.33,276.0,2700.0,33.254659651140315,7.137616170848607,19271.56366129124,23.08670962368264,9.86271349042467,10.167950027457675,2.7250973195760624,2941,102,984,1459,116.70452597006434,65.99907785098328,0.0013918377432172184,False
0.45,0.9806774405741725,1.2,845.0,51.32946,0.3,68900.0,0.33,276.0,2700.0,27.01970388482347,5.888581620379702,15899.170375025195,19.479567227774666,7.576267396635891,7.540136657048805,1.6876857762561892,2585,92,858,1288,107.50199287083065,60.89912515577233,0.001111240710623333,False
0.46,1.0648232579317478,1.2,846.0,51.32946,0.3,68900.0,0.33,276.0,2700.0,31.434118286119805,7.025987164121014,18970.165343126737,22.276939577903736,9.331837261943509,9.157178708216069,2.3058500978224945,3144,100,1002,1605,111.94845239367984,62.5808267701705,0.0012602666018176473,False
0.4700000000000001,1.0302348948611955,1.2,847.0,51.32946,0.3,68900.0,0.33,276.0,2700.0,29.273724140608927,6.661878790327328,17987.072733883786,21.105532041648573,8.581659588283724,8.168192098960354,1.9197807979563963,2714,94,898,1355,106.09754624722875,60.4307099089323,0.001150330151498934,False
0.4800000000000001,1.0413525879392016,1.2,848.0,51.32946,0.3,68900.0,0.33,276.0,2700.0,29.671149385004533,6.889452509237185,18601.5217749404,21.478776995123493,8.818376349110006,8.19237238988104,1.9289238398728203,2756,94,894,1389,105.49239619419733,59.47052987467747,0.0011475168398392419,False
0.49,1.1514091933362964,1.2,849.0,51.32946,0.3,68900.0,0.33,276.0,2700.0,35.82541928197072,8.530824234681363,23033.22543363968,25.341200308642005,11.392008286911889,10.484218973328712,2.8611840522305254,3669,108,1124,1901,113.54873186854796,64.621726147633,0.0013566299121812845,False
0.5,0.9744540924324856,1.2,850.0,51.32946,0.3,68900.0,0.33,276.0,2700.0,25.68581704462841,6.1596548733579555,16631.06815806648,19.279743423765996,7.455661559491156,6.406073620862415,1.2960066861332002,2689,88,806,1406,98.74942632602988,55.699210692222415,0.001009343768243963,False
0.01,0.4641302030702656,1.2,851.0,54.348839999999996,0.05,68900.0,0.33,276.0,2700.0,12.22214417638824,0.061108626486839894,164.9932915144677,6.206467202957468,1.2309037526756867,6.015676973430772,1.1697951261888468,39712,342,13160,19966,2610.186590726226,1483.4078451514617,0.016215322479620934,True
0.02,0.6660541059697644,1.2,852.0,54.348839999999996,0.1,68900.0,0.33,276.0,2700.0,20.71288362223952,0.2071120810615777,559.2026188662597,10.59672441557968,2.910143412477031,10.116159206659841,2.703031331415453,16541,234,5484,8309,1818.8644702962424,1036.2181218147518,0.01571930994468269,True
0.03,0.7220749875494936,1.2,853.0,54.348839999999996,0.1,68900.0,0.33,276.0,2700.0,23.233335078108222,0.3484434775038594,940.7973892604203,11.996325864954057,3.5426164887265177,11.237009213154165,3.1941730112226585,18296,250,6044,9224,1516.741451448634,863.1430040404729,0.012121016161514677,True
0.04,0.45733435011087303,1.2,854.0,54.348839999999996,0.1,68900.0,0.33,276.0,2700.0,11.411821336676926,0.22810238544698577,615.8764407068616,6.076535336746099,1.1891676704365683,5.335285999930827,0.9610652849895825,9641,166,3170,4880,656.1578220530959,374.8921719084502,0.0038997503682928216,True
0.05,0.40485068529842205,1.2,855.0,54.348839999999996,0.1,68900.0,0.33,276.0,2700.0,9.370037701825407,0.2339891431578361,631.7706865261574,5.112181634607005,0.8958580175446825,4.257856067218402,0.6618688743868464,7893,148,2592,3999,456.6584909221637,261.62793112679935,0.002513713722642258,True
0.06000000000000001,0.7321449398946964,1.2,856.0,54.348839999999996,0.2,68900.0,0.33,276.0,2700.0,23.001346053778942,0.6895879922712523,1861.8875791323812,12.256272510330758,3.6647256050141195,10.745073543448184,2.9751376127428673,4922,126,1626,2477,661.3158227202424,377.62552913264824,0.006147781364240714,True
0.06999999999999999,0.7010083921687797,1.2,857.0,54.348839999999996,0.2,68900.0,0.33,276.0,2700.0,21.22201666719103,0.7420522058315678,2003.540955745233,11.460753696675706,3.2955556680644476,9.761262970515325,2.5535034622328796,4507,120,1490,2266,545.187570323125,311.6204247377589,0.004827360926746593,True
0.08,0.7011556879144654,1.2,858.0,54.348839999999996,0.2,68900.0,0.33,276.0,2700.0,20.996401121590335,0.8387837145711877,2264.7160293422066,11.464459648189768,3.2972440612550704,9.531941473400567,2.4584603466838826,4496,120,1488,2258,477.8964638669713,273.4157408291958,0.004217808169835654,True
0.09,0.6833227772938117,1.2,859.0,54.348839999999996,0.3,68900.0,0.33,276.0,2700.0,19.917059916406174,0.8947408822086341,2415.8003819633122,11.019748017986284,3.0967765059189842,8.89731189841989,2.20203562371035,2041,80,668,1033,429.8640552495625,246.70966943908064,0.0036074878306567196,True
0.09999999999999999,0.5019978365997966,1.2,860.0,54.348839999999996,0.2,68900.0,0.33,276.0,2700.0,12.013469062654972,0.5985790580303557,1616.1634566819605,6.951722882918422,1.4799247858414517,5.0617461797365495,0.881345727811096,2649,86,868,1341,280.5624218276687,161.9322439668764,0.0017784260395093748,True
0.11,0.5022216017030817,1.2,861.0,54.348839999999996,0.3,68900.0,0.33,276.0,2700.0,11.846697636769095,0.6487807301410138,1751.7079713807373,6.956233811970707,1.4814808435011442,4.890463824798388,0.8327001133601304,1728,68,562,879,262.0799714658541,150.62929767953236,0.0016282519171679306,False
0.12,0.43237223719780093,1.2,862.0,54.348839999999996,0.2,68900.0,0.33,276.0,2700.0,9.190652033804097,0.5478200072913102,1479.1140196865376,5.609239463714054,1.0433494317802543,3.581412570090043,0.4955294244889441,2097,74,682,1068,210.41216311475824,121.47740234541617,0.0012117982118071073,False
0.13,0.4551688304471648,1.2,863.0,54.348839999999996,0.1,68900.0,0.33,276.0,2700.0,9.815793513753471,0.6334251923540175,1710.2480193558472,6.0353760071608615,1.1760534006153065,3.7804175065926096,0.542628208261289,8358,152,2770,4197,194.7698313132063,112.39340115664005,0.0012079393680043992,False
0.14,0.4606524484283958,1.2,864.0,54.348839999999996,0.1,68900.0,0.33,276.0,2700.0,9.84954150733116,0.683720885352214,1846.0463904509777,6.139830002238792,1.2094351445638951,3.7097115050923684,0.5257142592116811,8349,152,2772,4185,184.57867683952276,106.43368731676776,0.0011477800718641183,False
0.15000000000000002,0.7519539593112681,1.2,865.0,54.348839999999996,0.3,68900.0,0.33,276.0,2700.0,21.86709433489833,1.6329634916467988,4409.0014274463565,12.77506199632981,3.9126324209036105,9.092032338568519,2.279668929256812,2177,82,706,1112,278.5432201630438,158.85599673573418,0.0025345350381874776,True
0.16,0.5619172064857298,1.2,866.0,54.348839999999996,0.3,68900.0,0.33,276.0,2700.0,13.264923037764557,1.0526152006817626,2842.061041840759,8.204599343913333,1.9335528566697064,5.060323693851224,0.8809376559879438,1578,68,516,798,203.25210311665558,116.78364999684709,0.0013405287019841602,False
0.17,0.86408651464535,1.2,867.0,54.348839999999996,0.3,68900.0,0.33,276.0,2700.0,27.184897561489066,2.300426529588513,6211.151629888985,15.897682962302934,5.51725356702046,11.287214599186132,3.216827037431947,2552,94,842,1283,270.71822775587975,153.75601421577755,0.0029092329224515525,False
0.18000000000000002,0.8481644741850664,1.2,868.0,54.348839999999996,0.3,68900.0,0.33,276.0,2700.0,26.08306180796734,2.3352610504799074,6305.20483629575,15.435042555624124,5.267821559161542,10.648019252343216,2.932560508681634,2435,90,794,1238,252.03651279586455,142.7406508476472,0.00263058888290835,False
0.19,0.7733809899671028,1.2,869.0,54.348839999999996,0.3,68900.0,0.33,276.0,2700.0,22.02267411884437,2.077788585282899,5610.029180263828,13.34732970259653,4.192474461101862,8.67534441624784,2.1146858758189633,2282,86,748,1154,224.32616703520537,127.24418090573852,0.0020624694288335524,False
0.2,0.5874093975202885,1.2,870.0,54.348839999999996,0.3,68900.0,0.33,276.0,2700.0,13.572021045968077,1.3404469437776614,3619.2067481996855,8.764986185877879,2.149814118665338,4.807034860090198,0.8093671748876767,1589,68,524,797,173.06547168923223,99.51649007705527,0.0011604516258790284,False
0.21000000000000002,0.6591574559406559,1.2,871.0,54.348839999999996,0.3,68900.0,0.33,276.0,2700.0,16.35161175392094,1.6975230411184343,4583.312211019773,10.429874299377841,2.837637553183255,5.921737454543097,1.1401145120648208,1593,70,514,816,179.90152015292256,102.86995018582071,0.0013445505110322186,False
0.22,0.7003496242558986,1.2,872.0,54.348839999999996,0.3,68900.0,0.33,276.0,2700.0,17.965447746097354,1.9538981330203862,5275.524959155043,11.444185811094762,3.2880111490661914,6.521261935002592,1.3341130160458052,1746,74,574,879,182.8074851778199,104.12400351962931,0.00150476538490889,False
0.23,0.6625829896604144,1.2,873.0,54.348839999999996,0.3,68900.0,0.33,276.0,2700.0,16.125717791654562,1.8289750408294565,4938.232610239533,10.512598549962128,2.8735070424568554,5.613119241692434,1.044532001627399,1638,70,530,837,165.89973011349053,94.45085431581288,0.001219416117491482,False
0.24000000000000005,0.5795948923596401,1.2,874.0,54.348839999999996,0.3,68900.0,0.33,276.0,2700.0,12.601164393853754,1.4831868093669685,4004.6043852908147,8.591466421126599,2.0819990738859198,4.009697972727155,0.5988122645189513,1476,64,486,741,139.98433061105845,80.33323121057917,0.0009679585840335577,False
0.25,0.8384727465454296,1.2,875.0,54.348839999999996,0.3,68900.0,0.33,276.0,2700.0,23.94526967196292,2.960433785520472,7993.171220905274,15.156553371142051,5.1195807578810575,8.788716300820868,2.1591469723605856,2443,88,800,1237,178.81048635709004,101.22189305431864,0.0017905826764048065,False
0.26,0.7302197882414636,1.2,876.0,54.348839999999996,0.3,68900.0,0.33,276.0,2700.0,18.530261211322717,2.372122869152289,6404.73174671118,12.20637943395112,3.64117846254116,6.3238817773715965,1.2690555933888712,1761,74,578,888,156.98966011858712,89.2678297523258,0.0012774829808698041,False
0.27,0.8323922413112028,1.2,877.0,54.348839999999996,0.3,68900.0,0.33,276.0,2700.0,23.197929391230765,3.090496489015748,8344.340520342519,14.983036844710174,5.027949260693209,8.214892546520591,1.937452771677461,2234,84,738,1121,165.10341925038915,93.69235070741647,0.0015866646711955239,False
0.28,0.9638652737310585,1.2,878.0,54.348839999999996,0.3,68900.0,0.33,276.0,2700.0,29.975145737319462,4.150544241936989,11206.469453229869,18.941986982747284,7.253302559199101,11.033158754572177,3.1027583172621123,2854,100,944,1432,174.86197036460155,98.07637790953083,0.002018388317527626,False
0.29000000000000004,0.9541151687659406,1.2,879.0,54.348839999999996,0.3,68900.0,0.33,276.0,2700.0,29.183170438288005,4.180479511399477,11287.294680778587,18.633475375912884,7.070122149416649,10.549695062375122,2.8896426380171727,2537,94,836,1277,168.6300679736621,94.37657624323575,0.0018993619277739037,False
0.3,0.6547650747013345,1.2,880.0,54.348839999999996,0.3,68900.0,0.33,276.0,2700.0,14.58068003892459,2.130553338074072,5752.494012799995,10.324232875319119,2.7920577551705454,4.256447163605472,0.6615044170964732,1359,64,448,681,126.61918523999981,72.26169361797707,0.0009388678308946898,False
0.31,0.8417072905559841,1.2,881.0,54.348839999999996,0.2,68900.0,0.33,276.0,2700.0,22.810885030753397,3.4732930552713843,9377.891249232738,15.249234660691872,5.168755116787565,7.561650370061525,1.695462061516181,4791,124,1594,2390,148.29563731075504,83.76455029602073,0.0013677776723179684,False
0.32,0.6269101802806997,1.2,882.0,54.348839999999996,0.3,68900.0,0.33,276.0,2700.0,13.163303996552942,2.03749950073325,5501.248651979775,9.6655808153428,2.5136959453163694,3.4977231812101426,0.4761964445831195,1405,62,462,706,112.63501459724235,64.49501302204239,0.000841260362984231,False
0.33,0.7684787410724221,1.2,883.0,54.348839999999996,0.3,68900.0,0.33,276.0,2700.0,18.937491250516594,3.0494197795405333,8233.43340475944,13.215383697086828,4.127366191643115,5.722107553429765,1.0779464121025817,1892,78,626,947,129.98798465450017,73.47791259647667,0.0010853514942840683,False
0.34,1.0095484993963921,1.2,884.0,54.348839999999996,0.3,68900.0,0.33,276.0,2700.0,31.101032954083216,5.204857497089685,14053.115242142148,20.419312661035256,8.152178448859713,10.68172029304796,2.9473209517700285,3053,102,1012,1529,151.3631540652133,85.02924370605136,0.001743500498444437,False
0.3500000000000001,0.8538849272701738,1.2,885.0,54.348839999999996,0.3,68900.0,0.33,276.0,2700.0,22.590330739969463,3.8635106894795492,10431.478861594784,15.600526144695191,5.356589924463826,6.989804595274272,1.4930792349842767,2057,82,686,1022,131.02021760343496,73.87973242269719,0.0012136011371076578,False
0.36000000000000004,0.9239742533812698,1.2,886.0,54.348839999999996,0.3,68900.0,0.33,276.0,2700.0,25.94408245622493,4.572218744223232,12344.990609402726,17.694869484854124,6.522694714434224,8.249212971370806,1.9504759702109924,2340,88,776,1170,135.2897632417067,75.98930395602525,0.0013701081665160601,False
0.37,0.9859265188969688,1.2,887.0,54.348839999999996,0.3,68900.0,0.33,276.0,2700.0,29.060088930897386,5.2700290570944945,14229.078454155135,19.648865208033865,7.678961196981861,9.411223722863522,2.4089321398873667,2711,96,902,1352,135.59166721409395,76.56591163164644,0.0015019911983221881,False
0.38,0.6800484962069705,1.2,888.0,54.348839999999996,0.3,68900.0,0.33,276.0,2700.0,14.332614879064622,2.608273178963759,7042.337583202149,10.938963478060804,3.0608270825676893,3.393651401003817,0.45255390360393033,1388,64,466,683,99.99852087051683,57.20101783715603,0.0008047430332542742,False
0.39,0.9451665746880114,1.2,889.0,54.348839999999996,0.3,68900.0,0.33,276.0,2700.0,26.411365281571687,5.025978806827618,13570.142778434569,18.35242777067909,6.904637733285169,8.058937510892598,1.8786589264575504,2293,88,762,1144,126.95578564999981,71.45886571519061,0.0012976510758539832,False
0.4,1.0323098194961386,1.2,890.0,54.348839999999996,0.3,68900.0,0.33,276.0,2700.0,30.96669203961711,6.059297121370264,16360.102227699714,21.174955956635205,8.625523982636604,9.791736082981906,2.5662268612663404,2880,100,958,1437,130.63952833325908,73.96072836364529,0.0014945489089788933,False
0.4100000000000001,0.7606618072764861,1.2,891.0,54.348839999999996,0.3,68900.0,0.33,276.0,2700.0,17.195372387186712,3.3807035345212344,9127.899543207333,13.00623718381672,4.024880854805752,4.189135203369991,0.6441773202845176,1535,68,514,758,104.19622722326707,59.186555154533075,0.0008752698103128773,False
0.42000000000000004,0.9553241792074987,1.2,892.0,54.348839999999996,0.3,68900.0,0.33,276.0,2700.0,26.30901985950663,5.369724626150289,14498.25649060578,18.671600969943658,7.0926732591280235,7.637418889562973,1.7229486329777348,2325,88,774,1158,119.23061183667141,67.28238220671605,0.0012058063905503239,False
0.43,0.7478999266426167,1.2,893.0,54.348839999999996,0.3,68900.0,0.33,276.0,2700.0,16.334956996616803,3.3454966828666377,9032.841043739922,12.668086038339789,3.861058883787618,3.6668709582770145,0.5155622009209804,1495,66,502,736,98.01278705520521,55.78772421981905,0.0008261962473258093,False
0.44,1.0637302625089649,1.2,894.0,54.348839999999996,0.3,68900.0,0.33,276.0,2700.0,31.83109211122756,6.824431312067806,18425.964542583075,22.239462934694007,9.307509152585716,9.591629176533552,2.48307784051791,3079,102,1016,1541,123.82785499466516,69.97089259771748,0.0014081405074331183,False
0.45,0.8131931998994744,1.2,895.0,54.348839999999996,0.3,68900.0,0.33,276.0,2700.0,18.83729517379558,4.047539660398426,10928.35708307575,14.44126180408847,4.745504918232293,4.396033369707112,0.6979652578338671,1848,74,608,918,100.98467573482614,57.080834473509135,0.0008990068754165788,False
0.46,1.081525934618226,1.2,896.0,54.348839999999996,0.3,68900.0,0.33,276.0,2700.0,32.393891212142044,7.246734937106126,19566.18433018654,22.853376372642142,9.708726040724946,9.540514839499902,2.4619911036188196,3167,102,1022,1608,118.78176647408598,67.71148538020174,0.0013754773273380407,False
0.4700000000000001,1.0677470945788563,1.2,897.0,54.348839999999996,0.3,68900.0,0.33,276.0,2700.0,31.374230822502426,7.155497860572303,19319.844223545217,22.377339718574955,9.397118118721991,8.99689110392747,2.2416202581496885,3234,100,1002,1675,118.10289901729762,65.01324695895454,0.0013080690349828634,False
0.4800000000000001,1.0120600913404176,1.2,898.0,54.348839999999996,0.3,68900.0,0.33,276.0,2700.0,28.07108136879982,6.505436185348089,17564.677700439843,20.50205481015068,8.20356730411703,7.569026558649142,1.6981311187689405,2773,94,890,1408,110.30610775653501,62.41398294740773,0.0011654174240151552,False
0.49,0.9321671749047363,1.2,899.0,54.348839999999996,0.3,68900.0,0.33,276.0,2700.0,23.738478060691694,5.569523635468007,15037.71381576362,17.94774223365544,6.668702122990297,5.790735827036254,1.0991784875222894,2404,84,722,1259,105.12946625406693,59.17416350426553,0.0010231454662207762,False
0.5,0.8121859985333526,1.2,900.0,54.348839999999996,0.2,68900.0,0.33,276.0,2700.0,17.991642161025872,4.23611115245732,11437.500111634763,14.413095478553657,4.730973846335442,3.578546682472215,0.49486269387812243,5313,104,1298,3004,106.45252514730302,61.07079557109749,0.0008435818721134146,False
0.01,0.5397125472728863,1.2,901.0,57.36822,0.05,68900.0,0.33,276.0,2700.0,15.249794314574183,0.07624687717776639,205.86656837996927,7.729790229541957,1.7566669408561928,7.520004085032226,1.6804200636784263,48120,386,15962,24171,3324.4593893092697,1888.5048736523195,0.02249918235695022,True
0.02,0.4280240158061174,1.2,902.0,57.36822,0.08,68900.0,0.33,276.0,2700.0,10.697964612473776,0.10696289096391837,288.79980560257957,5.529441424089491,1.0191328787088159,5.168523188384285,0.9121699877448974,13719,200,4528,6921,1265.0463922586002,721.5838649097476,0.0073747438167015246,True
0.03,0.49174900864463267,1.2,903.0,57.36822,0.1,68900.0,0.33,276.0,2700.0,12.907271680123444,0.19355252653408606,522.5918216420323,6.746463317570656,1.409731863668986,6.160808362552787,1.2161793371349,10575,178,3490,5334,975.4022461837845,556.3608534939566,0.0062763506233957335,True
0.04,0.710539281197212,1.2,904.0,57.36822,0.1,68900.0,0.33,276.0,2700.0,22.407549530645795,0.44801694932636277,1209.6457631811795,11.701674113947103,3.405933119355637,10.705875416698692,2.957916170029274,17943,246,5914,9066,1220.9496757720974,695.7657828364288,0.00925619895580254,True
0.05,0.5790064489962137,1.2,905.0,57.36822,0.1,68900.0,0.33,276.0,2700.0,16.083748389960466,0.4018319103611726,1084.946157975166,8.578462272237147,2.0769473090176316,7.505286117723319,1.6751153986564589,13166,204,4330,6665,758.5612273257183,433.52072107832254,0.005011528148309655,True
0.06000000000000001,0.36938152936751056,1.2,906.0,57.36822,0.1,68900.0,0.33,276.0,2700.0,8.0351570334008,0.24060232165990728,649.6262684817497,4.499660832420874,0.7254895047791343,3.5354962009799262,0.48488718311922707,6716,134,2198,3413,357.87931469301213,205.8026423804396,0.001968021749759913,True
0.06999999999999999,0.6124644495338036,1.2,907.0,57.36822,0.2,68900.0,0.33,276.0,2700.0,17.11964069635857,0.5984690468524286,1615.8664265015573,9.331678391342935,2.3764876132033987,7.787962305015634,1.77801856635097,3840,108,1258,1947,517.1013221017827,296.3696280226724,0.0039333487658229594,True
0.08,0.7722270028828607,1.2,908.0,57.36822,0.2,68900.0,0.33,276.0,2700.0,24.557015107381602,0.9812082740028388,2649.262339807665,13.31621531980082,4.177089771032446,11.240799787580782,3.1958814970296077,5342,132,1762,2693,570.2708965541727,326.1474582934184,0.005422120403109932,True
0.09,0.7590816868263708,1.2,909.0,57.36822,0.3,68900.0,0.33,276.0,2700.0,23.63449477063725,1.0620254506490319,2867.468716752386,12.964146753209148,4.004362695690468,10.670348017428102,2.9423372450414362,2309,86,756,1169,490.8483159449014,281.50300172948135,0.004704304867384767,True
0.09999999999999999,0.63048715335308,1.2,910.0,57.36822,0.3,68900.0,0.33,276.0,2700.0,17.285234472992826,0.8621673285472472,2327.851787077567,9.749070025518103,2.5484186910970994,7.536164447474723,1.6862513625498523,1840,74,600,934,369.9365260421187,212.95520743923015,0.002904246286491557,True
0.11,0.6460294742451473,1.2,911.0,57.36822,0.3,68900.0,0.33,276.0,2700.0,17.76780564246477,0.9744416704542752,2630.992510226543,10.115573547417414,2.702782160180626,7.652232095047355,1.7283404897263508,1734,74,568,876,348.16552802070095,200.74119062059953,0.002763900428061201,True
0.12,0.7380412918784702,1.2,912.0,57.36822,0.3,68900.0,0.33,276.0,2700.0,21.869625956056616,1.308558442626462,3533.1077950914473,12.409664500015287,3.737444698978035,9.459961456041329,2.428886256351573,2079,82,676,1059,362.0210220980681,206.26904000838172,0.003285201073024298,True
0.13,0.5773374233867636,1.2,913.0,57.36822,0.3,68900.0,0.33,276.0,2700.0,14.429136243745907,0.9332924698035258,2519.8896684695196,8.54162542827787,2.06266038635102,5.887510815468037,1.1293679165474941,1661,70,540,845,270.5689273325634,155.47325462747943,0.0018475297633719528,False
0.14,0.7551541551401842,1.2,914.0,57.36822,0.3,68900.0,0.33,276.0,2700.0,22.253250629576176,1.5519805239093662,4190.347414555289,12.859799026395534,3.953650639921757,9.393451603180642,2.401670116012391,2192,82,710,1121,313.4536754355897,178.94037151107358,0.0029211762914449378,True
0.15000000000000002,0.5017472234497937,1.2,915.0,57.36822,0.3,68900.0,0.33,276.0,2700.0,11.153571938654624,0.8294493119285208,2239.5131422070062,6.946672212251303,1.4781832255870255,4.2068997264033205,0.6487339136585047,1646,66,538,833,202.66992163552487,116.58474361030905,0.0012852688988103129,False
0.16,0.8477152969655894,1.2,916.0,57.36822,0.3,68900.0,0.33,276.0,2700.0,26.550628836311972,2.115471664565556,5711.773494327001,15.422083399322409,5.260891400332602,11.128545436989564,3.145419735767046,2497,92,822,1258,300.90754762488547,171.13819952580744,0.003177307391925434,True
0.17,0.8562792775834072,1.2,917.0,57.36822,0.3,68900.0,0.33,276.0,2700.0,26.762958658840514,2.264561722863377,6114.316651731118,15.670035043131579,5.394026234702423,11.092923615708935,3.129464511839046,2492,92,820,1256,284.68924264475993,161.58917144653418,0.003030326174386018,True
0.18000000000000002,0.5064691893247564,1.2,918.0,57.36822,0.3,68900.0,0.33,276.0,2700.0,10.842970777290127,0.9636528577189548,2601.862715841178,7.042100514673449,1.511210258802179,3.8008702626166775,0.5475574010832241,1588,64,526,793,173.48929331174259,99.87867817454874,0.0010998810462421653,False
0.19,0.5432668994008043,1.2,919.0,57.36822,0.3,68900.0,0.33,276.0,2700.0,12.036782356482973,1.1291288678585645,3048.647943218124,7.804961021743787,1.784274834893616,4.231821334739187,0.6551459670350515,1696,68,558,853,175.59968067896764,101.05197773133736,0.0011512179661112008,False
0.2,0.5628668913041592,1.2,920.0,57.36822,0.3,68900.0,0.33,276.0,2700.0,12.615778915726525,1.2448227307534911,3361.0213730344262,8.225183074973703,1.9413544123425952,4.390595840752821,0.6965316815891041,1613,68,532,809,178.45793836980008,102.53839691262016,0.0011540198051020142,False
0.21000000000000002,0.642684383439917,1.2,921.0,57.36822,0.3,68900.0,0.33,276.0,2700.0,15.651166446009698,1.623976283787755,4384.735966226938,10.036180231239909,2.6690775154374107,5.6149862147697895,1.0451012316496557,1620,70,526,825,185.1564122519277,105.61156491612381,0.0013432796466532947,False
0.22,0.8023641440099167,1.2,922.0,57.36822,0.3,68900.0,0.33,276.0,2700.0,22.792546098751135,2.484878951812345,6709.173169893332,14.13976448534215,4.590754812383906,8.652781613408985,2.1058758605715613,2266,86,744,1144,490.2800924675506,265.86360132193255,0.002398219096162817,True
0.23,0.7659236318872956,1.2,923.0,57.36822,0.3,68900.0,0.33,276.0,2700.0,20.79685965402761,2.366156355002359,6388.6221585063695,13.146851347390896,4.0936870321289245,7.650008306636714,1.7275306771265653,2065,82,678,1042,192.43807375346023,109.02823237677624,0.0017141061637439496,False
0.24000000000000005,0.7522639578182451,1.2,924.0,57.36822,0.3,68900.0,0.33,276.0,2700.0,19.94323447657585,2.3642352192936182,6383.435092092769,12.783259095332735,3.9165939415308446,7.159975381243115,1.5523587222372264,1799,76,594,902,183.82202971105886,103.89951298948203,0.0015754641156529082,False
0.25,0.7617677917644572,1.2,925.0,57.36822,0.3,68900.0,0.33,276.0,2700.0,20.18558469085115,2.490473162881467,6724.277539779961,13.035735158152296,4.039281860695575,7.149849532698855,1.548808697814108,1786,76,590,895,179.35338209381027,101.57219197598407,0.0015406273988768343,False
0.26,0.7919777434249837,1.2,926.0,57.36822,0.2,68900.0,0.33,276.0,2700.0,21.420664976845423,2.747875358669968,7419.2634684089135,13.853360388549776,4.445383254781848,7.567304588295647,1.6975078961118797,4592,120,1532,2288,175.73155600225076,99.68795044792493,0.0015847156708539234,False
0.27,0.7606945869001496,1.2,927.0,57.36822,0.3,68900.0,0.33,276.0,2700.0,19.732606552169045,2.6226779057421874,7081.230345503906,13.007111014851592,4.025307208688107,6.725495537317453,1.40262930294592,1834,76,606,919,166.41238943190464,94.18688662266436,0.001403633279543129,False
0.28,0.799153481908375,1.2,928.0,57.36822,0.3,68900.0,0.33,276.0,2700.0,21.35215872915539,2.9433260607940155,7946.980364143842,14.050941240897526,4.545499466455862,7.3012174882578655,1.6021734056618464,1931,80,638,968,163.46545615462125,92.59230260465101,0.001480992005178286,False
0.29000000000000004,0.6776552593710965,1.2,929.0,57.36822,0.3,68900.0,0.33,276.0,2700.0,15.691370153622076,2.2241684701227427,6005.254869331405,10.880086905954125,3.034718033725322,4.8112832476679515,0.8105495636025792,1632,70,538,819,142.36346088424204,81.07374744129524,0.0010750679315933297,False
0.3,0.6816246509556155,1.2,930.0,57.36822,0.3,68900.0,0.33,276.0,2700.0,15.685332744373438,2.2962512438914007,6199.878358506782,10.977817444970324,3.078099193530332,4.707515299403115,0.7818479496389314,1455,66,482,726,137.85984565874105,78.47638354235289,0.0010463058652622197,False
0.31,0.9932304537980259,1.2,931.0,57.36822,0.3,68900.0,0.33,276.0,2700.0,30.90305690960049,4.727579696492631,12764.465180530104,19.88559043016284,7.82333892607342,11.017466479437651,3.095759229580789,2847,100,942,1428,170.69614892162917,95.7944182185702,0.001994930025865569,False
0.32,0.7167513655642697,1.2,932.0,57.36822,0.3,68900.0,0.33,276.0,2700.0,16.829459126748045,2.624084321564468,7085.027668224063,11.85993122226648,3.479115957364202,4.969527904481565,0.8550316357997341,1808,72,598,905,134.58061132608032,76.82132984267837,0.001062677159307139,False
0.33,0.7030358094606834,1.2,933.0,57.36822,0.3,68900.0,0.33,276.0,2700.0,16.073117316102753,2.576798080362252,6957.354816978081,11.511811286081231,3.3188431383534365,4.561306030021521,0.7420450579911844,1436,66,478,713,127.00723625529334,72.03792725005941,0.0010060226491670852,False
0.34,0.7592573668724831,1.2,934.0,57.36822,0.3,68900.0,0.33,276.0,2700.0,18.33882505592475,3.035282154402745,8195.26181688741,12.968823326809764,4.0066406483688555,5.370001729114987,0.9713584939661106,1671,72,554,834,131.45055263031463,74.44301344542414,0.0010925355687072893,False
0.3500000000000001,0.8030678061495669,1.2,935.0,57.36822,0.3,68900.0,0.33,276.0,2700.0,20.154821137996773,3.4372965091341428,9280.700574662185,14.159265971563986,4.600711289814987,5.995555166432787,1.163414780680844,1856,78,616,926,133.06787177256578,75.55829242556335,0.001157697870164774,False
0.36000000000000004,1.0162366655379127,1.2,936.0,57.36822,0.3,68900.0,0.33,276.0,2700.0,30.999571515677903,5.48220677492477,14801.95829229688,20.639999333957263,8.289483572414554,10.35957218172064,2.8072767974897834,2856,100,950,1425,149.88399402571275,85.48385739746008,0.0017416850313845497,False
0.37,0.9573148084423456,1.2,937.0,57.36822,0.3,68900.0,0.33,276.0,2700.0,27.497331271024997,4.9809188900181,13448.48100304887,18.734454595828765,7.129904036492043,8.762876675196232,2.148985146473943,2810,96,932,1406,140.91916175663152,79.4057424642866,0.0014988146358506109,False
0.38,1.0523075186964765,1.2,938.0,57.36822,0.3,68900.0,0.33,276.0,2700.0,32.59864237504567,6.078818403200158,16412.809688640427,21.84959626568536,9.055703260043263,10.749046109360311,2.976884856843105,3143,104,1044,1571,147.64086939418704,82.86412229276824,0.0017386794257815326,False
0.39,1.0811739574575683,1.2,939.0,57.36822,0.3,68900.0,0.33,276.0,2700.0,34.05571026639583,6.516626078868277,17594.890412944347,22.841156742577958,9.700684324804769,11.21455352381787,3.184058245936492,3077,104,1024,1535,144.5200292414509,82.24791543024402,0.0017728603500789337,False
0.4,1.0190096647529399,1.2,940.0,57.36822,0.3,68900.0,0.33,276.0,2700.0,30.214144944687064,5.90878770238425,15953.726796437473,20.731828539677633,8.346845550864582,9.482316405009431,2.438057848480333,2778,98,930,1377,136.99503021684802,77.10855917016899,0.0015387551834135278,False
0.4100000000000001,1.030573307302849,1.2,941.0,57.36822,0.3,68900.0,0.33,276.0,2700.0,30.63531038200587,6.135890823459158,16566.905223339727,21.116847437613945,8.58880387746855,9.518462944391924,2.452913054009392,2789,98,934,1382,133.99964271367108,75.84026083611894,0.0015237053803002732,False
0.42000000000000004,0.8370741124828813,1.2,942.0,57.36822,0.3,68900.0,0.33,276.0,2700.0,20.447154055810195,4.138732807374034,11174.578579909892,15.116558919369057,5.098410260596843,5.330595136441138,0.9596774532228087,2022,78,652,1022,116.25402961411145,65.99681228736311,0.0010512595023925348,False
0.43,1.0545806285891548,1.2,943.0,57.36822,0.3,68900.0,0.33,276.0,2700.0,31.53829808053394,6.6142150159088215,17858.38054295382,21.926917825499128,9.10545764906794,9.611380255034813,2.4912426331591186,3050,102,1016,1518,132.68828455748763,74.98006204375231,0.0015039816823000205,False
0.44,0.8189336356724555,1.2,944.0,57.36822,0.3,68900.0,0.33,276.0,2700.0,19.263785753754085,4.0596239134236365,10960.984566243818,14.602279495249338,4.828865813776083,4.6615062585047475,0.7692419003524469,1842,74,618,907,109.84718566484442,62.45890293097365,0.0009730497755377984,False
0.45,1.0294066620157871,1.2,945.0,57.36822,0.3,68900.0,0.33,276.0,2700.0,29.665156536755024,6.4838084670643,17506.28286107361,21.07785080911347,8.564190757869921,8.587305727641553,2.0803822908056215,3012,98,964,1534,124.07504186683597,69.7759053488446,0.0013558693504773975,False
0.46,1.0209696929976597,1.2,946.0,57.36822,0.3,68900.0,0.33,276.0,2700.0,28.98093766082037,6.4617556203021405,17446.74017481578,20.796852396381617,8.387544228894397,8.184085264438753,1.9257886085922564,2680,94,894,1331,120.06109271978288,68.50689232626694,0.0012944843940872772,False
0.4700000000000001,1.0945504916779172,1.2,947.0,57.36822,0.3,68900.0,0.33,276.0,2700.0,32.91842068629277,7.518382478563039,20299.632692120205,23.30774071865533,10.009335464960843,9.610679967637438,2.4909529863978044,3154,102,1014,1599,126.60196064244029,70.51269624768454,0.0014471217880883418,False
0.4800000000000001,1.1588052824176514,1.2,948.0,57.36822,0.3,68900.0,0.33,276.0,2700.0,36.520042374308545,8.533186826670187,23039.604432009506,25.61168145224175,11.580433465785243,10.908360922066795,3.0472466391150554,3667,110,1150,1882,129.64641280248597,73.80008127786883,0.0015748906023368733,False
0.49,1.0731490000018666,1.2,949.0,57.36822,0.3,68900.0,0.33,276.0,2700.0,31.233592675476153,7.405826716090202,19995.732133443544,22.563398174436728,9.518500596450105,8.670194501039425,2.1126738803599032,3401,100,1002,1800,119.32001119166893,67.0675423719964,0.0013286268772669024,False
0.5,1.097841135106743,1.2,950.0,57.36822,0.3,68900.0,0.33,276.0,2700.0,32.422223184064876,7.843756408217082,21178.142302186123,23.423210147111497,10.086222838527659,8.999013036953379,2.242466430310577,3419,100,1006,1808,126.08516918673466,72.26808918819839,0.001352376175321423,False
0.01,0.33189559145374536,1.2,951.0,60.3876,0.05,68900.0,0.33,276.0,2700.0,7.615800720915769,0.038076909209476414,102.80765486558631,3.886678383845041,0.5684149316013009,3.729122337070728,0.5303380223918245,24831,258,8232,12477,1951.116489580214,1109.5670299804406,0.010130304567087012,True
0.02,0.5845095412805322,1.2,952.0,60.3876,0.1,68900.0,0.33,276.0,2700.0,16.961256111310895,0.16959580595228888,457.90867607117997,8.700416275685933,2.124490591583933,8.260839835624962,1.9548947856316443,13472,208,4464,6770,1820.1971597459053,1035.8198080814086,0.01366215299799047,True
0.03,0.4502232025717495,1.2,953.0,60.3876,0.1,68900.0,0.33,276.0,2700.0,11.329290786515694,0.16988281312997053,458.68359545092045,5.941818010691627,1.1464362816645062,5.387472775824067,0.9765534685345356,9646,166,3176,4876,934.4159340333939,533.0450992770782,0.005647352273419819,True
0.04,0.7020158894990118,1.2,954.0,60.3876,0.2,68900.0,0.33,276.0,2700.0,21.984996261748663,0.4395658839484215,1186.8278866607382,11.486113155539698,3.3071151194679898,10.498883106208964,2.867549235519568,4769,124,1576,2399,1019.51146413464,585.4445076487675,0.009554371024091539,True
0.05,0.5072366747552405,1.2,955.0,60.3876,0.1,68900.0,0.33,276.0,2700.0,13.132340225975529,0.32804670626158877,885.7261069062897,7.0576639111436785,1.516620939740392,6.0746763148318506,1.1885742334788032,10633,178,3496,5383,677.9232999711029,387.9505192092052,0.004145243403592242,True
0.06000000000000001,0.4368253529420202,1.2,956.0,60.3876,0.1,68900.0,0.33,276.0,2700.0,10.317042539472729,0.3090588868420649,834.4589944735752,5.691455030418044,1.0685108971180766,4.625587509054685,0.7594520102760116,8383,154,2746,4258,458.1927857613723,262.4197016022717,0.0026394874409234855,True
0.06999999999999999,0.5775733351144348,1.2,957.0,60.3876,0.2,68900.0,0.33,276.0,2700.0,15.611323480847457,0.5456779443095398,1473.3304496357573,8.54682795634145,2.064676069604118,7.064495524506006,1.5189981252945781,3357,100,1098,1704,490.2769400235567,283.0468884339699,0.0037180649492982235,True
0.08,0.42203956276085774,1.2,958.0,60.3876,0.2,68900.0,0.33,276.0,2700.0,9.469463099326347,0.3777061936806288,1019.8067229376977,5.4203925032078475,0.9863689440949731,4.0490705961185,0.6086627504143443,2137,76,702,1078,326.80798619821013,188.40721629047363,0.0019014243651255891,True
0.09,0.5608032252467998,1.2,959.0,60.3876,0.2,68900.0,0.33,276.0,2700.0,14.515663569169833,0.6516780465829973,1759.5307257740928,8.18048349550059,1.9244265221242873,6.3351800736692425,1.27274847554129,3113,96,1022,1574,378.8488273291409,218.34361794979725,0.0027100758905049135,True
0.09999999999999999,0.7587289727946671,1.2,960.0,60.3876,0.3,68900.0,0.33,276.0,2700.0,23.37430738845194,1.166620974320203,3149.876630664548,12.95475990638393,3.999791714749744,10.419547482068008,2.8331707404295408,2134,84,694,1087,467.1155763087831,267.8775290699085,0.004435356493417412,True
0.11,0.5343870235400185,1.2,961.0,60.3876,0.2,68900.0,0.33,276.0,2700.0,13.08081602371729,0.7166572414231647,1934.9745518425445,7.6177552927395205,1.7158003982298946,5.4630607309777695,0.9991431568067299,2877,92,948,1449,300.7375788834381,173.5388999748094,0.0020041156461953484,True
0.12,0.5293243261469196,1.2,962.0,60.3876,0.3,68900.0,0.33,276.0,2700.0,12.703593340724872,0.7585964857065569,2048.2105114077035,7.511910422962954,1.677502210413104,5.191682917761918,0.9189057247065472,1810,70,594,913,280.2936501391935,161.627412286315,0.0017949044779728802,True
0.13,0.5704534372488432,1.2,963.0,60.3876,0.3,68900.0,0.33,276.0,2700.0,14.149236678145796,0.9150989980393996,2470.767294706379,8.390429771732961,2.0043810529577826,5.758806906412834,1.089282054918383,1651,70,540,835,281.6029608047511,161.61029511999985,0.0018981388567552162,True
0.14,0.519876816603538,1.2,964.0,60.3876,0.3,68900.0,0.33,276.0,2700.0,11.99372713931767,0.8338138795912712,2251.297474896432,7.316115768616663,1.607460017016928,4.677611370701007,0.7736461374256568,1722,68,566,867,236.15723805344854,136.03672210057996,0.0015115426612935304,False
0.15000000000000002,0.8310764770509602,1.2,965.0,60.3876,0.3,68900.0,0.33,276.0,2700.0,25.909909057241645,1.9361745958225343,5227.671408720843,14.945611789780184,5.0082597423487245,10.964297267461461,3.0720851465261902,2484,92,818,1251,333.07925146752626,189.22394983394383,0.003454254957043704,True
0.16,0.6419643616884807,1.2,966.0,60.3876,0.3,68900.0,0.33,276.0,2700.0,16.572091271844585,1.317188659408164,3556.409380402043,10.019127815977809,2.6618573872063354,6.5529634558667755,1.3446687277981713,1660,72,542,841,256.18368932209853,146.62697370529415,0.0019182050819954056,False
0.17,0.7207547895740756,1.2,967.0,60.3876,0.3,68900.0,0.33,276.0,2700.0,19.926796134833896,1.6834879083228231,4545.4173524716225,11.962435120708365,3.5268013396723297,7.964361014125531,1.8433134313495065,1956,78,638,993,262.6039419981014,149.38719169414765,0.0022572729932354217,False
0.18000000000000002,0.636317697923984,1.2,968.0,60.3876,0.3,68900.0,0.33,276.0,2700.0,15.94304602787181,1.4226596302713064,3841.1810017325274,9.885848546864636,2.605659409906502,6.057197481007174,1.1829997796351954,1597,70,516,817,225.23460430286548,129.1477762646454,0.0016614583352720588,False
0.19,0.5852120481987954,1.2,969.0,60.3876,0.3,68900.0,0.33,276.0,2700.0,13.658641586890427,1.2832054947472755,3464.6548358176437,8.716039311148815,2.1306081811284963,4.942602275741612,0.8474026863812207,1554,68,512,780,197.67597518281855,113.30981637803646,0.0013451496381187008,False
0.2,0.5055145995849144,1.2,970.0,60.3876,0.2,68900.0,0.33,276.0,2700.0,10.499224016843879,1.0331672408652424,2789.5515503361544,7.022763594866989,1.504497173138394,3.47646042197689,0.4713299322731517,2291,78,754,1154,164.88009615212303,94.90443607534795,0.0010485636351595736,False
0.21000000000000002,0.6304846149072785,1.2,971.0,60.3876,0.3,68900.0,0.33,276.0,2700.0,15.141216169472436,1.5704315047513429,4240.165062828626,9.749010662285267,2.54839394368657,5.392205507187169,0.9779624389352273,1578,68,520,792,190.05305603897955,108.91763703187686,0.0013700495971618143,False
0.22,0.7156474826416654,1.2,972.0,60.3876,0.3,68900.0,0.33,276.0,2700.0,18.65596753439411,2.029855309733071,5480.609336279292,11.831738188021106,3.466039545546465,6.824229346373006,1.436184235813394,1732,74,570,871,205.28229336970296,116.57374154939683,0.001662255397106594,False
0.23,0.5439502392907467,1.2,973.0,60.3876,0.3,68900.0,0.33,276.0,2700.0,11.425179577352036,1.2884131461846653,3478.715494698596,7.819449327937282,1.7896132256496995,3.605730249414754,0.5012000794650342,1566,64,516,786,152.31736678166712,87.56023085692811,0.0010240135013924792,False
0.24000000000000005,0.8002549684871492,1.2,974.0,60.3876,0.3,68900.0,0.33,276.0,2700.0,22.25001086476023,2.6410483858757434,7130.830641864507,14.081384767718472,4.560993153420993,8.16862609704176,1.9199447675452497,2075,82,682,1046,200.40903942399677,113.25282688064925,0.0018736188572732715,False
0.25,0.7808504530518187,1.2,975.0,60.3876,0.2,68900.0,0.33,276.0,2700.0,21.093283621477664,2.6039355292098127,7030.625928866494,13.549534571976904,4.292926155674484,7.543749049500759,1.6889906264646717,4618,120,1538,2305,189.67941461294606,107.6927106066019,0.0016989415334472226,False
0.26,0.8807724982384437,1.2,976.0,60.3876,0.3,68900.0,0.33,276.0,2700.0,25.912430315380206,3.3318048526797646,8995.873102235364,16.389358285192596,5.786614357255976,9.52307203018761,2.4548095045762115,2431,90,800,1225,197.91790232763384,111.2719432341088,0.0020585146862730904,False
0.27,0.8217439333753684,1.2,977.0,60.3876,0.3,68900.0,0.33,276.0,2700.0,22.666932550938046,3.0188119155762307,8150.792172055823,14.681409566900685,4.870013709342878,7.985522984037361,1.8512017937666472,2213,84,732,1109,183.41771817352108,103.4476973496533,0.0017130510045883047,False
0.28,0.7749234884264367,1.2,978.0,60.3876,0.3,68900.0,0.33,276.0,2700.0,20.19872995707088,2.7818460327019214,7510.984288295188,13.3889715929934,4.213094805194123,6.8097583640774815,1.4312487724922014,1970,80,650,989,169.37407032574822,96.4261129389253,0.0014640853805379659,False
0.29000000000000004,0.9643831596150094,1.2,979.0,60.3876,0.3,68900.0,0.33,276.0,2700.0,29.75826286076507,4.263867912658667,11512.443364178402,18.95844068690896,7.263116607151099,10.799822173856107,2.999248694492432,2946,100,972,1482,189.85476558733365,106.88269573176387,0.002146296025611565,False
0.3,0.8131072644534523,1.2,980.0,60.3876,0.3,68900.0,0.33,276.0,2700.0,21.616057563387354,3.185859966743486,8601.821910207413,14.438857629644788,4.744264005261266,7.177199933742566,1.5584040385177804,2076,82,692,1032,163.51709363251845,92.4538541811511,0.0014805112842548685,False
0.31,0.6550916004245667,1.2,981.0,60.3876,0.3,68900.0,0.33,276.0,2700.0,14.430505466322094,2.1743342227845295,5870.70240151823,10.332069481836019,2.7954301621308675,4.098435984486075,0.621095939346338,1398,64,460,702,138.85562268366039,79.39993621206219,0.001015772118033123,False
0.32,0.6973703329830352,1.2,982.0,60.3876,0.3,68900.0,0.33,276.0,2700.0,16.00425502819537,2.49205166579594,6728.539497649039,11.369393416732564,3.254027055703842,4.6348616114628065,0.761975389907902,1460,66,482,731,138.82265903281603,79.17000625660744,0.0010756825544658425,False
0.33,0.8423520956603039,1.2,983.0,60.3876,0.2,68900.0,0.33,276.0,2700.0,22.429516835711368,3.6256040010976722,9789.130802963715,15.26774207393572,5.1785938674095195,7.161774761775648,1.5529898663118473,5145,124,1588,2669,161.8489117449772,92.47451593154419,0.0014158968010589614,False
0.34,0.7206505090776408,1.2,984.0,60.3876,0.3,68900.0,0.33,276.0,2700.0,16.65059911363401,2.748283744213269,7420.366109375826,11.959760007340448,3.525554030483119,4.690839106293561,0.7772702862698502,1572,68,524,780,133.0634762186209,75.03330859424452,0.0010677442372447811,False
0.3500000000000001,1.0254396334457063,1.2,985.0,60.3876,0.3,68900.0,0.33,276.0,2700.0,31.771211767460695,5.470164869290517,14769.445147084396,20.94550366489454,8.480836964719293,10.825708102566153,3.0106720954287756,3050,102,1012,1526,165.06472215542453,92.66700128438835,0.0019272349976606382,False
0.36000000000000004,1.048983798739307,1.2,986.0,60.3876,0.3,68900.0,0.33,276.0,2700.0,32.89682610634896,5.823712601245531,15724.024023362934,21.73677116974472,8.98326889729145,11.16005493660424,3.1595562960459196,2979,102,990,1488,160.88981649089513,90.55724369511606,0.0019431549899326093,False
0.37,1.062893807350404,1.2,987.0,60.3876,0.3,68900.0,0.33,276.0,2700.0,33.468236563046275,6.085536369042043,16430.948196413516,22.21080282870693,9.288918826762824,11.257433734339344,3.203382457720781,3065,104,1020,1529,157.8209301709219,90.00655784445446,0.0019277535547950625,False
0.38,0.8111528911955677,1.2,988.0,60.3876,0.3,68900.0,0.33,276.0,2700.0,19.971045410738945,3.679574979981879,9934.852445951074,14.38423118220522,4.716098483903909,5.586814228533726,1.0365235039220297,1930,78,638,967,132.69670598677877,75.24759356432378,0.0011466254408961925,False
0.39,1.011742429295666,1.2,989.0,60.3876,0.3,68900.0,0.33,276.0,2700.0,30.03711050806931,5.732999125994656,15479.097640185571,20.49158096048522,8.197056243103816,9.545529547584092,2.46405711710916,2958,100,978,1485,149.13499050089956,83.95207675358377,0.0016444673175448029,False
0.4,0.874291052002323,1.2,990.0,60.3876,0.3,68900.0,0.33,276.0,2700.0,22.600442978200796,4.386047309086994,11842.327734534883,16.197542467386427,5.681009804903089,6.402900510814369,1.2949624958160948,2088,82,696,1038,131.1318704744968,73.72839590073788,0.0012213724454894703,False
0.4100000000000001,0.8150863803624955,1.2,991.0,60.3876,0.3,68900.0,0.33,276.0,2700.0,19.6106311136256,3.875831573441207,10464.74524829126,14.494273482966264,4.77289499906722,5.116357630659337,0.8970634256260128,2047,78,656,1039,128.50019539203043,71.88839657691459,0.0010847485858175847,False
0.42000000000000004,0.7817790300021883,1.2,992.0,60.3876,0.3,68900.0,0.33,276.0,2700.0,17.94725726462015,3.613754481224127,9757.137099305142,13.574769953940372,4.30551965598632,4.372487310679777,0.6917651747621929,1670,72,558,825,117.89916733437363,67.03482613656297,0.0009977062680180426,False
0.43,0.880160665930602,1.2,993.0,60.3876,0.3,68900.0,0.33,276.0,2700.0,22.311845144439264,4.630527634648467,12502.42461355086,16.37120622332846,5.7765923718409375,5.9406389211108035,1.1460647371924706,2094,82,690,1047,122.81008956260027,69.51332353650506,0.0011580059967985139,False
0.44,0.9059618831725234,1.2,994.0,60.3876,0.3,68900.0,0.33,276.0,2700.0,23.386539355723475,4.966629705856759,13409.90020581325,17.144853149515722,6.208933963116432,6.241686206207753,1.242304257259673,2083,82,690,1038,123.82158996047096,70.16021080287244,0.0011833470273271492,False
0.45,0.9823773871978642,1.2,995.0,60.3876,0.3,68900.0,0.33,276.0,2700.0,27.109982712495743,5.908894356605966,15954.014762836108,19.534319613294876,7.609428148953375,7.575663099200867,1.700533792347409,2594,92,862,1291,127.81310992653843,71.92084176356906,0.0013103089841199535,False
0.46,1.1304981897392619,1.2,996.0,60.3876,0.3,68900.0,0.33,276.0,2700.0,35.28877900465903,7.912559129385032,21363.90964933959,24.5839058824297,10.870035399977816,10.704873122229326,2.9574762705927835,3321,106,1098,1660,135.4789266632564,76.51009081040011,0.001663604301669721,False
0.4700000000000001,0.9643000424853867,1.2,997.0,60.3876,0.3,68900.0,0.33,276.0,2700.0,25.753107193630075,5.834533807787301,15753.241281025712,18.95579952622113,7.261540945743132,6.797307667408944,1.4270071379558313,2565,90,830,1290,121.87383136557659,68.73072323272599,0.0012315565042212637,False
0.4800000000000001,0.9171913749111428,1.2,998.0,60.3876,0.3,68900.0,0.33,276.0,2700.0,23.18502875950553,5.332783559117351,14398.515609616847,17.486793889331285,6.403378894495423,5.698234870174247,1.070595335378072,2387,84,720,1247,117.3655229230697,66.05593248043044,0.0011298563681510921,False
0.49,0.9883423439257182,1.2,999.0,60.3876,0.3,68900.0,0.33,276.0,2700.0,26.60522447027454,6.271876505815808,16934.06656570268,19.72701525513541,7.726523786228419,6.87820921513913,1.454647280412611,2676,90,834,1373,125.97376473486526,71.88523886661797,0.001234216276625592,False
0.5,0.8305282953607808,1.2,1000.0,60.3876,0.1,68900.0,0.33,276.0,2700.0,18.795019856823888,4.436955576406824,11979.780056298425,14.930032376378689,5.000071102136624,3.8649874804451994,0.5631155257298,33920,212,4974,21889,123.2916133895469,70.68049975156836,0.0009658614535909692,False
0.01,0.6482402347501277,1.2,1001.0,63.40698,0.05,68900.0,0.33,276.0,2700.0,20.099335274549837,0.1004945819776466,271.3353713396458,10.16819870095737,2.725203418840029,9.931136573592466,2.624708836862382,65449,458,21732,32845,4563.066893968245,2594.283427843202,0.03492921078599544,True
0.02,0.6185576131851108,1.2,1002.0,63.40698,0.1,68900.0,0.33,276.0,2700.0,18.487064798281175,0.18485389282213988,499.10551061977765,9.471877832976407,2.43377371206293,9.015186965304768,2.24891981924079,14701,218,4870,7390,1884.1929280335785,1073.027539024741,0.015963927564695977,True
0.03,0.6975284230348251,1.2,1003.0,63.40698,0.1,68900.0,0.33,276.0,2700.0,22.005904059561384,0.33003201222565726,891.0864330092746,11.373356518870617,3.2558247569529777,10.632547540690767,2.92579274472732,17139,240,5658,8646,1590.9316825544931,905.4910673057499,0.013244007102855993,True
0.04,0.43049481879695806,1.2,1004.0,63.40698,0.08,68900.0,0.33,276.0,2700.0,10.435186729892168,0.20856969331128952,563.1381719404817,5.574727013449464,1.032850953410253,4.860459716442704,0.8242812600989635,12857,194,4232,6503,759.8337937107693,434.3335306681672,0.004086639054577735,True
0.05,0.4737267796067388,1.2,1005.0,63.40698,0.1,68900.0,0.33,276.0,2700.0,11.842969658272724,0.2958124420687435,798.6935935856075,6.391923739207656,1.2913526131272695,5.451045919065067,0.9955401710585259,9618,168,3170,4857,631.931933128693,361.4035306201928,0.0038520912934275064,True
0.06000000000000001,0.5125757725207868,1.2,1006.0,63.40698,0.2,68900.0,0.33,276.0,2700.0,13.152587775658226,0.39412524392761694,1064.1381586045657,7.166342119307975,1.55459230038872,5.986245656350251,1.160467056461103,2964,94,974,1497,534.5367673919129,308.5653541863498,0.003683133075684342,True
0.06999999999999999,0.7692573867248078,1.2,1007.0,63.40698,0.2,68900.0,0.33,276.0,2700.0,24.65304119215332,0.8621380642052465,2327.7727733541656,13.23630091033224,4.137664435263308,11.416740281821081,3.2755263710580618,5363,132,1768,2705,713.2206238376417,407.4257753555084,0.00680799364277708,True
0.08,0.5255240785788158,1.2,1008.0,63.40698,0.2,68900.0,0.33,276.0,2700.0,13.286375346114347,0.5303826835521483,1432.0332455908006,7.432882608891124,1.6491053686716561,5.853492737223223,1.1187226851195078,2864,92,938,1451,422.91448252821215,244.0292294302768,0.002860589646057085,True
0.09,0.45582071399468355,1.2,1009.0,63.40698,0.1,68900.0,0.33,276.0,2700.0,10.487668917778315,0.4704182872703792,1270.1293756300238,6.04775374680701,1.179991796779692,4.439915170971305,0.7095735095093127,8697,156,2866,4392,315.2424739474195,181.816279172665,0.001990344369028732,True
0.09999999999999999,0.7811582262886052,1.2,1010.0,63.40698,0.3,68900.0,0.33,276.0,2700.0,24.524209394595996,1.2241160746274042,3305.1134014939917,13.557896340656779,4.297097626489869,10.966313053939217,3.0729815518624646,2356,90,770,1195,499.88350538192293,284.9520508067574,0.004947654383786321,True
0.11,0.44356631515402317,1.2,1011.0,63.40698,0.2,68900.0,0.33,276.0,2700.0,9.730104836046515,0.5323681261012723,1437.3939404734351,5.816858163990056,1.107298807760962,3.9132466720564585,0.5749306816596897,2134,76,702,1075,264.875670437944,152.88736952574595,0.0015874242661685538,False
0.12,0.6706974566270716,1.2,1012.0,63.40698,0.3,68900.0,0.33,276.0,2700.0,18.6728691694616,1.1167530354307595,3015.233195663051,10.709733995634407,2.9596098816332366,7.963135173827192,1.842856846202477,1918,76,628,970,362.9326541109649,208.443305123127,0.0029983615264007105,True
0.13,0.7749322283400588,1.2,1013.0,63.40698,0.3,68900.0,0.33,276.0,2700.0,23.478707923021165,1.5215146289564196,4108.089498182333,13.389207709482468,4.213211824680685,10.089500213538697,2.6916971957242652,2236,88,734,1129,382.1857872618126,218.3723740533579,0.003682393578991795,True
0.14,0.5345878657788363,1.2,1014.0,63.40698,0.3,68900.0,0.33,276.0,2700.0,12.55366863994491,0.8730097846351763,2357.126418514976,7.6219675483790805,1.7173307882401132,4.931701091565829,0.8443210036049369,1810,70,592,916,256.96828560117285,148.0467858054211,0.0016533406135136896,False
0.15000000000000002,0.7533141380365829,1.2,1015.0,63.40698,0.3,68900.0,0.33,276.0,2700.0,21.93393521377104,1.6379765575622491,4422.536705418072,12.811046312260773,3.930033255725648,9.122888901510267,2.2920566981633987,2177,82,706,1112,325.4544789501961,185.59554595835957,0.0029675869237311314,True
0.16,0.7851574888805819,1.2,1016.0,63.40698,0.3,68900.0,0.33,276.0,2700.0,23.291556252013383,1.8547458578216665,5007.8138161185,13.66676717097821,4.351536781703317,9.624789081035173,2.49679092388165,2331,88,762,1182,337.740682073232,192.84284135583928,0.0031452462381626025,True
0.17,0.7792159057745163,1.2,1017.0,63.40698,0.3,68900.0,0.33,276.0,2700.0,22.76247912129504,1.9245209621720192,5196.206597864451,13.50516610289859,4.270815071157697,9.25731301839645,2.346294108985678,2286,86,748,1158,291.1168116554658,165.02885827795754,0.0027672632612926445,True
0.18000000000000002,0.7771676528577487,1.2,1018.0,63.40698,0.3,68900.0,0.33,276.0,2700.0,22.43348418863229,2.0067990647397487,5418.357474797322,13.449662719493299,4.243209935776862,8.98382146913899,2.236410871037113,2285,86,748,1157,274.0680078029159,155.24000739284742,0.002582960598170247,False
0.19,0.7206358494346642,1.2,1019.0,63.40698,0.3,68900.0,0.33,276.0,2700.0,19.498652336815535,1.8380065159901595,4962.617593173431,11.959383964615068,3.525378707427363,7.539268372200468,1.6873721914372033,1965,78,642,996,246.81470290999255,140.45282070134945,0.00208943753577464,False
0.2,0.8466804978365119,1.2,1020.0,63.40698,0.3,68900.0,0.33,276.0,2700.0,25.523305649763458,2.535575404157199,6846.053591224437,15.39224783500884,5.244948081091147,10.131057814754618,2.709372676933948,2412,90,788,1224,264.4051102446412,149.05485596852287,0.002716105893763349,False
0.21000000000000002,0.6530254540133889,1.2,1021.0,63.40698,0.3,68900.0,0.33,276.0,2700.0,16.08928150688934,1.6699783651801179,4508.941585986318,10.282527204008582,2.77413379312389,5.806754302880757,1.1041554279437722,1595,70,516,815,207.86823027561573,118.95082678000459,0.001537092715769937,False
0.22,0.8816950533000623,1.2,1022.0,63.40698,0.3,68900.0,0.33,276.0,2700.0,26.907873961530587,2.93756501671808,7931.425545138816,16.41674677034097,5.801747074746954,10.491127191189616,2.864182058028874,2485,92,816,1255,246.8566772229364,139.39931528906712,0.0026357324660678293,False
0.23,0.6548383043979047,1.2,1023.0,63.40698,0.3,68900.0,0.33,276.0,2700.0,15.797269385997613,1.7912034741789078,4836.249380283051,10.325990152514592,2.792813859952941,5.4712792334830205,1.0016103857740333,1481,68,488,743,191.58375493195035,109.53744045321149,0.001399008763998028,False
0.24000000000000005,0.8781523425749875,1.2,1024.0,63.40698,0.3,68900.0,0.33,276.0,2700.0,26.2407528114055,3.119937419473176,8423.831032577575,16.311688686482665,5.743773478217925,9.929064124922835,2.623836058744749,2469,92,812,1245,224.49721586181866,126.03931459396456,0.0023637239749448326,False
0.25,0.78533774175803,1.2,1025.0,63.40698,0.2,68900.0,0.33,276.0,2700.0,21.309387236696857,2.630948481112214,7103.560899002978,13.671683612820468,4.3540006989004265,7.637703623876389,1.7230522177882124,4601,120,1532,2297,199.97727728939077,113.60592305440014,0.0018031376122387332,False
0.26,0.8335377877891483,1.2,1026.0,63.40698,0.3,68900.0,0.33,276.0,2700.0,23.473681014897693,3.014767443616487,8139.872097764515,15.01565572683528,5.045131705854329,8.458025288062412,2.030364262237842,2336,86,768,1178,199.62019549317398,112.70110721812955,0.0019382602471198235,False
0.27,0.826737695676647,1.2,1027.0,63.40698,0.3,68900.0,0.33,276.0,2700.0,22.915245717491153,3.0523341930609034,8241.302321264438,14.822509586493469,4.943681228126178,8.092736130997684,1.8913470350652748,2198,84,728,1100,204.64832607026133,116.56010912833345,0.0019460261990574537,False
0.28,0.6696267530725812,1.2,1028.0,63.40698,0.3,68900.0,0.33,276.0,2700.0,15.529031958674187,2.128088312926651,5745.838444901957,10.683627209532393,2.94815691026159,4.845404749141794,0.8200685973349393,1717,70,568,859,160.96378678199832,91.78858685514905,0.0012057227720694876,False
0.29000000000000004,0.7987370752387496,1.2,1029.0,63.40698,0.3,68900.0,0.33,276.0,2700.0,21.127572725142016,3.0124178429933237,8133.528176081974,14.03944029384148,4.5396509554953814,7.0881324313005365,1.5272331125020577,1917,80,634,960,174.14461693576334,98.7942993059476,0.0015601693762332348,False
0.3,0.6699161058044034,1.2,1030.0,63.40698,0.3,68900.0,0.33,276.0,2700.0,15.19933742072392,2.223351945343972,6003.050252428725,10.690679607828038,2.9512492672450557,4.508657812895882,0.7278973219010836,1522,66,504,760,154.30582367476316,87.38480593046054,0.0011270023521802472,False
0.31,0.877402296148555,1.2,1031.0,63.40698,0.3,68900.0,0.33,276.0,2700.0,24.61328403992771,3.752664901693401,10132.195234572182,16.289486732779963,5.731547281541304,8.323797307147746,1.978882379847903,2278,86,754,1141,175.50912908784406,98.80158056032509,0.0017358805682477123,False
0.32,0.9162651315931212,1.2,1032.0,63.40698,0.3,68900.0,0.33,276.0,2700.0,26.42195103201842,4.1588830264077234,11228.984171300854,17.458469631408896,6.387194987743192,8.963481400609524,2.2283119613354687,2556,92,842,1287,174.8950125939522,98.53825633359021,0.001814138847127474,False
0.33,1.0037310548499416,1.2,1033.0,63.40698,0.3,68900.0,0.33,276.0,2700.0,31.012129219692365,5.041735044454537,13612.68462002725,20.22827104340328,8.033946329125733,10.783858176289087,2.992211284671196,3056,102,1014,1529,180.89452063849447,101.61724334057,0.002084859442672335,False
0.34,0.8510252726332033,1.2,1034.0,63.40698,0.3,68900.0,0.33,276.0,2700.0,22.652405713208367,3.7685908661409617,10175.195338580597,15.51769809031112,5.312096286327673,7.134707622897247,1.5435054201867113,2058,82,686,1023,156.58411798704006,88.29998164437896,0.0014584190962340009,False
0.3500000000000001,1.0488939763823864,1.2,1035.0,63.40698,0.3,68900.0,0.33,276.0,2700.0,33.14134119040128,5.709937518305119,15416.83129942382,21.733725964415346,8.98131658603838,11.407615225985932,3.2713790677332613,2984,102,992,1490,173.40550201185746,97.64317895376251,0.0021102047998734627,False
0.36000000000000004,0.6641596818977253,1.2,1036.0,63.40698,0.3,68900.0,0.33,276.0,2700.0,14.006637705049117,2.4234786890115037,6543.39246033106,10.550773678607856,2.8901122619900175,3.4558640264412617,0.4666335729785138,1341,62,446,666,125.25625316318343,71.48915799692942,0.0009574206533004197,False
0.37,0.7398003231727236,1.2,1037.0,63.40698,0.3,68900.0,0.33,276.0,2700.0,16.96230300824533,3.0319386614038635,8186.234385790432,12.45559443915977,3.759314071885567,4.506708569085559,0.7273754104817036,1543,68,514,766,132.42957161645043,75.16682855448377,0.0010784180634054005,False
0.38,0.9524618336263512,1.2,1038.0,63.40698,0.3,68900.0,0.33,276.0,2700.0,27.015815582730877,5.0180813126603505,13548.819544182947,18.58139767405037,7.039357830217665,8.434417908680508,2.0212765175573146,2274,88,758,1131,151.54229259329588,85.48509573065866,0.0015897340874441864,False
0.39,0.8641421467440962,1.2,1039.0,63.40698,0.3,68900.0,0.33,276.0,2700.0,22.299313696677448,4.22412874777324,11405.147618987749,15.899310611991691,5.518138033763277,6.400003084685757,1.294009285990037,2078,82,692,1034,137.78564966129844,78.21505064651271,0.0012901845297681879,False
0.4,0.7286367373554625,1.2,1040.0,63.40698,0.3,68900.0,0.33,276.0,2700.0,16.000479284580273,3.0660545703628883,8278.347339979799,12.165422180802992,3.6218875697802146,3.835057103777281,0.5558329994173263,1486,66,498,733,123.0382593821019,69.90203511796643,0.0009787099216767396,False
0.4100000000000001,0.995412356876713,1.2,1041.0,63.40698,0.3,68900.0,0.33,276.0,2700.0,28.67706364283278,5.7344502419286805,15483.015653207438,19.956567399002154,7.866804767732586,8.720496243830627,2.1323545258039056,2785,96,926,1390,146.68876911127245,82.58927178472747,0.0015769447886511438,False
0.42000000000000004,0.879917954576479,1.2,1042.0,63.40698,0.3,68900.0,0.33,276.0,2700.0,22.489803237669935,4.567689135564582,12332.760666024373,16.364007981581246,5.772619767787293,6.12579525608869,1.2049306322227107,2083,82,688,1041,131.7799371954608,73.92257645205254,0.0012407693666561285,False
0.43,0.9099111744179027,1.2,1043.0,63.40698,0.3,68900.0,0.33,276.0,2700.0,23.777414049538574,4.945624949244637,13353.18736296052,17.26474871959344,6.276880603818328,6.512665329945133,1.3312556545736909,2246,86,748,1118,134.01519673363092,75.58608962541254,0.0012757210254549425,False
0.44,0.8339964551809618,1.2,1044.0,63.40698,0.3,68900.0,0.33,276.0,2700.0,19.95010659832371,4.210614499228954,11368.659147918175,15.028725305408228,5.052021894595171,4.921381292915482,0.8414073953662173,2163,78,660,1123,123.22868444823938,69.63946013578966,0.001110387027740049,False
0.45,0.7618884666147141,1.2,1045.0,63.40698,0.3,68900.0,0.33,276.0,2700.0,16.61292556074906,3.5470564974629575,9577.052543149985,13.03895556583799,4.040855140391186,3.573969994911069,0.49379864292822884,1514,66,494,757,111.07830522714815,63.106749079052165,0.0009572309552954084,False
0.46,0.8182116414432663,1.2,1046.0,63.40698,0.3,68900.0,0.33,276.0,2700.0,18.89529549983865,4.142057923276346,11183.556392846136,14.581982218286944,4.818330380294167,4.3133132815517055,0.6762724570178209,1883,74,612,943,116.16350976604724,64.4253277820889,0.0010382443593126333,False
0.4700000000000001,0.8201033514189786,1.2,1047.0,63.40698,0.3,68900.0,0.33,276.0,2700.0,18.815198023999816,4.2041251529241865,11351.137912895303,14.635191282592775,4.845965575402794,4.180006741407041,0.6418404224786078,1911,74,612,963,118.65184210914352,68.24651165686947,0.0010160014703796889,False
0.4800000000000001,0.9939292089695133,1.2,1048.0,63.40698,0.3,68900.0,0.33,276.0,2700.0,27.10231316903453,6.2729318174044195,16936.915906991933,19.908307804297728,7.837242021451318,7.194005364736803,1.5643102040468984,2490,90,816,1244,126.49495837130705,71.44691428328072,0.0013271750289954223,False
0.49,1.1639160142084224,1.2,1049.0,63.40698,0.3,68900.0,0.33,276.0,2700.0,36.58777343417316,8.717601001970968,23537.52270532161,25.799388404423638,11.711807280761102,10.78838502974952,2.9942062787901342,3894,110,1178,2035,142.52966227788338,80.560739089234,0.001712803200995958,False
0.5,0.8441852856463212,1.2,1050.0,63.40698,0.3,68900.0,0.33,276.0,2700.0,19.404168292042435,4.58924268521146,12390.955250070941,15.320415994690366,5.206630807037871,4.083752297352069,0.6173881218264112,2079,74,626,1082,122.64856850744603,69.9323213607689,0.0010182619304969132,False
0.01,0.6427178894257682,1.2,1051.0,66.42636,0.08,68900.0,0.33,276.0,2700.0,19.838273943985666,0.09918927532482708,267.8110433770331,10.036974077295223,2.6694138008494583,9.801299866690442,2.5702245255246314,24366,284,8114,12189,4175.074290941027,2384.8935441229946,0.036124881389168355,True
0.02,0.6499518130004679,1.2,1052.0,66.42636,0.1,68900.0,0.33,276.0,2700.0,19.945579957378765,0.19943904441296972,538.4854199150183,10.209025635525437,2.742642015326902,9.736554321853328,2.5432029709139323,15818,228,5244,7946,2139.5052500331144,1214.272327232334,0.018333807386530492,True
0.03,0.4394637963565421,1.2,1053.0,66.42636,0.1,68900.0,0.33,276.0,2700.0,10.93457190280604,0.16396202987432618,442.6974806606807,5.740402368254078,1.0835920130845076,5.194169534551961,0.9196299832101814,8856,160,2912,4482,991.8609170320331,565.5682750142178,0.005957618155420839,True
0.04,0.345975179029117,1.2,1054.0,66.42636,0.1,68900.0,0.33,276.0,2700.0,7.596243481699972,0.15179082834744664,409.83523653810596,4.112771184652775,0.6247235613876746,3.4834722970471965,0.472932733040228,6426,130,2102,3267,573.4423826816515,328.4918924281473,0.0030346356601014647,True
0.05,0.6248602505371168,1.2,1055.0,66.42636,0.2,68900.0,0.33,276.0,2700.0,18.104960022027896,0.4523622011628976,1221.3779431398236,9.617878881482923,2.493931094562137,8.487081140544973,2.0415688933992397,3845,110,1268,1937,884.9567084262793,507.2044425965329,0.006707261915893847,True
0.06000000000000001,0.4950560381209662,1.2,1056.0,66.42636,0.1,68900.0,0.33,276.0,2700.0,12.471136160159567,0.37368169546254143,1008.9405777488619,6.812406743026477,1.432151579398803,5.65872941713309,1.0584698839362616,10245,174,3368,5187,584.2801837586395,334.39121543443144,0.0036183199069673207,True
0.06999999999999999,0.48962081271809177,1.2,1057.0,66.42636,0.2,68900.0,0.33,276.0,2700.0,12.08074500607304,0.42210769769243517,1139.6907837695749,6.704171639451231,1.3954190905945312,5.376573366621808,0.973311392902096,2736,88,894,1389,465.2881725350147,267.7519223658491,0.0030386679676991696,True
0.08,0.40450010318775254,1.2,1058.0,66.42636,0.1,68900.0,0.33,276.0,2700.0,8.875888622136493,0.35396321459303454,955.7006794011933,5.105972676663224,0.8940668665821326,3.7699159454732696,0.540103651989098,7552,144,2482,3823,331.04114336017676,191.0660935873525,0.001971438501136028,True
0.09,0.5671764182129895,1.2,1059.0,66.42636,0.2,68900.0,0.33,276.0,2700.0,14.77802828470197,0.6634844587819446,1791.4080387112506,8.318873764699557,1.9770027737800377,6.4591545200024125,1.3135183149980931,3120,96,1026,1575,426.28785824234484,246.0521169411778,0.0030441702505608977,True
0.09999999999999999,0.7442303430407776,1.2,1060.0,66.42636,0.3,68900.0,0.33,276.0,2700.0,22.64444842288694,1.1301280260419517,3051.3456703132697,12.571610908112653,3.814749398265095,10.072837514774285,2.6846213722231433,2134,84,696,1084,505.2755219124389,288.9144896797144,0.004695439093002911,True
0.11,0.6936365305237612,1.2,1061.0,66.42636,0.3,68900.0,0.33,276.0,2700.0,19.956993380348738,1.094846996037894,2956.0868893023135,11.27597468679553,3.2117504991672314,8.681018693553208,2.1169035031293375,2055,80,672,1041,431.57609562115334,247.14351162591933,0.003680550526370804,True
0.12,0.6077673451339011,1.2,1062.0,66.42636,0.3,68900.0,0.33,276.0,2700.0,15.891670323058461,0.9498811046465729,2564.6789825457467,9.224238199973705,2.3329082915154835,6.667432123084756,1.3830271868689106,1706,72,560,860,356.38462627404635,205.0932754514634,0.002587503522213512,True
0.13,0.5129628209010979,1.2,1063.0,66.42636,0.3,68900.0,0.33,276.0,2700.0,11.904710522923086,0.7692047979500428,2076.8529544651155,7.174248403178161,1.5573675514344842,4.730462119744925,0.7881627534844414,1852,70,606,937,277.8684477461806,160.23748193159693,0.0017500188888031239,True
0.14,0.8394055887840901,1.2,1064.0,66.42636,0.3,68900.0,0.33,276.0,2700.0,26.603718182009764,1.8565132525797186,5012.58578196524,15.183255666206781,5.13373188387239,11.420462515802983,3.277218631292672,2499,92,822,1260,395.1697191063288,225.1257897875824,0.004184362899012107,True
0.15000000000000002,0.8081330301882943,1.2,1065.0,66.42636,0.3,68900.0,0.33,276.0,2700.0,24.705204600487306,1.84582176156597,4983.718756228119,14.300012182935957,4.672787327552376,10.40519241755135,2.8269655659864057,2234,88,732,1130,358.4636856277519,202.90091178169317,0.0035905252290020185,True
0.16,0.8184171399076922,1.2,1066.0,66.42636,0.3,68900.0,0.33,276.0,2700.0,24.99979295973824,1.9914047944396072,5376.792944986939,14.587758021050341,4.821327548689439,10.4120349386879,2.8299227542498318,2418,90,792,1224,365.73731014868497,209.7363443421924,0.0038899059479761207,True
0.17,0.5020339217569914,1.2,1067.0,66.42636,0.3,68900.0,0.33,276.0,2700.0,10.841325731269164,0.9112229240198216,2460.301894853518,6.952450246291763,1.4801756529778687,3.888875484977401,0.568952728958047,1464,62,482,735,209.2734410311323,119.56439508091289,0.0013223133562372158,False
0.18000000000000002,0.6255817148213967,1.2,1068.0,66.42636,0.3,68900.0,0.33,276.0,2700.0,15.489228048368407,1.3818160121160006,3730.9032327132018,9.634655335449144,2.500876101685325,5.854572712919262,1.1190600895693243,1682,70,546,857,240.10449716922108,137.78606171786052,0.0017600310822721284,False
0.19,0.7122370054884004,1.2,1069.0,66.42636,0.3,68900.0,0.33,276.0,2700.0,19.109647729842884,1.801051078327759,4862.8379114849495,11.744828493834168,3.4258359576174633,7.3648192360087155,1.6247848792897044,1694,74,558,851,257.70164509652153,146.41401281643599,0.0021478019489741132,False
0.2,0.7365162339623239,1.2,1070.0,66.42636,0.3,68900.0,0.33,276.0,2700.0,20.032369488261722,1.9864817880069767,5363.500827618837,12.369906760597765,3.718549565752296,7.662462727663957,1.7320677777453193,1965,78,640,999,249.21850272172554,141.31235003771033,0.002158278130261251,False
0.21000000000000002,0.6239643136742916,1.2,1071.0,66.42636,0.3,68900.0,0.33,276.0,2700.0,14.871735318464989,1.5421360153955515,4163.767241567989,9.59706356720123,2.4853234084399562,5.274671751263758,0.9431873930444048,1575,68,518,792,206.96805458606454,118.65013332773938,0.00148501761420833,False
0.22,0.7389695903018807,1.2,1072.0,66.42636,0.3,68900.0,0.33,276.0,2700.0,19.731325573782406,2.1481446940652593,5799.9906739762,12.43389354235536,3.7489758151843473,7.297432031427046,1.600831121119088,1813,76,598,910,226.30744236628962,128.3025535544042,0.0019490874195376667,False
0.23,0.8053573550390771,1.2,1073.0,66.42636,0.3,68900.0,0.33,276.0,2700.0,22.72081967716233,2.58741175766285,6986.011745689695,14.222805278318997,4.633202334534239,8.498014398843331,2.045790576871389,2266,86,744,1144,231.9719825299493,131.09468376325657,0.002188657958252271,False
0.24000000000000005,0.5818293590013739,1.2,1074.0,66.42636,0.3,68900.0,0.33,276.0,2700.0,12.686604950623096,1.4934396761792885,4032.287125684079,8.640925692138175,2.101251653187326,4.04567925848492,0.6078119770080375,1483,64,488,745,172.72994716433482,98.83100504188432,0.0011887655208166403,False
0.25,0.8610357805984561,1.2,1075.0,66.42636,0.3,68900.0,0.33,276.0,2700.0,25.107486309198375,3.1057108651749044,8385.419335972241,15.808545551783462,5.468889991073601,9.298940757414913,2.3631791258986965,2504,90,822,1265,221.19964478883844,125.13959408875877,0.002264117818420455,False
0.26,0.9460850797019184,1.2,1076.0,66.42636,0.3,68900.0,0.33,276.0,2700.0,29.46929281250699,3.794196977306247,10244.331838726866,18.38118248091313,6.921507734259724,11.08811033159386,3.1273107569534773,2609,96,860,1313,230.45301977002342,129.15308848149442,0.0026009075210203067,False
0.27,0.7464869339913072,1.2,1077.0,66.42636,0.3,68900.0,0.33,276.0,2700.0,19.076590801169427,2.534115779357468,6842.112604265163,12.630897708708503,3.843185250636044,6.445693092460925,1.3090694712785762,1788,74,586,903,187.65462990187692,106.6214432080357,0.0015614087538210486,False
0.28,0.7807732990171603,1.2,1078.0,66.42636,0.3,68900.0,0.33,276.0,2700.0,20.47449822964665,2.820453590862797,7615.224695329552,13.54743877789536,4.291880835264927,6.927059451751289,1.4714272444021304,1918,80,634,961,184.43544608565537,104.1665944773139,0.0016342829851558756,False
0.29000000000000004,0.6363182620881611,1.2,1079.0,66.42636,0.3,68900.0,0.33,276.0,2700.0,14.004204483740027,1.9795294479900372,5344.729509573101,9.88586182291004,2.605664987151858,4.1183426608299865,0.6261355391618209,1415,64,468,707,269.08357206460965,152.74883684535914,0.0011256350890515095,False
0.3,0.9599852797393585,1.2,1080.0,66.42636,0.3,68900.0,0.33,276.0,2700.0,29.268769128097922,4.333766701450072,11701.170093915194,18.818930484555338,7.1800466150872895,10.449838643542584,2.8462799136372174,2783,98,922,1394,200.28980502934115,112.97565016341132,0.002255083637872441,False
0.31,0.7697518841804837,1.2,1081.0,66.42636,0.3,68900.0,0.33,276.0,2700.0,19.372216649700686,2.940299456208211,7938.80853176217,13.249592795856893,4.144213038534564,6.122623853843793,1.2039135823263525,1869,78,618,936,169.169625442034,95.9087360600982,0.0014071202474867778,False
0.32,0.8440713166654661,1.2,1082.0,66.42636,0.2,68900.0,0.33,276.0,2700.0,22.71990649418261,3.5665559003539946,9629.700930955785,15.317138807468472,5.204884941592618,7.402767686714137,1.6383290412386233,4869,124,1594,2450,176.4753790507829,99.6651415386777,0.00161850200138715,False
0.33,0.712736132062862,1.2,1083.0,66.42636,0.1,68900.0,0.33,276.0,2700.0,16.484101262910798,2.644610431585579,7140.448165281063,11.757529549621536,3.431701283088034,4.726571713289262,0.7870908515024548,23614,202,4468,14472,162.0199996930203,91.65253036250202,0.0012185003151025432,False
0.34,0.7238721417374221,1.2,1084.0,66.42636,0.2,68900.0,0.33,276.0,2700.0,16.788611687657855,2.7717458817971945,7483.713880852425,12.042530932547441,3.5642172426532452,4.746080755110414,0.7924713608560507,4378,104,1226,2361,159.56791381049757,91.10709919839348,0.001199063691081199,False
0.3500000000000001,0.8436518938212705,1.2,1085.0,66.42636,0.2,68900.0,0.33,276.0,2700.0,22.08945507639193,3.7758574483534786,10194.815110554393,15.305081081116603,5.198463112466523,6.784373995275326,1.422605664113044,5479,120,1538,2954,167.38661573164563,95.0364319163841,0.0014563679376098611,False
0.36000000000000004,0.9924772850475339,1.2,1086.0,66.42636,0.3,68900.0,0.33,276.0,2700.0,29.656778151474747,5.240503969368197,14149.360717294132,19.861117746764197,7.808370937701311,9.79566040471055,2.5678669683331146,2776,98,920,1390,172.42678922944748,97.33403656063638,0.0019265203513300867,False
0.37,0.9631537596626337,1.2,1087.0,66.42636,0.3,68900.0,0.33,276.0,2700.0,27.81291006049949,5.0393009660707495,13606.112608391024,18.91939252782827,7.239833107867807,8.893517532671222,2.2005321417970576,2798,96,928,1400,164.89137333192116,92.6913951812547,0.0017568924550421406,False
0.38,0.7482350904942532,1.2,1088.0,66.42636,0.3,68900.0,0.33,276.0,2700.0,17.157304882739584,3.1449642796620005,8491.403555087401,12.67691452550136,3.865306247713116,4.480390357238225,0.7203419680511156,1548,68,516,768,136.07879639907424,77.52361045699114,0.001119157316154589,False
0.39,0.8002771200226544,1.2,1089.0,66.42636,0.3,68900.0,0.33,276.0,2700.0,19.2906773519018,3.6374446605419877,9821.100583463367,14.081997317523609,4.5613050845000735,5.20868003437819,0.9238604239580859,1805,76,598,900,139.0753088750242,78.49296720921313,0.0012054060311502916,False
0.4,0.8437990272594516,1.2,1090.0,66.42636,0.3,68900.0,0.33,276.0,2700.0,21.130518161046577,4.09206234565609,11048.568333271443,15.309310425328846,5.200715312800059,5.821207735717731,1.1086529671439695,2047,80,680,1021,141.8520534465652,80.14658657830095,0.0012774874595240652,False
0.4100000000000001,0.8883290411715115,1.2,1091.0,66.42636,0.3,68900.0,0.33,276.0,2700.0,23.09600909299316,4.590334059211421,12393.901959870836,16.614324185058187,5.911310325316073,6.481684907934973,1.320976266104652,2182,84,728,1084,146.1256169912045,82.63442254971972,0.001346189438547562,False
0.42000000000000004,1.0808077209455647,1.2,1092.0,66.42636,0.3,68900.0,0.33,276.0,2700.0,33.298135607657784,6.837438933262027,18461.085119807474,22.828445374442065,9.69232138701545,10.469690233215719,2.854882453753423,2974,102,994,1477,156.2200773645942,88.14979105489886,0.0018738254524178607,False
0.43,0.9520140562466057,1.2,1093.0,66.42636,0.3,68900.0,0.33,276.0,2700.0,25.92751774621065,5.407897244029307,14601.32255887913,18.56730514723613,7.031040656000817,7.36021259897452,1.62314341197151,2206,86,736,1096,142.22290611312684,80.46554856689308,0.001430553157900817,False
0.44,0.822350546439049,1.2,1094.0,66.42636,0.3,68900.0,0.33,276.0,2700.0,19.418473435983284,4.0936552035140625,11052.869049487968,14.698516129865594,4.878924832244175,4.71995730611769,0.7852696287301129,1836,74,614,907,127.08519841285019,71.45334192395218,0.001132799803730743,False
0.45,0.7844576297988225,1.2,1095.0,66.42636,0.1,68900.0,0.33,276.0,2700.0,17.57513537020692,3.763553704590978,10161.595002395641,13.647686081629276,4.341978648335197,3.927449288577643,0.5784249437442193,30245,206,4762,19280,141.7019929400783,80.68259170323427,0.0010723706382589915,False
0.46,1.1189518202455153,1.2,1096.0,66.42636,0.3,68900.0,0.33,276.0,2700.0,34.59537992659985,7.753077341431422,20933.30882186484,24.170462202578086,10.58857064980552,10.42491772402176,2.8354933083740983,3111,104,1026,1554,150.91334414223482,86.49854113301143,0.0017921476891149344,False
0.4700000000000001,0.9317896808246001,1.2,1097.0,66.42636,0.3,68900.0,0.33,276.0,2700.0,24.09764093207694,5.445499236322312,14702.847938070241,17.9360538863295,6.661929162798907,6.161587045747439,1.2164299264765948,2201,84,712,1109,131.62308145282043,74.56082679458741,0.0012830008810482594,False
0.4800000000000001,0.9544632788801319,1.2,1098.0,66.42636,0.3,68900.0,0.33,276.0,2700.0,25.050701532297683,5.780545024587714,15607.471566386828,18.644449103940538,7.076610560602089,6.406252428357146,1.2960655360143747,2214,84,722,1111,129.08974847858988,73.86703765469629,0.0013032995749138023,False
0.49,1.1398437265573278,1.2,1099.0,66.42636,0.3,68900.0,0.33,276.0,2700.0,35.12744257239664,8.359819940835719,22571.51384025644,24.920997342337408,11.101358638349824,10.20644523005923,2.7415386975141054,3219,104,1020,1641,148.93139582436706,84.85239971266212,0.0017209841822631606,False
0.5,0.8059491646811368,1.2,1100.0,66.42636,0.2,68900.0,0.33,276.0,2700.0,17.72232665400151,4.168782275700932,11255.712144392515,14.239250542217748,4.641624393634149,3.4830761117837614,0.47284211793321695,5317,104,1296,3011,128.13239128594807,73.0998017105989,0.0010169054380770213,False
0.01,0.3247696126860751,1.2,1101.0,69.44574,0.05,68900.0,0.33,276.0,2700.0,7.392528741987304,0.03696054931483439,99.79348315005285,3.7741469174789626,0.5411202502468524,3.6183818245083414,0.504159700932018,23795,252,7894,11948,2171.198118196209,1234.6159319295289,0.011243781234255672,True
0.02,0.39488426959543393,1.2,1102.0,69.44574,0.1,68900.0,0.33,276.0,2700.0,9.529492590634574,0.09527817074552665,257.251061012922,4.936876486510905,0.8457835455796628,4.592616104123668,0.7505053748341362,7807,148,2580,3931,1301.6289959098235,748.1967754052383,0.007800347137647721,True
0.03,0.596408419823504,1.2,1103.0,69.44574,0.1,68900.0,0.33,276.0,2700.0,17.268852331882265,0.25897623631046834,699.2358380382645,8.966709311924694,2.2295965539781166,8.30214301995757,1.9706203176676482,13823,210,4570,6962,1522.5799637036966,867.3941890131283,0.010810093749195704,True
0.04,0.727456040742688,1.2,1104.0,69.44574,0.1,68900.0,0.33,276.0,2700.0,23.257026292790158,0.4650064845692481,1255.5175083369697,12.13491578582098,3.6075419098642367,11.122110506969179,3.1425354252949886,18315,250,6032,9261,1504.4852259169547,856.0605737931284,0.011707288903388352,True
0.05,0.3905823061410977,1.2,1105.0,69.44574,0.1,68900.0,0.33,276.0,2700.0,8.887560747489205,0.22192721929943093,599.2034921084635,4.861978070411047,0.8247065552278274,4.025582677078158,0.6027793359283965,7592,144,2494,3845,552.5649300840067,316.7618000966041,0.0030391731090480827,True
0.06000000000000001,0.3727376463364944,1.2,1106.0,69.44574,0.1,68900.0,0.33,276.0,2700.0,8.143301759244606,0.24384666343522085,658.3859912750963,4.556263647922221,0.7406857965166086,3.587038111322385,0.4968391330813877,6714,134,2194,3417,438.4989620208012,252.1063605981519,0.0024116749102917816,True
0.06999999999999999,0.4325356330743355,1.2,1107.0,69.44574,0.1,68900.0,0.33,276.0,2700.0,9.997325918522984,0.3491880296281842,942.8076799960972,5.6122473489968545,1.0442662041080102,4.385078569526129,0.695078174479826,8280,152,2722,4191,425.2503166592825,244.29365995295265,0.0025623076836431614,True
0.08,0.5641543175215382,1.2,1108.0,69.44574,0.2,68900.0,0.33,276.0,2700.0,14.849186022409615,0.5928951106039588,1600.816798630689,8.253123298996798,1.9519617096952377,6.5960627234128175,1.359066599091279,3258,98,1070,1647,485.7400389742356,280.43151303700154,0.003554130111007037,True
0.09,0.5716061060860343,1.2,1109.0,69.44574,0.2,68900.0,0.33,276.0,2700.0,14.961587571301324,0.6717446266789033,1813.710492033039,8.415663266955892,2.014066979610432,6.545924304345432,1.3423223529315287,3274,98,1074,1657,439.054977495323,253.4465460628181,0.0032227504719895706,True
0.09999999999999999,0.5284327275077609,1.2,1110.0,69.44574,0.1,68900.0,0.33,276.0,2700.0,13.030258468462783,0.6494185283204895,1753.4300264653216,7.493336649451941,1.6708128829626496,5.536921819010842,1.02139435464216,10517,178,3468,5309,360.50138227831934,207.99613828827174,0.002507801406085418,True
0.11,0.5893350557491774,1.2,1111.0,69.44574,0.2,68900.0,0.33,276.0,2700.0,15.309357621403395,0.839227029295903,2265.912979098938,8.80798079868228,2.1667338679499055,6.501376822721115,1.3275068386540025,3372,100,1102,1713,375.6876864703414,216.6298635373926,0.002767099385093931,True
0.12,0.7607976080118919,1.2,1112.0,69.44574,0.3,68900.0,0.33,276.0,2700.0,23.001380526997384,1.3764637168829066,3716.4520355838476,13.00985750176768,4.026647357195851,9.991523025229704,2.6501836403129446,2130,84,692,1086,449.15254332887497,256.3297097779391,0.004235127140830603,True
0.13,0.7199915334041621,1.2,1113.0,69.44574,0.3,68900.0,0.33,276.0,2700.0,20.76552101549422,1.3451574799671537,3631.925195911315,11.94286158825024,3.5176784080002292,8.822659427243979,2.1725209280330757,2189,82,710,1118,394.45830211118954,225.44439940861918,0.0034717946888172986,True
0.14,0.6716967201894198,1.2,1114.0,69.44574,0.3,68900.0,0.33,276.0,2700.0,18.295554283351112,1.2749417796736087,3442.3428051187434,10.734124865146883,2.970323912941323,7.561429418204229,1.6953821332677144,1911,76,626,966,343.56851871490016,196.79688894433542,0.0027897101469149086,True
0.15000000000000002,0.7170515482500154,1.2,1115.0,69.44574,0.3,68900.0,0.33,276.0,2700.0,20.183755627285194,1.5067130885753508,4068.1253391534474,11.86760314761321,3.482677254804393,8.316152479671985,1.9759641662290421,2071,78,676,1051,338.8431067511969,193.09465097981126,0.002960409586543727,True
0.16,0.5078506033091291,1.2,1116.0,69.44574,0.3,68900.0,0.33,276.0,2700.0,11.213387207957435,0.8884923342971927,2398.92930260242,7.0701240732695085,1.520957665479218,4.143263134687927,0.6324653311820254,1765,68,582,886,232.69404942157536,134.18925016067618,0.0014843741853131527,False
0.17,0.7420251688310942,1.2,1117.0,69.44574,0.3,68900.0,0.33,276.0,2700.0,20.938644005424155,1.7694949773229958,4777.636438772089,12.513798605708281,3.787090571674322,8.424845399715874,2.0175955943513264,1896,78,620,960,311.07296111897284,176.61049618421757,0.0027555946565850356,True
0.18000000000000002,0.5573414515436972,1.2,1118.0,69.44574,0.3,68900.0,0.33,276.0,2700.0,12.740110823061247,1.1343954618383556,3062.86774696356,8.10574088374514,1.8962369973718034,4.634369939316107,0.7618415355334478,1661,68,546,836,228.59237900215112,131.26579395798964,0.0015190835439382528,False
0.19,0.6398173404286398,1.2,1119.0,69.44574,0.3,68900.0,0.33,276.0,2700.0,15.902524329981464,1.4963743553409243,4040.210759420496,9.968356847230803,2.6404006306834975,5.934167482750661,1.1440262753425732,1586,70,512,812,246.99046190901984,141.50598856447667,0.0018148209350172815,False
0.2,0.8065932508909217,1.2,1120.0,69.44574,0.3,68900.0,0.33,276.0,2700.0,23.454627411737032,2.3287075803545583,6287.5104669573075,14.257158475590103,4.650801465112605,9.19746893614693,2.3220938847580466,2268,86,744,1146,279.84669330840626,158.27597852679534,0.0026985538650543925,True
0.21000000000000002,0.7045390704028531,1.2,1121.0,69.44574,0.3,68900.0,0.33,276.0,2700.0,18.351815532606295,1.907544437880399,5150.369982277077,11.54973544786661,3.336176892474234,6.802080084739686,1.4286324545938351,1745,74,574,878,241.13520907765806,136.98960102795093,0.0019546769946090837,False
0.22,0.541671757341766,1.2,1122.0,69.44574,0.3,68900.0,0.33,276.0,2700.0,11.49681063257865,1.2423480505333682,3354.339736440094,7.7711861798688675,1.7718517596348207,3.7256244527097833,0.5295037091014525,1548,64,510,777,185.14383990999553,104.93290289402964,0.0013955523947383308,False
0.23,0.8297788236224894,1.2,1123.0,69.44574,0.3,68900.0,0.33,276.0,2700.0,23.951529053606205,2.728943335953896,7368.1470070755195,14.908744488329136,4.988889443035691,9.042784565277069,2.259946107081795,2441,88,800,1235,245.8635950011166,138.29209716406694,0.0024324979667411854,False
0.24000000000000005,0.9254900459981945,1.2,1124.0,69.44574,0.3,68900.0,0.33,276.0,2700.0,28.814894957779632,3.4288344770380745,9257.853088002801,17.741526909729405,6.549551821152682,11.073368048050227,3.1207173441146074,2613,96,862,1314,257.3579891191657,144.64751850762917,0.0028656592552283675,False
0.25,0.6283954443420229,1.2,1125.0,69.44574,0.3,68900.0,0.33,276.0,2700.0,14.352535432337367,1.761342005567277,4755.623415031648,9.70020894204109,2.528077594226961,4.652326490296277,0.766735588659684,1466,64,486,731,184.04249227474222,105.27121531849566,0.0013385951327912207,False
0.26,0.7418154347784612,1.2,1126.0,69.44574,0.3,68900.0,0.33,276.0,2700.0,19.058343331817724,2.440773544816495,6590.088571004537,12.508306444091808,3.7844665779453517,6.550036887725916,1.3436930331288566,1855,76,610,934,203.29697267961245,115.14990285160412,0.0016838520354915394,False
0.27,0.9173831682720344,1.2,1127.0,69.44574,0.3,68900.0,0.33,276.0,2700.0,27.640443999872495,3.6902359611823834,9963.637095192435,17.49266157053393,6.406733308142802,10.147782429338566,2.7164973469604186,2516,94,828,1268,224.4279993448284,126.92250198230704,0.0024497237917628593,False
0.28,0.6587164341864877,1.2,1128.0,69.44574,0.3,68900.0,0.33,276.0,2700.0,15.077046001911734,2.064810278979908,5574.987753245752,10.41924536017099,2.8330400957003534,4.657800641740744,0.7682298167204453,1381,64,456,691,172.12263580502568,98.07971269965445,0.0012847153529285816,False
0.29000000000000004,0.8951415954572317,1.2,1129.0,69.44574,0.3,68900.0,0.33,276.0,2700.0,25.98279011447444,3.716424364446527,10034.345784005623,16.818370918197523,6.0251906882713735,9.164419196276917,2.3087663238248464,2501,90,822,1262,206.06573872524368,116.51108335034108,0.0021425479214888053,False
0.3,0.8929917068269732,1.2,1130.0,69.44574,0.3,68900.0,0.33,276.0,2700.0,25.64373259637202,3.790011221691186,10233.030298566202,16.753852398893248,5.989102438482063,8.889880197478771,2.199091216790877,2503,90,822,1264,199.4005285726319,112.7255906459712,0.0020473074124783995,False
0.31,0.7903883058095433,1.2,1131.0,69.44574,0.3,68900.0,0.33,276.0,2700.0,20.33179157189353,3.0890335691481,8340.390636699869,13.809770982880243,4.4233988524100365,6.522020589013286,1.3343652832619366,1973,80,650,992,181.45676395485265,103.13707038991741,0.0015462742531210303,False
0.32,0.7023262050686607,1.2,1132.0,69.44574,0.3,68900.0,0.33,276.0,2700.0,16.213469043757836,2.5255259082860344,6818.919952372293,11.493929168624359,3.3106806518675933,4.719539875133478,0.7851547435815589,1456,66,482,727,159.40518785531356,90.61554958508958,0.0012486380194699984,False
0.33,0.7014233837109018,1.2,1133.0,69.44574,0.3,68900.0,0.33,276.0,2700.0,16.005260394600352,2.565601688314339,6927.124558448715,11.471196253275249,3.3003139505515646,4.5340641413251035,0.7347122622372257,1437,66,478,714,153.0489077000225,86.61108736112828,0.0012142829165566194,False
0.34,0.7771444469724386,1.2,1134.0,69.44574,0.3,68900.0,0.33,276.0,2700.0,19.146399926342607,3.172569882373779,8565.938682409203,13.44903449245191,4.242897831735642,5.697365433890697,1.0703279493618632,1894,78,626,949,162.8107434639853,91.96287208017817,0.0013717013302769845,False
0.3500000000000001,0.6943870940167463,1.2,1135.0,69.44574,0.3,68900.0,0.33,276.0,2700.0,15.381745560684983,2.6020082831047646,7025.4223643828645,11.29472544535551,3.220220870046818,4.087020115329473,0.6182125869420534,1497,66,496,747,145.652732873114,82.6361365606134,0.0011423139303350907,False
0.36000000000000004,0.7722939822899776,1.2,1136.0,69.44574,0.3,68900.0,0.33,276.0,2700.0,18.562754922527265,3.2435797881576507,8757.665428025657,13.31802033749422,4.177981743688484,5.244734585033045,0.9344019555308334,1793,76,598,890,153.24438868605463,86.65492164174329,0.00129293194103916,False
0.37,0.8316753264784338,1.2,1137.0,69.44574,0.3,68900.0,0.33,276.0,2700.0,21.122037617839993,3.8014895641788775,10264.021823282968,14.96263982039906,5.017215011575671,6.159397797440933,1.2157254473967938,2024,80,672,1010,153.86096280694576,87.12483291055712,0.0014046172695081356,False
0.38,1.0751724360765622,1.2,1138.0,69.44574,0.3,68900.0,0.33,276.0,2700.0,33.947640632330106,6.3351280720842045,17104.845794627352,22.633280424156226,9.56422687406541,11.31436020817388,3.2290988019812055,3066,104,1020,1530,178.35888353350808,101.70933520923637,0.0021920522679053527,False
0.39,1.0349052992259715,1.2,1139.0,69.44574,0.3,68900.0,0.33,276.0,2700.0,31.350809895567085,5.989170506556718,16170.760367703138,21.261949205368307,8.680596009589596,10.088860690198779,2.691425503032878,2861,100,952,1427,171.40081714334912,96.2653807202033,0.0019828643444935916,False
0.4,0.7570070417445252,1.2,1140.0,69.44574,0.3,68900.0,0.33,276.0,2700.0,17.202382943381092,3.3064353021230555,8927.37531573225,12.908978713961464,3.977523938141334,4.293404229419629,0.6710886360182786,1538,68,514,761,133.80092009967643,76.2476885623768,0.0011357815398571843,False
0.4100000000000001,0.9323505411636273,1.2,1141.0,69.44574,0.3,68900.0,0.33,276.0,2700.0,25.32058671523603,5.0463724717713445,13625.20567378263,17.9534210945791,6.67199365398205,7.36716562065693,1.6256211822107058,2198,86,734,1091,153.10073365512784,86.33187855871394,0.0015149639319683489,False
0.42000000000000004,1.0512999507886118,1.2,1142.0,69.44574,0.3,68900.0,0.33,276.0,2700.0,31.58345077462113,6.477355118324117,17488.858819475117,21.815364616089482,9.033705555544477,9.768086158531649,2.5563504372203605,3073,102,1026,1528,165.88600665910158,93.40204047378343,0.0018632871392646386,False
0.43,0.7852251300835777,1.2,1143.0,69.44574,0.3,68900.0,0.33,276.0,2700.0,17.932632519418473,3.6889969202689965,9960.291684726291,13.668612005809676,4.352461280668602,4.264020513608797,0.6634643603996055,1668,72,558,823,133.2061644156844,75.72610122039313,0.0011301252384337808,False
0.44,0.8895366592155798,1.2,1144.0,69.44574,0.3,68900.0,0.33,276.0,2700.0,22.579288235972022,4.789034459511582,12930.39304068127,16.650409190906686,5.9313958677554615,5.928879045065337,1.1423614082438798,2120,82,694,1063,139.22888392696888,78.45299930482125,0.0013238844511689984,False
0.45,0.9981380579681871,1.2,1145.0,69.44574,0.3,68900.0,0.33,276.0,2700.0,27.953898756824035,6.098775466579827,16466.693759765534,20.04540212897287,7.92132143132191,7.908496627851164,1.8225459647420825,2575,92,864,1273,148.63550682913908,83.70636460354183,0.0015445464515406707,False
0.46,0.970705485004064,1.2,1146.0,69.44574,0.3,68900.0,0.33,276.0,2700.0,26.28804072805015,5.842389325764925,15774.451179565298,19.159850143505498,7.3836141968190105,7.128190584544651,1.5412248710540855,2461,90,814,1224,141.13859010777065,80.11272618848581,0.0014449289849072166,False
0.4700000000000001,0.9470524789514594,1.2,1147.0,69.44574,0.3,68900.0,0.33,276.0,2700.0,24.868224660304396,5.626586412455712,15191.783313630422,18.411490800044103,6.939304334623913,6.456733860260293,1.3127179221682015,2166,84,718,1077,142.18005694660238,80.67058148485924,0.0013816931109498557,False
0.4800000000000001,1.14869534672616,1.2,1148.0,69.44574,0.3,68900.0,0.33,276.0,2700.0,35.90323777434012,8.385153722677765,22639.915051229968,25.242297456839964,11.323370401803503,10.660940317500156,2.9382166791257376,3681,108,1130,1906,159.77054875137972,90.44765961976763,0.0018777197740144826,False
0.49,1.146152669814504,1.2,1149.0,69.44574,0.3,68900.0,0.33,276.0,2700.0,35.50735424879065,8.452898301552253,22822.825414191084,25.14980063492019,11.259305024059202,10.357553613870458,2.8064067225069493,3243,104,1028,1653,154.1051021140054,88.10132434019494,0.0018167477219041724,False
0.5,0.9297021018876472,1.2,1150.0,69.44574,0.3,68900.0,0.33,276.0,2700.0,23.431662010139615,5.5961161147357545,15109.513509786537,17.871480857063233,6.624553654195703,5.560181153076382,1.028437539459948,2357,82,700,1237,132.09439575291566,75.73526994982456,0.0012800183344015234,False
0.01,0.3511131405554465,1.2,1151.0,72.46512,0.05,68900.0,0.33,276.0,2700.0,8.230650812003557,0.04115115966491566,111.10813109527227,4.196518377832052,0.6460696823554789,4.034132434171505,0.6049185226905632,26947,270,8926,13552,2457.6143271293463,1399.9770375166656,0.013370234937236667,True
0.02,0.38320695592527243,1.2,1152.0,72.46512,0.08,68900.0,0.33,276.0,2700.0,9.130916035611898,0.09129240519530031,246.48949402731083,4.734653379972381,0.7893181365546353,4.396262655639517,0.698025731359335,11751,182,3870,5940,1453.2885273277154,828.3466743745416,0.0077214638617881266,True
0.03,0.5707326392169382,1.2,1153.0,72.46512,0.1,68900.0,0.33,276.0,2700.0,16.147870429640573,0.24216150777684564,653.8360709974833,8.396538819556401,2.006724530246591,7.751331610084172,1.764563022469745,12550,200,4138,6337,1502.3322193755748,856.903525331814,0.01246109901790769,True
0.04,0.4032464482124018,1.2,1154.0,72.46512,0.1,68900.0,0.33,276.0,2700.0,9.480716128987682,0.18948028129320038,511.596759491641,5.083795188061105,0.8876796441180953,4.396920940926577,0.6981993628248949,7914,148,2600,4008,759.1464129580953,433.8951817059328,0.004177731090747704,True
0.05,0.7284540405892341,1.2,1155.0,72.46512,0.2,68900.0,0.33,276.0,2700.0,23.060421341612347,0.5762487341525082,1555.8715822117722,12.160699439232198,3.619665417915557,10.899721902380149,3.043416683763049,4913,126,1624,2471,1025.7566534051389,585.3185977686079,0.009789442442008635,True
0.06000000000000001,0.5945890007428901,1.2,1156.0,72.46512,0.2,68900.0,0.33,276.0,2700.0,16.547752207116154,0.49598017687136753,1339.1464775526924,8.925760852304094,2.213319615784177,7.62199135481206,1.7173394389128092,3539,104,1166,1784,703.097304823336,405.9331415026843,0.0055128714978403045,True
0.06999999999999999,0.7446068611256622,1.2,1157.0,72.46512,0.2,68900.0,0.33,276.0,2700.0,23.386795180963443,0.8178194538136017,2208.1125252967245,12.581494169901069,3.8194846976297407,10.805301011062374,3.001665243816139,5076,128,1668,2568,781.6597859527026,446.5307004418239,0.00726915135325065,True
0.08,0.5888133979821539,1.2,1158.0,72.46512,0.2,68900.0,0.33,276.0,2700.0,15.886008246166702,0.6343679995542434,1712.7935987964572,8.796324422401536,2.162142156971404,7.089683823765165,1.5277741574171606,3346,100,1096,1696,528.8788434271332,305.2843724585665,0.004021419451481777,True
0.09,0.46662808992318955,1.2,1159.0,72.46512,0.2,68900.0,0.33,276.0,2700.0,10.876749204486062,0.48792690017221096,1317.4026304649697,6.25451674437663,1.2464667840219747,4.622232460109432,0.7585398838497638,2311,80,758,1168,387.4756604217328,223.49693219203587,0.002352180154100021,True
0.09999999999999999,0.6971102287366229,1.2,1160.0,72.46512,0.3,68900.0,0.33,276.0,2700.0,20.345401019938823,1.0151756558945457,2740.9742709152733,11.362874324664897,3.2510706760554657,8.982526695273926,2.2358950201609202,2052,80,672,1038,519.8696135666713,298.0156718653396,0.004485229597978876,True
0.11,0.6131013626003249,1.2,1161.0,72.46512,0.2,68900.0,0.33,276.0,2700.0,16.32027094808095,0.8948272622631658,2416.0336081105474,9.346289646223926,2.3824357336118682,6.973981301857023,1.4876084713487026,3498,102,1150,1767,403.7268256964208,232.63890639177845,0.0031183570678894362,True
0.12,0.6270031327343903,1.2,1162.0,72.46512,0.3,68900.0,0.33,276.0,2700.0,16.720672804667053,0.9996212535430887,2698.9773845663394,9.667746325103623,2.5145944854125415,7.05292647956343,1.5149732318694529,1701,72,554,864,393.8295889668759,225.88604036656614,0.0029982295600904213,True
0.13,0.5368295207663838,1.2,1163.0,72.46512,0.3,68900.0,0.33,276.0,2700.0,12.816336061444858,0.8284604579539576,2236.8432364756854,7.6690504858993975,1.7344693580687138,5.14728557554546,0.9060089001147562,1794,70,588,906,316.1735098252371,182.2148322006536,0.002039417933516769,True
0.14,0.680360038723367,1.2,1164.0,72.46512,0.3,68900.0,0.33,276.0,2700.0,18.690098734163147,1.3025598912304537,3516.9117063222247,10.946638396555601,3.064236230244793,7.743460337607546,1.7616763390143395,1831,76,598,928,363.6106574386373,208.2364794193706,0.0029878417448385717,True
0.15000000000000002,0.833292801742991,1.2,1165.0,72.46512,0.3,68900.0,0.33,276.0,2700.0,26.027684320758393,1.9450077405863024,5251.520899583016,15.008677095160841,5.041453934591422,11.019007225597552,3.0964461940051193,2483,92,818,1250,400.506469486099,225.91109556252715,0.004167171656926194,True
0.16,0.8501723818624263,1.2,1166.0,72.46512,0.3,68900.0,0.33,276.0,2700.0,26.68265041037642,2.1260333904907083,5740.290154324913,15.493034448665771,5.2988719038383,11.18961596171065,3.172838513347592,2492,92,820,1256,380.0003797003191,216.03963609542723,0.00403909444310182,True
0.17,0.6418475498716387,1.2,1167.0,72.46512,0.3,68900.0,0.33,276.0,2700.0,16.371787418375256,1.3813121674238387,3729.5428520443643,10.01636256737537,2.660687196193174,6.355424850999885,1.2793750287693353,1579,70,510,808,288.64622227371535,165.55127969011005,0.0021604084732061665,True
0.18000000000000002,0.7763313172948847,1.2,1168.0,72.46512,0.3,68900.0,0.33,276.0,2700.0,22.392002413955364,2.0030657050188267,5408.277403550832,13.427030085679473,4.231970969999475,8.964972328275891,2.2289052649806482,2285,86,748,1157,314.3118786966851,177.8279800791468,0.0029442093633775435,True
0.19,0.6837715318434008,1.2,1169.0,72.46512,0.3,68900.0,0.33,276.0,2700.0,17.817601440275126,1.6783066808188227,4531.428038210822,11.030840887658385,3.1017241567759672,6.786760552616741,1.4234174759571445,1734,74,570,873,272.3433970738347,154.99531062003751,0.0021571563180856875,False
0.2,0.5532622147294062,1.2,1170.0,72.46512,0.3,68900.0,0.33,276.0,2700.0,12.24979770455826,1.2082246096366807,3262.2064460190377,8.018053284295673,1.8633507521595192,4.2317444202625865,0.6551261425228385,1508,64,500,752,214.0614067696534,122.85850952192425,0.001427872240532326,False
0.21000000000000002,0.8166779540008604,1.2,1171.0,72.46512,0.3,68900.0,0.33,276.0,2700.0,23.738308449923714,2.473126194198728,6677.440724336566,14.538909448555657,4.79599921491922,9.199399001368057,2.3228730207204924,2441,88,800,1235,278.58192536713506,157.00223941350112,0.0027290336929655153,True
0.22,0.6558799875275312,1.2,1172.0,72.46512,0.3,68900.0,0.33,276.0,2700.0,16.024961359357125,1.7404446304790016,4699.200502293304,10.351001791757467,2.80358329442546,5.673959567599658,1.0631386639464586,1606,70,520,820,227.09945443825487,129.87419561006217,0.0016794272376319255,False
0.23,0.9204345703953741,1.2,1173.0,72.46512,0.3,68900.0,0.33,276.0,2700.0,28.78228139641169,3.284479855376527,8868.095609516624,17.586139813553878,6.460253013151133,11.196141582857813,3.1757731577746062,2613,96,862,1314,279.5038492294615,157.21897525169837,0.0031100331405829102,True
0.24000000000000005,0.8599452887433656,1.2,1174.0,72.46512,0.3,68900.0,0.33,276.0,2700.0,25.280677660102032,3.004728401316759,8112.766683555249,15.776739930132427,5.4516682455102075,9.503937729969605,2.4469398441934485,2396,90,792,1202,253.07206244543923,142.0380823449195,0.002585623910819205,False
0.25,0.8425745850152335,1.2,1175.0,72.46512,0.3,68900.0,0.33,276.0,2700.0,24.154651244831282,2.9866064821290133,8063.837501748336,15.274130463179182,5.181991488146019,8.8805207816521,2.1953850060170055,2439,88,800,1233,279.04050405607785,157.63269624468234,0.002373232122600737,True
0.26,0.7279290255187578,1.2,1176.0,72.46512,0.3,68900.0,0.33,276.0,2700.0,18.426736125832715,2.3586646080385902,6368.394441704194,12.147132382131725,3.613284429200262,6.27960374370099,1.254619821161672,1759,74,578,886,208.94657980549957,118.84050893887216,0.0016934230628419468,False
0.27,0.728513770969732,1.2,1177.0,72.46512,0.3,68900.0,0.33,276.0,2700.0,18.261245168942573,2.424044119006841,6544.919121318471,12.162243387131893,3.620391827230036,6.09900178181068,1.196347708223195,1760,74,578,887,200.28867849663268,113.8896949461639,0.001619784329693617,False
0.28,0.7035159480274676,1.2,1178.0,72.46512,0.3,68900.0,0.33,276.0,2700.0,16.97112962700579,2.3299819864930296,6290.95136353118,11.523918015113331,3.3243733091476395,5.44721161189246,0.9943913226546099,1582,70,522,793,188.43163657995942,107.28666747190542,0.0014770866373338466,False
0.29000000000000004,0.8066857776790683,1.2,1179.0,72.46512,0.3,68900.0,0.33,276.0,2700.0,21.510221884745917,3.0679019711358886,8283.3353220669,14.25973191246624,4.652120753248713,7.250489972279677,1.5842187821128246,1922,80,634,965,201.43280724892333,113.78232790499952,0.0018248737780375388,False
0.3,0.7809290991268195,1.2,1180.0,72.46512,0.3,68900.0,0.33,276.0,2700.0,20.084302053746132,2.9560966402971833,7981.460928802395,13.55167104946872,4.293991857398531,6.5326310042774125,1.3378952171013476,1974,80,650,993,194.10102048728206,109.85352414718876,0.0016751760701672527,False
0.31,0.9933813403511809,1.2,1181.0,72.46512,0.3,68900.0,0.33,276.0,2700.0,30.911690260216194,4.728917865838115,12768.078237762911,19.890494895338502,7.826339764272571,11.021195364877691,3.0974218984344564,2847,100,942,1428,215.63241698184018,121.01201541877266,0.002520664294089953,False
0.32,0.988297550199138,1.2,1182.0,72.46512,0.3,68900.0,0.33,276.0,2700.0,30.37682244245481,4.791662452077551,12937.488620609387,19.72556487853169,7.725640172184909,10.65125756392312,2.9339777201073582,2793,98,924,1401,208.20326310110593,117.52757632369263,0.002402265967948519,False
0.33,0.7889907950304813,1.2,1183.0,72.46512,0.3,68900.0,0.33,276.0,2700.0,19.879595919162888,3.2048670498671714,8653.141034641363,13.771497515202547,4.404126298113319,6.108098403960341,1.1992592482461473,1870,78,618,937,177.44735224098952,100.8848389624383,0.0015034932093055213,False
0.34,1.0347028756070205,1.2,1184.0,72.46512,0.3,68900.0,0.33,276.0,2700.0,32.55777705124208,5.452503993606694,14721.760782738074,21.255158442386854,8.676292776208264,11.302618608855223,3.22378878260157,2978,102,990,1487,202.31648203572962,114.68085268988236,0.002434707321881832,False
0.3500000000000001,0.8520474044202538,1.2,1185.0,72.46512,0.3,68900.0,0.33,276.0,2700.0,22.50000189984532,3.8477031424578247,10388.798484636127,15.547279877032562,5.327972534813344,6.9527220228127575,1.480269392355519,2057,82,686,1022,174.48014550005735,98.39083143166107,0.001611090058801804,False
0.36000000000000004,0.7166692089785514,1.2,1186.0,72.46512,0.3,68900.0,0.33,276.0,2700.0,16.14565913625107,2.8085025466279356,7582.9568758954265,11.857831898318526,3.4781416721459304,4.287827237932543,0.6696391255179948,1447,66,480,721,151.56082737245268,85.86163249599736,0.0012103916887536861,False
0.37,0.7299417586414865,1.2,1187.0,72.46512,0.3,68900.0,0.33,276.0,2700.0,16.541153236218474,2.954025953578896,7975.870074663019,12.19918159416505,3.63778572840124,4.341971642053423,0.6837597748223438,1559,68,518,776,148.64780071105898,83.79269055005429,0.0012090739886382884,False
0.38,0.7477701992338541,1.2,1188.0,72.46512,0.3,68900.0,0.33,276.0,2700.0,17.137255091096275,3.141154819249846,8481.118011974584,12.664669671247843,3.8594157074146875,4.472585419848432,0.7182608881648416,1546,68,516,766,148.33929830017937,84.54126195260179,0.0012320680051545567,False
0.39,1.0215173540086835,1.2,1189.0,72.46512,0.3,68900.0,0.33,276.0,2700.0,30.58821360465057,5.840464229828004,15769.25342053561,20.815038286177632,8.398938833611279,9.773175318472937,2.5584746037832753,2959,100,982,1480,179.889131284385,101.35989133097219,0.0020116983463384862,False
0.4,0.7208779084442738,1.2,1190.0,72.46512,0.3,68900.0,0.33,276.0,2700.0,15.678822874175962,3.001723288282028,8104.652878361476,11.965593847748277,3.528274335614755,3.713229026427685,0.5265510473327266,1486,66,498,733,135.341953602931,76.25252576388725,0.0011049823396309282,False
0.4100000000000001,0.846939104079302,1.2,1191.0,72.46512,0.3,68900.0,0.33,276.0,2700.0,21.093263193443505,4.179771149803878,11285.382104470471,15.399701506709109,5.2489295762186465,5.693561686734396,1.0691584264147682,2064,80,680,1034,151.68977352007576,85.69824615518044,0.001371176704768572,False
0.42000000000000004,0.7343767067924283,1.2,1192.0,72.46512,0.3,68900.0,0.33,276.0,2700.0,15.92654157995039,3.189404187443501,8611.391306097452,12.31422854380262,3.6921433971895854,3.6123130361477696,0.5027392097460845,1481,66,498,728,130.14342349512978,73.5355765802776,0.001095090663038563,False
0.43,0.8127246326480739,1.2,1193.0,72.46512,0.3,68900.0,0.33,276.0,2700.0,19.154529573688865,3.951704786937129,10669.602924730249,14.42815517754734,4.738741286765448,4.726374396141525,0.7870364998283188,1921,76,640,951,140.68726582045406,79.67546081697785,0.001240515699897829,False
0.44,1.102609370671446,1.2,1194.0,72.46512,0.3,68900.0,0.33,276.0,2700.0,34.10424828128418,7.324525669480258,19776.219307596697,23.591011503945527,10.198310053333934,10.513236777338651,2.8737843838536756,3097,104,1028,1545,165.42269900544815,93.65387841067312,0.0020073654102890684,False
0.45,0.7630481136933953,1.2,1195.0,72.46512,0.3,68900.0,0.33,276.0,2700.0,16.661741771534864,3.5580401448894614,9606.708391201546,13.069921320968351,4.055993678530042,3.5918204505665123,0.4979535336405805,1514,66,494,757,127.0277779647251,72.16405555929276,0.00108384424391406,False
0.46,1.1497380442671559,1.2,1196.0,72.46512,0.3,68900.0,0.33,276.0,2700.0,36.45908492568933,8.181729491222002,22090.66962629941,25.28027540852423,11.349710280674959,11.178809517165103,3.1679807894529564,3525,110,1154,1768,162.52671615987168,91.88155600395788,0.0020625567136806204,False
0.4700000000000001,0.8136798838840502,1.2,1197.0,72.46512,0.3,68900.0,0.33,276.0,2700.0,18.53045400963437,4.137210309547829,11170.467835779138,14.454881028783356,4.752536562957722,4.075572980851012,0.6153262534098936,2026,74,626,1043,129.60422346663708,72.51069201504049,0.0011566573499693675,False
0.4800000000000001,1.1302594238540782,1.2,1198.0,72.46512,0.3,68900.0,0.33,276.0,2700.0,34.79169340720431,8.118383074564749,21919.634301324822,24.575322406346388,10.864166626678719,10.216371000857926,2.74578355211397,3197,104,1030,1618,158.6425378966997,91.55532852140999,0.0018921648854684945,False
0.49,1.1118927366740987,1.2,1199.0,72.46512,0.3,68900.0,0.33,276.0,2700.0,33.46835814289151,7.95334425560696,21474.029490138793,23.91934630360852,10.418836397938126,9.54901183928299,2.4654921423311658,3408,104,1052,1764,155.19257834701926,87.06115056259816,0.0017902102520419214,False
0.5,0.8286194072336024,1.2,1200.0,72.46512,0.08,68900.0,0.33,276.0,2700.0,18.71062370554641,4.415856538587455,11922.81265418613,14.875840402906213,4.971623078370344,3.834783302640197,0.5557665397828888,63751,262,7676,42419,164.30429388238974,94.05047968255761,0.0011575006993913809,False
0.01,0.31274387631015327,1.2,1201.0,75.4845,0.05,68900.0,0.33,276.0,2700.0,7.021525408260289,0.03510553264619872,94.78493814473654,3.587134052013351,0.4968614805331879,3.4343913562469384,0.4617559478869892,23300,246,7718,11717,2357.7867397486652,1342.3286027251356,0.01148539104305117,True
0.02,0.4691487252983406,1.2,1202.0,75.4845,0.1,68900.0,0.33,276.0,2700.0,12.224735912631912,0.12223060396550084,330.0226307068523,6.303162840986304,1.2622934161763064,5.921573071645608,1.1400628122108056,10386,174,3434,5229,1697.6846756634607,966.552821208125,0.011462584495173855,True
0.03,0.7155554014329343,1.2,1203.0,75.4845,0.1,68900.0,0.33,276.0,2700.0,22.904374658609722,0.3435090712113818,927.4744922707308,11.829387829143016,3.464950173006299,11.074986829466706,3.1214411017949173,18107,248,5982,9128,2071.148376379179,1179.8458470061678,0.016549733647663333,True
0.04,0.43340179596112705,1.2,1204.0,75.4845,0.08,68900.0,0.33,276.0,2700.0,10.539217050605465,0.21065029972555607,568.7558092590014,5.6282033799026125,1.0491342333731035,4.911013670702853,0.8384839336475475,13192,196,4332,6688,897.3859330766695,512.8339254131668,0.004922846823180668,True
0.05,0.4039519257426768,1.2,1205.0,75.4845,0.1,68900.0,0.33,276.0,2700.0,9.33934467257178,0.2332218174264952,629.698907051537,5.096270412696656,0.8912705471517515,4.243074259875124,0.6580487297252563,7981,148,2616,4051,635.0691947653133,364.2136503635636,0.003476402863440312,True
0.06000000000000001,0.5600143925447069,1.2,1206.0,75.4845,0.2,68900.0,0.33,276.0,2700.0,15.07521865620028,0.4518041703438929,1219.8712599285109,8.163425436418281,1.917980218229572,6.911793219781998,1.4661760478856791,3258,98,1072,1644,691.5395277804777,397.53106900893624,0.0051513754872461,True
0.06999999999999999,0.7349952704656256,1.2,1207.0,75.4845,0.2,68900.0,0.33,276.0,2700.0,22.90134439437392,0.800828676282966,2162.2374259640083,12.330313979876378,3.6997655060677466,10.57103041449754,2.8989368297847804,4952,126,1628,2504,772.3361840042091,440.89685424623326,0.00736922228503117,True
0.08,0.4780522658850834,1.2,1208.0,75.4845,0.2,68900.0,0.33,276.0,2700.0,11.468601309219233,0.4576717220763449,1235.7136496061312,6.476271719079978,1.319183045070453,4.992329590139255,0.861511322994108,2652,86,868,1344,455.3734322201045,262.868933636599,0.0028684238695318377,True
0.09,0.5275621757690089,1.2,1209.0,75.4845,0.2,68900.0,0.33,276.0,2700.0,13.180327264897388,0.5915879128907369,1597.2873648049895,7.475220602103032,1.6642974325733715,5.705106662794356,1.0727095196826346,2883,92,948,1455,450.25339617483485,259.69274603140224,0.003025859539612505,True
0.09999999999999999,0.6432901634818124,1.2,1210.0,75.4845,0.2,68900.0,0.33,276.0,2700.0,17.855991208847154,0.8907051653399642,2404.9039464179036,10.050537130470971,2.675161581214281,7.805454078376183,1.7844564158743166,4058,112,1336,2048,504.1602363189057,289.52169453224997,0.003938741031761418,True
0.11,0.43382011780465796,1.2,1211.0,75.4845,0.1,68900.0,0.33,276.0,2700.0,9.39516536713501,0.5139464553111402,1387.6554293400786,5.635916253457296,1.0514902468651763,3.759249113677715,0.5375437915540361,7932,148,2616,4002,300.2918681705533,173.3428341955995,0.0018315135299640706,True
0.12,0.7670361369253782,1.2,1212.0,75.4845,0.3,68900.0,0.33,276.0,2700.0,23.316191455968216,1.3953523726211543,3767.4514060771166,13.176670446222927,4.108329554552864,10.13952100974529,2.71297718193171,2230,88,732,1126,489.1552156186516,280.01068977777993,0.004688153683242477,True
0.13,0.6645484496340333,1.2,1213.0,75.4845,0.3,68900.0,0.33,276.0,2700.0,18.181336983578266,1.17718551789263,3178.400898310101,10.560196188266685,2.894215893850009,7.621140795311581,1.717030375957379,1746,74,574,879,401.12048564562565,229.91135567168345,0.003220825477797082,True
0.14,0.7569311694303675,1.2,1214.0,75.4845,0.3,68900.0,0.33,276.0,2700.0,22.341326406178332,1.5581458282715164,4206.993736333095,12.906963201518648,3.9765445805146062,9.434363204659684,2.41839875224309,2064,82,672,1050,418.6849681516902,238.1579570540413,0.0038625826141197293,True
0.15000000000000002,0.7600100210261866,1.2,1215.0,75.4845,0.3,68900.0,0.33,276.0,2700.0,22.264334976024248,1.6627565397312447,4489.4426572743605,12.988867635473044,4.016409229437529,9.275467340551204,2.3536526897062844,2161,82,702,1102,390.5813265913776,222.29118989991028,0.003598554541006708,True
0.16,0.4940159578690609,1.2,1216.0,75.4845,0.1,68900.0,0.33,276.0,2700.0,10.712046507925944,0.8483850782946732,2290.6397113956177,6.791637518146858,1.4250769328641937,3.9204089897790864,0.5766918545695204,8805,158,2888,4441,243.26146294262244,140.22522762981475,0.001554813994859996,False
0.17,0.5370467608313483,1.2,1217.0,75.4845,0.3,68900.0,0.33,276.0,2700.0,12.134070638274979,1.0211062411153164,2756.9868510113542,7.67362003284645,1.7361358794173518,4.460450605428529,0.7150296383020354,1717,68,562,868,253.13293524756665,145.88287167102473,0.0016507989150196052,False
0.18000000000000002,0.8307664081386097,1.2,1218.0,75.4845,0.3,68900.0,0.33,276.0,2700.0,25.165280998695714,2.2526607776454575,6082.184099642735,14.93679865272399,5.003626939158992,10.228482345971724,2.7509661615135346,2402,90,788,1214,346.593325839761,195.74967529831972,0.0035140550778125263,True
0.19,0.6170230207242193,1.2,1219.0,75.4845,0.3,68900.0,0.33,276.0,2700.0,14.94761859220838,1.405658310252482,3795.2774376817015,9.436480023175752,2.4192654079247427,5.511138569032628,1.0136070976722606,1431,66,470,720,262.6302880912192,150.08926154595795,0.0018296504182220166,False
0.2,0.692397875708082,1.2,1220.0,75.4845,0.3,68900.0,0.33,276.0,2700.0,18.004441575017026,1.7836889966825575,4815.960291042906,11.245061275831432,3.1978026083228768,6.759380299185594,1.4141136116403192,1747,74,574,880,274.60078484585375,156.3731225312338,0.002171677957022173,False
0.21000000000000002,0.8762064706218144,1.2,1221.0,75.4845,0.3,68900.0,0.33,276.0,2700.0,26.854542672547524,2.800330787574227,7560.893126450413,16.254118614283772,5.712089048119685,10.600424058263751,2.911758260545458,2466,92,810,1245,943.1425981649851,488.4155147590219,0.003540243371365873,True
0.22,0.7589730178137605,1.2,1222.0,75.4845,0.3,68900.0,0.33,276.0,2700.0,20.675444257199814,2.251997749241678,6080.39392295253,12.961254390472314,4.002954051821357,7.7141898667275,1.750956302579679,1931,78,634,974,265.38166986886245,150.30715490666122,0.0023340670419034672,False
0.23,0.7216113937477475,1.2,1223.0,75.4845,0.3,68900.0,0.33,276.0,2700.0,18.728145159600256,2.1282541881432095,5746.286307986666,11.984419978518156,3.5370578263680534,6.7437251810821,1.408803638224844,1855,76,610,934,244.7595974955989,138.93140124889635,0.002005123695732011,False
0.24000000000000005,0.8779631765435361,1.2,1224.0,75.4845,0.3,68900.0,0.33,276.0,2700.0,26.230692246095543,3.118730151635983,8420.571409417154,16.30608789251756,5.7406883905569925,9.924604353577983,2.6219582389210094,2469,92,812,1245,267.2161339481275,150.0250259447209,0.0028127828772665695,False
0.25,0.6499802715718749,1.2,1225.0,75.4845,0.3,68900.0,0.33,276.0,2700.0,15.235906261052222,1.8717633591566325,5053.761069722907,10.209705091052824,2.7429325592800646,5.026201169999398,0.8711692001234321,1507,68,496,757,207.06272536727852,118.29825411327265,0.0015281281477547914,False
0.26,0.7018807522708672,1.2,1226.0,75.4845,0.3,68900.0,0.33,276.0,2700.0,17.26810447310326,2.208042493183761,5961.714731596154,11.482710169337748,3.3055631479142247,5.7853943037655124,1.097520654730464,1677,72,550,846,211.30054209862314,120.39899508334082,0.0016437081754730673,False
0.27,0.6496174215078891,1.2,1227.0,75.4845,0.3,68900.0,0.33,276.0,2700.0,14.874223368166307,1.9667961759020451,5310.349674935522,10.201043479530231,2.7392295386677037,4.673179888636076,0.7724333627656585,1366,64,454,679,194.158866458306,110.27588881425223,0.0014199873017743034,False
0.28,0.7695230475078012,1.2,1228.0,75.4845,0.3,68900.0,0.33,276.0,2700.0,19.94567257367461,2.7464179990267104,7415.328597372118,13.243440997517357,4.141181749708391,6.702231576157253,1.3947637506816806,1971,80,650,990,210.67445020786218,119.97043057464693,0.0018042360068128561,False
0.29000000000000004,0.9630176501772125,1.2,1229.0,75.4845,0.3,68900.0,0.33,276.0,2700.0,29.681477512787737,4.2527340372019555,11482.38190044528,18.915071758595197,7.237258293140321,10.76640575419254,2.984524255938365,2946,100,972,1482,237.09969640231827,133.4916334937468,0.002675332767242423,False
0.3,0.7399553599168667,1.2,1230.0,75.4845,0.3,68900.0,0.33,276.0,2700.0,18.209187313181335,2.6748294292125836,7222.0394588739755,12.459646321475892,3.761245460781296,5.749540991705443,1.0864160315687124,1784,74,586,899,189.57145262057864,107.90407380844626,0.0015537780341364812,False
0.31,0.8487719778810445,1.2,1231.0,75.4845,0.3,68900.0,0.33,276.0,2700.0,23.162528944877952,3.527797861960667,9525.0542272938,15.452577636306525,5.277203730405269,7.709951308571426,1.7494058684446019,2235,84,740,1119,204.9920969695243,116.14422246540519,0.0019357947679754174,False
0.32,0.7695037310763476,1.2,1232.0,75.4845,0.3,68900.0,0.33,276.0,2700.0,19.17118053697802,2.9987597472012633,8096.651317443411,13.242921775640319,4.140925938702924,5.928258761337702,1.1421661915016603,1873,78,620,937,186.11343099783826,105.5442095035143,0.0015533090556471498,False
0.33,0.892624207588947,1.2,1233.0,75.4845,0.3,68900.0,0.33,276.0,2700.0,24.962756235584116,4.043588502076674,10917.68895560702,16.74283531059251,5.982947434981198,8.219920924991605,1.9393589329045238,2293,86,758,1150,197.95556540890786,111.37158080599991,0.001978559035308272,False
0.34,0.9287564923638836,1.2,1234.0,75.4845,0.3,68900.0,0.33,276.0,2700.0,26.637320576608484,4.446026392918983,12004.271260881254,17.842267289261432,6.60766802577837,8.795053287347052,2.1616416328593866,2555,92,842,1286,198.07777777471657,111.59593318698818,0.002060125176113335,False
0.3500000000000001,0.7784614062254045,1.2,1235.0,75.4845,0.3,68900.0,0.33,276.0,2700.0,19.02215533706103,3.2390799939705737,8745.515983720548,13.484708471770004,4.260633147958683,5.537446865291026,1.0215531539881093,1824,76,606,909,170.7052113053922,96.2187043969188,0.0014582132697121128,False
0.36000000000000004,0.9811180510816857,1.2,1236.0,75.4845,0.2,68900.0,0.33,276.0,2700.0,29.024821723598457,5.126751812350467,13842.229893346263,19.49375156901843,7.584853423344002,9.531070154580028,2.458101610993535,7228,140,1974,3937,202.51307670859725,114.26969478391263,0.0021501686654909285,False
0.37,0.6870584632919624,1.2,1237.0,75.4845,0.3,68900.0,0.33,276.0,2700.0,14.766057958979792,2.6256333272897394,7089.209983682296,11.112245624010667,3.138115486112068,3.6538123349691247,0.5124821588223285,1394,64,466,689,145.7251802415652,82.80983102356612,0.0011616466949748532,False
0.38,0.7972479408316104,1.2,1238.0,75.4845,0.3,68900.0,0.33,276.0,2700.0,19.33207505089112,3.558170611610857,9607.060651349315,13.998346793615259,4.518774945685589,5.333728257275862,0.9606043340747319,1797,76,598,894,160.44478167079353,90.22582010305958,0.0014006864986157894,False
0.39,0.9630516838869057,1.2,1239.0,75.4845,0.3,68900.0,0.33,276.0,2700.0,27.36350824680349,5.2116466850478185,14071.44604962911,18.916152108456913,7.237902061585448,8.447356138346578,2.0262553765376294,2487,92,836,1227,179.2518860287012,100.80970230227874,0.001870726975596653,False
0.4,0.8635857458234044,1.2,1240.0,75.4845,0.3,68900.0,0.33,276.0,2700.0,22.07905007504055,4.281768728454945,11560.775566828352,15.88303527781251,5.509296170866625,6.196014797228038,1.22752744241168,2075,82,692,1031,161.48937685372374,90.70529959815394,0.001498911890994217,False
0.4100000000000001,0.8068889395646857,1.2,1241.0,75.4845,0.3,68900.0,0.33,276.0,2700.0,19.237320423460755,3.799302881957414,10258.117781285018,14.265383185430478,4.655018361316522,4.971937238030277,0.8557154793591075,1873,76,602,948,159.43582572285408,90.41920146252579,0.0013339297313259195,False
0.42000000000000004,1.079054936804805,1.2,1242.0,75.4845,0.3,68900.0,0.33,276.0,2700.0,33.19505934553522,6.8157929182162915,18402.640879183986,22.76765626663049,9.652361336375295,10.427403078904732,2.836568418159003,2975,102,994,1478,179.6995771657374,101.6581145231214,0.0021232985623788284,False
0.43,0.8669083646631379,1.2,1243.0,75.4845,0.3,68900.0,0.33,276.0,2700.0,21.673333368420234,4.493247602804375,12131.768527571812,15.980341003754306,5.562231021207374,5.692992364665928,1.0689834184029996,2154,82,700,1086,150.52273455331914,85.33428031913007,0.0014160273951082868,False
0.44,0.7792972711027251,1.2,1244.0,75.4845,0.1,68900.0,0.33,276.0,2700.0,17.51228800282416,3.6742944082190543,9920.594902191446,13.507373111109178,4.27191401321602,4.004914891714982,0.5976196049969658,29133,204,4644,18509,163.3134450336224,92.72826046722383,0.0012309221317069706,False
0.45,0.8164491325170091,1.2,1245.0,75.4845,0.3,68900.0,0.33,276.0,2700.0,18.982924216917787,4.080306195100923,11016.826726772493,14.532488190834867,4.792673134771577,4.4504360260829205,0.7123669396706536,1849,74,608,919,140.76435292259723,79.51935694604839,0.0012558841923057276,False
0.46,0.7636893000000029,1.2,1246.0,75.4845,0.2,68900.0,0.33,276.0,2700.0,16.535781701850233,3.5993697497390116,9718.29832429533,13.08705726259694,4.064379426222666,3.4487244392532936,0.4650096764836542,4546,98,1154,2531,147.58532428988948,83.98246322366619,0.001145075855510232,False
0.4700000000000001,0.9805027203246328,1.2,1247.0,75.4845,0.3,68900.0,0.33,276.0,2700.0,26.598003622046452,6.033084468465151,16289.328064855907,19.473943902125647,7.5728644130545275,7.124059719920805,1.5397799445893767,2485,90,814,1242,151.50624098602745,85.97519455824785,0.0015768161727192551,False
0.4800000000000001,1.138276212130017,1.2,1248.0,75.4845,0.3,68900.0,0.33,276.0,2700.0,35.27294479936591,8.233883408683951,22231.485203446668,24.864304230081164,11.062339057175082,10.408640569284746,2.828455648491131,3190,104,1024,1616,169.5552076480525,96.5954953768274,0.0020023097907855545,False
0.49,0.9484653708151791,1.2,1249.0,75.4845,0.3,68900.0,0.33,276.0,2700.0,24.55387766024077,5.769296537357532,15577.100650865335,18.455798526806444,6.965349075280265,6.098079133434325,1.1960525379227338,2279,84,716,1165,154.56068794900526,87.77247672486912,0.0014498158454101654,False
0.5,0.8354999636987932,1.2,1250.0,75.4845,0.3,68900.0,0.33,276.0,2700.0,19.01568800847616,4.492122614319888,12128.731058663696,15.071604365658393,5.074649938501867,3.944083642817768,0.5825273241819797,2092,74,622,1093,135.5122160955188,77.91014065233124,0.0011997259432953344,False
0.01,0.35123366497561964,1.2,1251.0,78.50388,0.05,68900.0,0.33,276.0,2700.0,8.234565471425963,0.04117073296202797,111.16097899747552,4.1984908530885745,0.6465755841617649,4.036074618337389,0.6054048511997369,26849,270,8892,13505,2673.6324187906216,1523.0362063328807,0.014506127839300054,True
0.02,0.5216242942637809,1.2,1252.0,78.50388,0.1,68900.0,0.33,276.0,2700.0,14.296357599417773,0.142946820833358,385.9564162500666,7.352162233335613,1.6202762499020662,6.94419536608216,1.4773294290687082,11419,188,3790,5728,2053.853519954254,1171.364059041197,0.014435086780321066,True
0.03,0.38335813565692006,1.2,1253.0,78.50388,0.1,68900.0,0.33,276.0,2700.0,8.970568945325327,0.13450198551211495,363.1553608827104,4.737249553736273,0.790034116419254,4.233319391589054,0.6555321309071391,7852,146,2580,3976,1005.9080730804964,574.1417925262961,0.005554189142845246,True
0.04,0.4061989584327763,1.2,1254.0,78.50388,0.1,68900.0,0.33,276.0,2700.0,9.582335380788871,0.19151266632922415,517.0841990889052,5.136088907468576,0.9027667463341718,4.446246473320295,0.7112540800049476,7912,148,2590,4021,834.2032345611581,476.8884227890878,0.004587431394037409,True
0.05,0.39317604797643024,1.2,1255.0,78.50388,0.1,68900.0,0.33,276.0,2700.0,8.974505576825774,0.22410084003284592,605.0722680886839,4.90708018113837,0.8373757262213339,4.067425395687404,0.613274886188488,7540,144,2478,3817,641.8242415335759,367.5794684133958,0.003468074292620337,True
0.06000000000000001,0.3662856925896001,1.2,1256.0,78.50388,0.08,68900.0,0.33,276.0,2700.0,7.9359013665547025,0.23762465165452437,641.5865594672158,4.447698793059059,0.7116397844253392,3.488202573495643,0.47401513277081475,10432,168,3426,5287,500.4827560027147,287.4409293295073,0.0026621209355434106,True
0.06999999999999999,0.4958970651061703,1.2,1257.0,78.50388,0.2,68900.0,0.33,276.0,2700.0,12.319801927965267,0.43047468995866284,1162.2816628883897,6.829220980347795,1.4378880666716032,5.490580947617472,1.0074133767129403,2732,88,890,1391,556.4965360140355,320.1716362781247,0.003660513168136402,True
0.08,0.7502760627195554,1.2,1258.0,78.50388,0.3,68900.0,0.33,276.0,2700.0,23.430192108223636,0.9361353540365198,2527.5654558986034,12.730736328267776,3.8912343847583295,10.69945577995586,2.9550990307218097,2308,86,760,1162,734.3954450553769,421.0585429428212,0.007119569379737794,True
0.09,0.5532501707919848,1.2,1259.0,78.50388,0.2,68900.0,0.33,276.0,2700.0,14.20737119698192,0.6378048898345419,1722.073202553263,8.017795006067166,1.863254184782869,6.189576190914755,1.225449294948327,3139,96,1032,1585,483.41625115791624,278.6475591780513,0.0034269310856508335,True
0.09999999999999999,0.4036814436399326,1.2,1260.0,78.50388,0.1,68900.0,0.33,276.0,2700.0,8.540091137803689,0.4249101617877912,1147.2574368270361,5.091485897352717,0.8898927443187029,3.4486052404509717,0.46498258253091174,7321,140,2410,3700,318.9529023935752,184.00981634688458,0.0018875278551776747,True
0.11,0.7831326116441173,1.2,1261.0,78.50388,0.3,68900.0,0.33,276.0,2700.0,24.380811510605305,1.338156993202007,3613.023881645419,13.611594253551841,4.323919132543228,10.769217257053464,2.985762139341221,2442,90,798,1239,563.4016131648552,321.1054732556458,0.005556897513703128,True
0.12,0.6978826953721939,1.2,1262.0,78.50388,0.3,68900.0,0.33,276.0,2700.0,19.93589227877409,1.1925344219895107,3219.8429393716788,11.382239924527978,3.259855596029964,8.553652354246113,2.0673211740404533,2056,80,672,1042,470.1985911478443,268.8951417536592,0.004020043076759253,True
0.13,0.8207836054474114,1.2,1263.0,78.50388,0.3,68900.0,0.33,276.0,2700.0,25.85917852233972,1.676245217912121,4525.862088362726,14.654347110870006,4.855927737985055,11.204831411469716,3.1796825200729337,2494,92,822,1255,494.87788223580156,281.552408597562,0.005121368891722212,True
0.14,0.6045889057517242,1.2,1264.0,78.50388,0.3,68900.0,0.33,276.0,2700.0,15.367129156668879,1.069952020805856,2888.870456175811,9.151850068377652,2.3037047174454988,6.215279088291227,1.2337526966396428,1641,70,534,834,360.5466431027639,207.00363512106668,0.0025550659104805885,True
0.15000000000000002,0.8404457539436923,1.2,1265.0,78.50388,0.3,68900.0,0.33,276.0,2700.0,26.40947580220404,1.9736421016947248,5328.833674575757,15.213055833134785,5.14954047361637,11.196419969069254,3.1758983719216456,2499,92,822,1260,435.9062339947093,248.34621417050184,0.004597125405696477,True
0.16,0.6701760707670001,1.2,1266.0,78.50388,0.3,68900.0,0.33,276.0,2700.0,17.814424690709348,1.4165753329173443,3824.7533988768296,10.697017532121414,2.954029293151769,7.117407158587934,1.5374539602344246,1780,74,584,898,339.9286834320568,194.43395844329217,0.002719376421222336,True
0.17,0.6629760422570699,1.2,1267.0,78.50388,0.3,68900.0,0.33,276.0,2700.0,17.29300811926657,1.4596159269995947,3940.963002898906,10.52210935701348,2.8776409156110385,6.77089876225309,1.4180249886114438,1666,72,546,841,325.1190056944686,185.86376293788214,0.0024894296601028917,True
0.18000000000000002,0.5624570706910472,1.2,1268.0,78.50388,0.3,68900.0,0.33,276.0,2700.0,12.938081998831947,1.152212867657718,3110.9747426758386,8.216297729533443,1.937985383614741,4.721784269298505,0.785772515957023,1606,68,528,808,265.66972847856186,153.01205543404697,0.0017363498179725227,False
0.19,0.5401237669967972,1.2,1269.0,78.50388,0.3,68900.0,0.33,276.0,2700.0,11.918811164281237,1.1179216045993816,3018.3883324183303,7.738470849974023,1.7598473677360982,4.180340314307214,0.6419257631367166,1633,66,536,823,242.30954544775403,139.57750640776376,0.0015649901052689021,False
0.2,0.7433953893881089,1.2,1270.0,78.50388,0.3,68900.0,0.33,276.0,2700.0,20.357391231035894,2.0189839622844428,5451.256698167996,12.549706835303677,3.804261831479355,7.807684395732217,1.7852778691949123,1955,78,638,992,296.7676800391004,168.19293992564232,0.0025989858247785808,True
0.21000000000000002,0.5391657706443761,1.2,1271.0,78.50388,0.3,68900.0,0.33,276.0,2700.0,11.561673670926687,1.19457954240404,3225.364764490908,7.718254660385052,1.7524436262475616,3.843419010541635,0.5578640838435216,1551,64,512,777,215.56809372567827,123.86827010606167,0.0014268848477254328,False
0.22,0.7256326074046233,1.2,1272.0,78.50388,0.3,68900.0,0.33,276.0,2700.0,19.113024250927335,2.0801315485517247,5616.355181089657,12.087871437536142,3.585457603680073,7.025152813391193,1.5053260551283483,1799,76,594,902,264.8374808724222,150.39716660666338,0.002220915462844095,False
0.23,0.8599426040963289,1.2,1273.0,78.50388,0.3,68900.0,0.33,276.0,2700.0,25.51300075598622,2.908512581727594,7852.983970664504,15.776661665768962,5.451625890637161,9.736339090217257,2.543113308909567,2562,92,840,1296,286.12674062983746,161.42733748514564,0.0029466912971331085,True
0.24000000000000005,0.5869166477984294,1.2,1274.0,78.50388,0.3,68900.0,0.33,276.0,2700.0,12.882066612896333,1.5168950756520763,4095.6167042606057,8.753999424821851,2.1454978812724494,4.128067188074482,0.6286028056203732,1431,64,472,717,205.25008913511903,117.44193077020834,0.001422835733361971,False
0.25,0.7195277484504894,1.2,1275.0,78.50388,0.3,68900.0,0.33,276.0,2700.0,18.241466551970696,2.247458395521444,6068.1376679078985,11.930975078949622,3.5121422450928157,6.310491473021074,1.2646838495713717,1856,74,610,935,229.39370171119236,131.0941233367685,0.0018779109019061583,False
0.26,0.6848054169500962,1.2,1276.0,78.50388,0.3,68900.0,0.33,276.0,2700.0,16.527097131190885,2.1117115387351513,5701.621154584908,11.05641700046019,3.1131419979505037,5.470680130730695,1.0014304592153525,1584,70,522,795,216.08272077766122,123.20696475543832,0.0016465245376803255,False
0.27,0.6786720623264362,1.2,1277.0,78.50388,0.3,68900.0,0.33,276.0,2700.0,16.085144107163664,2.130270475666688,5751.730284300058,10.905083922869007,3.04579364456403,5.180060184294657,0.9155231688973418,1566,70,518,783,205.97960060578254,117.43503936801119,0.0015726287854709515,False
0.28,0.9568435603067437,1.2,1278.0,78.50388,0.3,68900.0,0.33,276.0,2700.0,29.579716855393762,4.095184198467394,11056.997335861965,18.71956605487787,7.121078968010006,10.860150800515893,3.025894769542612,2862,100,948,1434,250.50198013491968,141.12891027980712,0.0028733787216098055,False
0.29000000000000004,0.7942740277558802,1.2,1279.0,78.50388,0.3,68900.0,0.33,276.0,2700.0,20.91411460067298,2.981466414945316,8049.959320352354,13.916446782072592,4.477266915961233,6.997667818600389,1.4958005010159172,1918,80,634,961,213.08918980280816,120.47076408948476,0.0019104377385785174,False
0.3,0.9128126057254226,1.2,1280.0,78.50388,0.3,68900.0,0.33,276.0,2700.0,26.692746433284423,3.9473632972276,10657.88090251452,17.35308234578944,6.327101182088076,9.339664087494985,2.379737884860476,2564,92,846,1289,227.69968247039841,128.25258230713055,0.0024108032914298507,False
0.31,0.7815564177217622,1.2,1281.0,78.50388,0.3,68900.0,0.33,276.0,2700.0,19.918496524830662,3.024972836853356,8167.426659504061,13.568718177878774,4.302498419113553,6.349778346951888,1.2775255822601967,1869,78,618,936,200.94958543285702,113.80828173959924,0.0017114514235233205,False
0.32,0.9877439745021124,1.2,1282.0,78.50388,0.3,68900.0,0.33,276.0,2700.0,30.34543441930471,4.786640368373534,12923.928994608541,19.70764480699762,7.714725539271392,10.637789612307088,2.928085170897858,2793,98,924,1401,225.46176896010664,127.27391961898986,0.0025996794218301617,False
0.33,0.841787765748191,1.2,1283.0,78.50388,0.2,68900.0,0.33,276.0,2700.0,22.40180096198929,3.6210308819335295,9776.78338122053,15.251543916062639,5.169982394795683,7.150257045926653,1.5489515128621538,5143,124,1588,2667,210.33592569796528,120.18119099106215,0.0018383118036494788,False
0.34,0.9804126792486996,1.2,1284.0,78.50388,0.3,68900.0,0.33,276.0,2700.0,29.453469567944644,4.9247717214461275,13296.883647904544,19.47104625316204,7.571111088648159,9.982423314782604,2.6463393672020317,2761,98,916,1381,213.24034093787535,120.1351140060876,0.0023866724732616745,False
0.3500000000000001,0.8866523955218668,1.2,1285.0,78.50388,0.3,68900.0,0.33,276.0,2700.0,24.229610482370866,4.150384644399791,11206.038539879437,16.56428486844665,5.883495949922048,7.665325613924217,1.7331113055222565,2274,86,754,1137,192.81975333110222,108.89327507279063,0.001888999893098197,False
0.36000000000000004,0.8263321431466549,1.2,1286.0,78.50388,0.3,68900.0,0.33,276.0,2700.0,21.059842914680083,3.6930556267451573,9971.250192211925,14.811027213962237,4.937672250354859,6.248815700717845,1.2446166236097014,2025,80,672,1011,177.83500965521722,100.43176400198803,0.0016124984764101329,False
0.37,0.7387517442663951,1.2,1287.0,78.50388,0.3,68900.0,0.33,276.0,2700.0,16.917276404019884,3.0236087396221563,8163.743596979822,12.428205709519574,3.7462677603276617,4.48907069450031,0.7226590207055055,1540,68,514,763,163.08860180042564,92.97376645983358,0.0013327704073443746,False
0.38,0.8962326511255296,1.2,1288.0,78.50388,0.3,68900.0,0.33,276.0,2700.0,24.092349997263184,4.462622851421486,12049.081698838012,16.851158117590373,6.043558350802889,7.241191879672812,1.580935499381403,2117,84,704,1055,181.98170916644642,102.75570271882852,0.0017475493929835003,False
0.39,0.9073996179790962,1.2,1289.0,78.50388,0.3,68900.0,0.33,276.0,2700.0,24.45360395554753,4.644215348252829,12539.38144028264,17.18845561342448,6.233615053408601,7.265148342123048,1.5893997051557713,2136,84,710,1065,179.88536276630168,101.0599998681474,0.001732474013031653,False
0.4,0.8618489258371331,1.2,1290.0,78.50388,0.3,68900.0,0.33,276.0,2700.0,21.995002835162357,4.2649592804791885,11515.39005729381,15.832281448418211,5.48175428385929,6.1627213867441455,1.2167950033801018,2074,82,692,1030,167.73849294691246,94.22416459164062,0.0015542359833925167,False
0.4100000000000001,0.7719311827559736,1.2,1291.0,78.50388,0.3,68900.0,0.33,276.0,2700.0,17.68326291263022,3.4807210922371534,9397.946949040313,13.308244657574194,4.17315174552226,4.375018255056025,0.6924306532851063,1669,72,560,823,155.22315989515715,88.29409292073537,0.0012996174260943257,False
0.42000000000000004,1.090800392982505,1.2,1292.0,78.50388,0.3,68900.0,0.33,276.0,2700.0,33.88872608974726,6.9614629345008145,18795.9499231522,23.176480695989255,9.922175366374024,10.712245393758003,2.960712431873209,3137,104,1044,1565,186.16724296251226,105.29369584848926,0.002255710045498091,False
0.43,0.8791555402487723,1.2,1293.0,78.50388,0.3,68900.0,0.33,276.0,2700.0,22.26310760026933,4.62004906265193,12474.13246916021,16.34140621505578,5.760152230526922,5.921701385213549,1.140103167874992,2095,82,690,1048,160.00632059151033,90.03719591659836,0.0015028938287622614,False
0.44,1.113098772905478,1.2,1294.0,78.50388,0.3,68900.0,0.33,276.0,2700.0,34.73055011833753,7.462312073631994,20148.242598806384,23.962160457510418,10.447709810247593,10.768389660827115,2.9853977366155995,3266,106,1088,1628,180.0938561795196,102.83238992459381,0.0022150205325910635,False
0.45,1.060838313556286,1.2,1295.0,78.50388,0.3,68900.0,0.33,276.0,2700.0,31.434868443144914,6.88199364600133,18581.382844203592,22.1404485643337,9.243336983952403,9.294419878811215,2.361343337951073,3070,100,1002,1547,173.77330404986952,97.36298875113641,0.001967772702854677,False
0.46,0.8833143427791986,1.2,1296.0,78.50388,0.3,68900.0,0.33,276.0,2700.0,21.908417526063634,4.835075989308094,13054.705171131853,16.464871380971736,5.828369495018987,5.443546145091897,0.9932935057108931,2175,80,668,1127,148.77619845021138,84.22826618544671,0.0014369619045040828,False
0.4700000000000001,0.9185657066191462,1.2,1297.0,78.50388,0.3,68900.0,0.33,276.0,2700.0,23.43946046837454,5.29082682735225,14285.232433851075,17.528860294873887,6.427440450969418,5.910600173500654,1.1366136236171682,2235,84,714,1134,154.16200445256217,87.4055539093735,0.0014913002932362763,False
0.4800000000000001,1.106107615602285,1.2,1298.0,78.50388,0.3,68900.0,0.33,276.0,2700.0,33.36137591150299,7.775106875596851,20992.7885641115,23.714483383216294,10.281053067516684,9.646892528286696,2.5059461919198327,3359,104,1052,1727,170.5206997500758,95.25043626752304,0.0019687685028912973,False
0.49,0.8193279926953603,1.2,1299.0,78.50388,0.1,68900.0,0.33,276.0,2700.0,18.459356009737398,4.276138732984205,11545.574579057355,14.61337150628082,4.834626512223228,3.8459845034565774,0.558487779239023,32232,208,4760,20790,157.87067725046944,90.23492683787121,0.00125421924756324,False
0.5,1.1952431398096877,1.2,1300.0,78.50388,0.3,68900.0,0.33,276.0,2700.0,38.280444142124836,9.308311647732062,25132.441448876565,26.96431547098082,12.538210479735636,11.316128671144014,3.229898832003574,3990,112,1194,2091,175.1445011413487,99.32012012634355,0.0021693752813425346,False
0.01,0.3240264351175529,1.2,1301.0,81.52326,0.05,68900.0,0.33,276.0,2700.0,7.369390398513549,0.03684485759746532,99.48111551315637,3.7624843552945015,0.5383197234544577,3.606906043219048,0.5014748658569923,23767,252,7886,11932,2556.943930122826,1456.7847030125859,0.013143533738371124,True
0.02,0.40227173582401715,1.2,1302.0,81.52326,0.1,68900.0,0.33,276.0,2700.0,9.785185396246087,0.09783509880164168,264.1547667644325,5.06657956208725,0.8827327980497294,4.718605834158837,0.7848976992480877,8214,152,2714,4137,1569.258986175967,897.3098096917186,0.009448651806956376,True
0.03,0.5971140519999436,1.2,1303.0,81.52326,0.1,68900.0,0.33,276.0,2700.0,17.300127469828162,0.2594453633796579,700.5024811250763,8.982612897961042,2.235929362890548,8.31751457186712,1.97648399951089,13810,210,4562,6961,1779.8940531110777,1013.7391004484205,0.012712698713510833,True
0.04,0.7331027400280888,1.2,1304.0,81.52326,0.1,68900.0,0.33,276.0,2700.0,23.54377799781011,0.4707415186696488,1271.0021004080518,12.281129978969686,3.6764765668625197,11.262648018840425,3.205735048192871,18618,252,6136,9408,1788.121171950844,1020.0299746578659,0.013947713739426973,True
0.05,0.5507664699366296,1.2,1305.0,81.52326,0.2,68900.0,0.33,276.0,2700.0,14.891532775818018,0.3720265200076513,1004.4716040206584,7.964610763015747,1.8434064594322377,6.926922012802271,1.4713799394245863,3263,98,1076,1643,881.1656684447638,507.55147734296946,0.00652536241216532,True
0.06000000000000001,0.6176666000479947,1.2,1306.0,81.52326,0.2,68900.0,0.33,276.0,2700.0,17.56406629324111,0.5264695994551157,1421.4679185288126,9.451317995312028,2.425343305504617,8.11274829792908,1.8988737060495011,3820,108,1258,1927,852.0407221820014,487.48761380703166,0.0066616751996253915,True
0.06999999999999999,0.4142712699446811,1.2,1307.0,81.52326,0.2,68900.0,0.33,276.0,2700.0,9.365325410147076,0.32706801183502676,883.0836319545723,5.280180921880327,0.944807332089347,4.0851444882667485,0.6177393202543202,2143,76,700,1087,489.18617804495227,282.0799122007767,0.002839089739154115,True
0.08,0.48388063024926714,1.2,1308.0,81.52326,0.2,68900.0,0.33,276.0,2700.0,11.685678949766126,0.4663548276982198,1259.1580347851934,6.590669850287493,1.3572620787000824,5.0950090994786335,0.8909072510018626,2651,86,866,1346,495.59813890955724,286.08885104830176,0.003166010978281661,True
0.09,0.4952878281153412,1.2,1309.0,81.52326,0.2,68900.0,0.33,276.0,2700.0,11.936966977993555,0.5356366999797832,1446.2190899454147,6.817039031394973,1.4337311639525314,5.119927946598581,0.8980944639727482,2661,86,870,1350,453.53810400602816,261.8384010443023,0.0029111582480279216,True
0.09999999999999999,0.6800461098436326,1.2,1310.0,81.52326,0.3,68900.0,0.33,276.0,2700.0,19.540348576829494,0.9749230337390811,2632.292191095519,10.938904698888557,3.060800978296423,8.601443877940937,2.0858779445573417,2046,80,668,1038,600.3819157499582,340.3768016664011,0.005351035855563762,True
0.11,0.5452801402459984,1.2,1311.0,81.52326,0.2,68900.0,0.33,276.0,2700.0,13.510549898707092,0.7402926045476048,1998.790032278533,7.847679793818432,1.8000310857159865,5.66287010488866,1.0597384811683817,3047,94,998,1544,409.83086773643,235.988286675041,0.002809132922077558,True
0.12,0.6420362823377894,1.2,1312.0,81.52326,0.3,68900.0,0.33,276.0,2700.0,17.381502325339618,1.0392710247834434,2806.031766915297,10.020830540969998,2.6625780306141316,7.36067178436962,1.6233070058306882,1618,72,530,817,462.29843708629153,264.7001264410594,0.003531259362163795,True
0.13,0.6323696876011942,1.2,1313.0,81.52326,0.3,68900.0,0.33,276.0,2700.0,16.752358727169078,1.0843019312259752,2927.615214310133,9.793138927611954,2.5668131159432357,6.959219799557124,1.4825111847172605,1620,72,532,816,418.32339390014874,239.33829154144843,0.003158033196484799,True
0.14,0.4606970591244455,1.2,1314.0,81.52326,0.1,68900.0,0.33,276.0,2700.0,9.85109026131448,0.683829298131047,1846.3391049538268,6.1406828624660434,1.2097090656770797,3.710407398848437,0.5258797675460327,8349,152,2772,4185,276.8862557813398,159.66371042090472,0.0017218905846017772,True
0.15000000000000002,0.8367147211926589,1.2,1315.0,81.52326,0.3,68900.0,0.33,276.0,2700.0,26.210009665739655,1.9586821414598967,5288.441781941721,15.106289933854024,5.092979346372286,11.103719731885631,3.1342972049123894,2500,92,822,1261,450.2254966057603,256.3713454474373,0.004733362394091541,True
0.16,0.6257415862651676,1.2,1316.0,81.52326,0.3,68900.0,0.33,276.0,2700.0,15.87582059260562,1.261487005069047,3406.014913686427,9.638374651020268,2.5024167052416564,6.237445941585353,1.2409297001726094,1662,70,538,849,332.6963144023803,190.37712509875772,0.0024627081232742546,True
0.17,0.5611029582918923,1.2,1317.0,81.52326,0.3,68900.0,0.33,276.0,2700.0,13.057987185969704,1.099639147669367,2969.0256987072908,8.186969152480248,1.9268794552791821,4.871018033489456,0.8272403076098152,1591,68,524,799,287.3601746674503,164.8373325213538,0.0018957374118147598,True
0.18000000000000002,0.832905100828903,1.2,1318.0,81.52326,0.3,68900.0,0.33,276.0,2700.0,25.2772808634471,2.26274076547308,6109.400066777316,14.99763619399544,5.035637197168164,10.27964466945166,2.772896431695084,2402,90,788,1214,374.4320785635909,211.3662025668252,0.003815112477634178,True
0.19,0.7857399496274006,1.2,1319.0,81.52326,0.3,68900.0,0.33,276.0,2700.0,22.634311703853577,2.135894155858427,5766.914220817753,13.68265687592567,4.359501764267347,8.951654827927907,2.22360760840892,2284,86,748,1156,336.3991747344573,190.27952557949953,0.003192172892529476,True
0.2,0.6782460899134155,1.2,1320.0,81.52326,0.3,68900.0,0.33,276.0,2700.0,17.374671022289025,1.720711941409756,4645.922241806341,10.89460868243727,3.0411506108948183,6.480062339851756,1.3204386694850623,1741,74,574,874,287.8328881962935,163.87912586181326,0.0022536620713188124,True
0.21000000000000002,0.5517706766169231,1.2,1321.0,81.52326,0.3,68900.0,0.33,276.0,2700.0,12.030828176753587,1.2438407655158645,3358.370066892834,7.98609547650064,1.8514153601918608,4.044732700252948,0.6075745946759963,1523,64,504,761,229.7878787469883,132.1098665834781,0.0015294070165773302,False
0.22,0.6062253233732732,1.2,1322.0,81.52326,0.3,68900.0,0.33,276.0,2700.0,13.975683187164305,1.51502403153779,4090.564885152033,9.189087344912389,2.3187114248570633,4.786595842251916,0.8036873933192732,1599,68,528,801,240.07661396473142,137.88100290388402,0.001671359032751865,False
0.23,0.6140622159517837,1.2,1323.0,81.52326,0.3,68900.0,0.33,276.0,2700.0,14.117699747156196,1.598052965712124,4314.743007422735,9.368351621981752,2.3914267446458903,4.7493481251744445,0.7933737789337663,1586,68,522,797,231.56736218624545,132.40375159120933,0.0016361878886036164,False
0.24000000000000005,0.8951999692331238,1.2,1324.0,81.52326,0.3,68900.0,0.33,276.0,2700.0,27.154795266774986,3.229622514117515,8719.980788117291,16.820124344890935,6.026172491262874,10.334670921884051,2.7965499771453586,2463,92,808,1245,294.78674218487305,166.19192403814515,0.0031487382435826574,True
0.25,0.9221103880525057,1.2,1325.0,81.52326,0.3,68900.0,0.33,276.0,2700.0,28.381806600143523,3.5150009015428805,9490.502434165777,17.637577235354453,6.489767266784643,10.74422936478907,2.9747663652417624,2695,96,886,1360,287.59413204282436,161.36083860782566,0.003177779730303691,True
0.26,0.6780300643214001,1.2,1326.0,81.52326,0.3,68900.0,0.33,276.0,2700.0,16.237132883015228,2.0740161864723183,5599.84370347526,10.889298062406823,3.0387976702404513,5.347834820608405,0.964781483768133,1570,70,518,787,223.49492632239696,127.5015178981519,0.001688506335119515,False
0.27,0.5909439879413976,1.2,1327.0,81.52326,0.1,68900.0,0.33,276.0,2700.0,12.55823547035502,1.6541378096975234,4466.172086183314,8.843975260542942,2.180934259406457,3.7142602098120783,0.5267964497089335,15167,174,3520,8767,204.93961214776286,117.74257831838865,0.0013693687964584414,False
0.28,0.7028483820964827,1.2,1328.0,81.52326,0.3,68900.0,0.33,276.0,2700.0,16.942165097501597,2.3259269523623662,6280.002771378389,11.507086863709668,3.316685952664129,5.435078233791929,0.9907590003017628,1583,70,522,794,212.58651668421402,121.02147804956965,0.0016590242130928078,False
0.29000000000000004,0.6892996080102631,1.2,1329.0,81.52326,0.3,68900.0,0.33,276.0,2700.0,16.182138376048254,2.2953298623747287,6197.3906284117675,11.167905905330516,3.1630819844976266,5.014232470717738,0.8677521221228979,1609,70,530,808,200.85766573609556,114.8048838254372,0.0015652274442706402,False
0.3,0.8465075329235157,1.2,1330.0,81.52326,0.3,68900.0,0.33,276.0,2700.0,23.261037205458738,3.4326069130541965,9268.038665246331,15.387263496344659,5.242286193352237,7.873773709114079,1.8096792802980408,2216,84,734,1109,227.1029022699384,128.8220531970162,0.002161501357135822,False
0.31,0.7380291044733844,1.2,1331.0,81.52326,0.3,68900.0,0.33,276.0,2700.0,17.93888107980266,2.7181324428740155,7338.957595759842,12.40934654682558,3.7372934593073124,5.529534532977079,1.019161016433297,1709,72,566,854,199.12525895447916,112.63455313133313,0.0016169208747619564,False
0.32,0.65051094407769,1.2,1332.0,81.52326,0.3,68900.0,0.33,276.0,2700.0,14.087091278917201,2.1853054659115325,5900.324757961138,10.222378758814509,2.7483539315348855,3.8647125201026924,0.563048465623353,1294,62,428,646,172.28103143553037,98.57319740217326,0.0013265604034815,False
0.33,0.7938874714715713,1.2,1333.0,81.52326,0.3,68900.0,0.33,276.0,2700.0,20.10762390697222,3.24249166785571,8754.727503210417,13.905817547916534,4.471889480521979,6.201806359055684,1.2293978126662686,1871,78,618,938,200.46395340401176,113.94096730330114,0.0017065671145220537,False
0.34,0.8620737066739439,1.2,1334.0,81.52326,0.3,68900.0,0.33,276.0,2700.0,23.20029077427469,3.861731326522239,10426.674581610045,15.838845784578131,5.485313815076345,7.36144498969656,1.623582488554106,2142,84,712,1068,204.900946960416,115.48902893509691,0.0019272467670228429,False
0.3500000000000001,0.6640508813075764,1.2,1335.0,81.52326,0.3,68900.0,0.33,276.0,2700.0,14.155420682524666,2.3874014294267094,6445.983859452115,10.548137374096541,2.888964475005548,3.6072833084281246,0.5015630455788385,1311,62,434,654,161.75558638414617,92.50599178814662,0.0012611220486383238,False
0.36000000000000004,1.0468947075298398,1.2,1336.0,81.52326,0.3,68900.0,0.33,276.0,2700.0,32.774181765958765,5.801636619975321,15664.418873933368,21.6659981735709,8.937932744436074,11.108183592387864,3.1362961244607526,2984,102,992,1490,371.03355284984667,194.81851863027643,0.0026174544949618514,True
0.37,0.9422467203971798,1.2,1337.0,81.52326,0.2,68900.0,0.33,276.0,2700.0,26.690861299291246,4.83172194524736,13045.649252167872,18.261159673796513,6.851184615220459,8.429701625494733,2.019462669973099,7233,134,1864,4021,208.5561455660848,118.37113893686868,0.0020733334660001028,False
0.38,0.7564913987416173,1.2,1338.0,81.52326,0.3,68900.0,0.33,276.0,2700.0,17.515191939487877,3.2129628204441785,8674.999615199282,12.895283749025761,3.970871044736364,4.619908190462116,0.7579082242921857,1535,68,514,758,167.94350042046275,94.75550977161694,0.0013971707619486308,False
0.39,0.7098285722691107,1.2,1339.0,81.52326,0.3,68900.0,0.33,276.0,2700.0,15.38049878432954,2.8749598398651086,7762.391567635793,11.683630144422786,3.397623047846739,3.6968686399067536,0.5226632079816302,1379,64,462,680,159.47205187110416,91.00024933799402,0.00125249683237324,False
0.4,0.8995080936929827,1.2,1340.0,81.52326,0.3,68900.0,0.33,276.0,2700.0,23.851384340851357,4.636235581617107,12517.836070366187,16.949767825384743,6.0989147730309305,6.901616515466614,1.462679191413824,2168,84,722,1079,185.21962326771157,105.01030398311862,0.001719546073624374,False
0.4100000000000001,1.1008406807385427,1.2,1341.0,81.52326,0.3,68900.0,0.33,276.0,2700.0,34.73495467649349,6.9763179038291225,18836.05834033863,23.52870198610086,10.156639983476506,11.206252690392628,3.1803220796473832,3183,106,1064,1581,198.01239417744105,112.2509398866505,0.0024550581276990163,False
0.42000000000000004,1.0330329861927328,1.2,1342.0,81.52326,0.3,68900.0,0.33,276.0,2700.0,30.543898027100703,6.2590490413450395,16899.432411631606,21.199177474542672,8.640845762891749,9.34472055255803,2.381796721546709,2916,98,964,1460,194.73128898418636,110.55955427818625,0.002107955333160549,False
0.43,0.7601144632251122,1.2,1343.0,81.52326,0.3,68900.0,0.33,276.0,2700.0,16.850081886936017,3.456248534285268,9331.871042570223,12.991650212738058,4.017765960641787,3.858431674197959,0.5615174263565192,1467,66,494,720,147.22475182165348,82.84498538892773,0.0012617966385290026,False
0.44,0.8701020144315682,1.2,1344.0,81.52326,0.3,68900.0,0.33,276.0,2700.0,21.641648599747818,4.582753739542464,12373.435096764653,16.074131275184502,5.613416331971449,5.567517324563315,1.0306625924289854,2107,80,672,1071,163.0849510633853,92.22279370663392,0.0015015110064186177,False
0.45,1.09778118163638,1.2,1345.0,81.52326,0.3,68900.0,0.33,276.0,2700.0,33.57836518414637,7.3642804127273545,19883.557114363855,23.421103932168162,10.084818598930115,10.157261251978209,2.7205381862027602,2972,102,990,1477,182.21044021635726,103.32032397045674,0.002185289594104177,False
0.46,0.9107576909200112,1.2,1346.0,81.52326,0.3,68900.0,0.33,276.0,2700.0,23.242398390725075,5.141891588180221,13883.107288086598,17.290498923775168,6.2915063962295905,5.951899466949907,1.1496148080493693,2209,84,718,1110,162.00135494138036,91.77632258122806,0.0015513222997514604,False
0.4700000000000001,0.7928770848125923,1.2,1347.0,81.52326,0.1,68900.0,0.33,276.0,2700.0,17.62252755773232,3.9238475933512835,10594.388502048465,13.878052431847035,4.4578532569011795,3.744475125885284,0.534005663549896,30803,204,4652,19787,165.8985071409843,94.95455648455176,0.001288760020655118,False
0.4800000000000001,1.0694554386505752,1.2,1348.0,81.52326,0.3,68900.0,0.33,276.0,2700.0,31.246772830159728,7.267602136074466,19622.525767401057,22.436101119633495,9.435396496274606,8.810671710526233,2.1677943602001406,3329,100,1002,1746,173.45327382940914,96.21426575986848,0.001923149798273655,False
0.49,0.8398271899064051,1.2,1349.0,81.52326,0.2,68900.0,0.33,276.0,2700.0,19.370826562408965,4.499449018388741,12148.5123496496,15.195331032247509,5.1401357068386435,4.175495530161456,0.640686688449903,5383,108,1346,3016,160.53531010501626,91.18540675191763,0.00133325002090219,False
0.5,1.070004977520269,1.2,1350.0,81.52326,0.3,68900.0,0.33,276.0,2700.0,30.835640435289914,7.447110721023328,20107.198946762983,22.455019036368313,9.447731203641936,8.380621398921601,2.0006204826186087,2822,96,912,1422,165.6513800793386,94.610174834928,0.001833057223648242,False
0.01,0.5133768097551064,1.2,1351.0,84.54263999999999,0.05,68900.0,0.33,276.0,2700.0,14.162251089480321,0.07080916105229933,191.18473484120818,7.182709170614521,1.5603393614923935,6.9795419188658006,1.489530200440094,45399,372,15076,22779,4802.157643521427,2720.0844290204036,0.030258233553365273,True
0.02,0.6712717152855655,1.2,1352.0,84.54263999999999,0.1,68900.0,0.33,276.0,2700.0,20.964307973178634,0.20962632457096722,565.9910763416115,10.723747919296901,2.9657640625222714,10.240560053881733,2.7561377379513043,16698,236,5534,8391,2882.3247337087173,1641.1200154295238,0.02482142650154499,True
0.03,0.5062755558683536,1.2,1353.0,84.54263999999999,0.1,68900.0,0.33,276.0,2700.0,13.479744829668045,0.2021396237772555,545.7769841985898,7.038176271627765,1.509847052486765,6.44156855804028,1.3077074287095096,10717,180,3524,5425,1471.060782353452,839.2582611236109,0.009752550154262218,True
0.04,0.5499413153472742,1.2,1354.0,84.54263999999999,0.1,68900.0,0.33,276.0,2700.0,15.05960356064884,0.3010580299262361,812.8566808008375,7.946975786597073,1.836841701276308,7.112627774051767,1.5357836713500719,12364,196,4066,6259,1306.2958026222868,745.5822108102484,0.008450257599070931,True
0.05,0.47508277116129277,1.2,1355.0,84.54263999999999,0.08,68900.0,0.33,276.0,2700.0,11.894048765290373,0.29708941974445957,802.1414333100408,6.418315287338104,1.3000378958710601,5.475733477952269,1.0029484761266005,15046,212,4950,7615,878.2539105497899,502.735091396342,0.005158284020883301,True
0.06000000000000001,0.6026512011568491,1.2,1356.0,84.54263999999999,0.2,68900.0,0.33,276.0,2700.0,16.899760844807417,0.5065404360021054,1367.6591772056845,9.107843927051869,2.2860137862052867,7.7919169177555485,1.7794733502031814,3690,106,1216,1860,845.7547870148652,484.82109109345896,0.006596374468577449,True
0.06999999999999999,0.37677543369610167,1.2,1357.0,84.54263999999999,0.08,68900.0,0.33,276.0,2700.0,8.120406467281699,0.2834958488347388,765.4387918537947,4.6247383902119905,0.7592211256295762,3.495668077069708,0.47572527679483745,10564,170,3476,5344,458.79228194336065,264.0133048664319,0.0025468296715328255,True
0.08,0.45783621627734455,1.2,1358.0,84.54263999999999,0.2,68900.0,0.33,276.0,2700.0,10.728886583255937,0.4280831330378126,1155.824459202094,6.0860909663600005,1.1922196754903094,4.642795616895937,0.7641365424524968,2306,80,758,1163,501.03415421666085,289.18013200345194,0.0029824618078774044,True
0.09,0.7194440038749956,1.2,1359.0,84.54263999999999,0.2,68900.0,0.33,276.0,2700.0,21.653518262149557,0.9728815077670859,2626.780070971132,11.92882933568177,3.511143180498011,9.724688926467786,2.538261672730925,4511,120,1492,2267,680.3451288109478,389.50108526932996,0.006150022409952749,True
0.09999999999999999,0.7794942811586534,1.2,1360.0,84.54263999999999,0.3,68900.0,0.33,276.0,2700.0,24.438033932177326,1.219807301506475,3293.4797140674823,13.512717634328956,4.274575627994478,10.92531629784837,3.054768326488003,2355,90,770,1194,665.2099745461139,380.36178401290573,0.0065672580451585725,True
0.11,0.46393273211868685,1.2,1361.0,84.54263999999999,0.1,68900.0,0.33,276.0,2700.0,10.445434130922193,0.5717112373194357,1543.6203407624764,6.202675325230996,1.2296785301001554,4.242758805691197,0.6579672927807196,8916,158,2944,4494,358.197417985018,206.79283558897157,0.0022530512659364194,True
0.12,0.6457495451415668,1.2,1362.0,84.54263999999999,0.3,68900.0,0.33,276.0,2700.0,17.546480006351608,1.0491696856441604,2832.758151239233,10.108918849865683,2.699951448212993,7.437561156485925,1.6507817625688326,1744,74,570,883,473.1717197911183,271.2606652536262,0.0037185707065761184,True
0.13,0.5241528886820905,1.2,1363.0,84.54263999999999,0.3,68900.0,0.33,276.0,2700.0,12.328567341100504,0.7967554911315754,2151.2398260552536,7.404457222328517,1.6389329688357064,4.924110118771987,0.842177477704131,1840,70,602,931,360.5197646559279,207.83568145313643,0.0022971045350657932,True
0.14,0.7493531244079138,1.2,1364.0,84.54263999999999,0.3,68900.0,0.33,276.0,2700.0,21.96683371079163,1.5319313395944505,4136.214616905017,12.70638486070548,3.8794959395633004,9.26044885008615,2.34756459996885,2177,82,706,1112,460.39103009471324,262.62372385365364,0.004221971122189255,True
0.15000000000000002,0.7716705261548296,1.2,1365.0,84.54263999999999,0.3,68900.0,0.33,276.0,2700.0,22.84508718478024,1.706312955387834,4607.044979547152,13.30122327420052,4.169683778824797,9.54386391057972,2.4633708234369625,2340,88,764,1188,439.1524273988419,249.387826599342,0.004169281639062658,True
0.16,0.5593557538009079,1.2,1366.0,84.54263999999999,0.3,68900.0,0.33,276.0,2700.0,13.164414018360564,1.044574479129443,2820.351093649496,8.149194728011558,1.912608157001398,5.015219290349005,0.8680336778719551,1602,68,524,810,313.3625008108663,179.84848370724188,0.002072279681138602,True
0.17,0.8494206640899846,1.2,1367.0,84.54263999999999,0.3,68900.0,0.33,276.0,2700.0,26.394815762282008,2.2332695766559136,6029.827856970966,15.471311655412304,5.287233680088721,10.923504106869704,3.0539641034328073,2500,92,824,1258,414.13895281099605,234.8091449517823,0.004391235252636779,True
0.18000000000000002,0.6140117736829679,1.2,1368.0,84.54263999999999,0.3,68900.0,0.33,276.0,2700.0,15.006644256682382,1.338383470864257,3613.635371333494,9.367192849306404,2.390954212960841,5.639451407375978,1.0525707420965842,1688,70,550,857,305.7935000551961,175.51132921950247,0.00215322541565453,True
0.19,0.7220267167210432,1.2,1369.0,84.54263999999999,0.3,68900.0,0.33,276.0,2700.0,19.56341457934259,1.8441589290302125,4979.2291083815735,11.99508593509983,3.542037446065162,7.5683286442427615,1.6978785170349493,1955,78,638,992,328.78750057117435,186.7353600533812,0.0027982016556888823,True
0.2,0.6537095815339393,1.2,1370.0,84.54263999999999,0.3,68900.0,0.33,276.0,2700.0,16.306626410672724,1.613907480248127,4357.550196669943,10.298919405053354,2.7811739594722797,6.00770700561937,1.1672664792241527,1578,70,510,807,291.44822764174296,166.79031060481634,0.0021707294950824713,True
0.21000000000000002,0.6480445321514117,1.2,1371.0,84.54263999999999,0.3,68900.0,0.33,276.0,2700.0,15.877586229304194,1.647750361033679,4448.925974790934,10.163535222091072,2.7232139322731563,5.714051007213122,1.0754635712394773,1598,70,516,818,275.14122648657565,157.4755068608309,0.002020647014543609,False
0.22,0.7510663017463889,1.2,1372.0,84.54263999999999,0.3,68900.0,0.33,276.0,2700.0,20.299860465314225,2.210683532134283,5968.845536762564,12.751603575151599,3.901302953468133,7.548256890162627,1.6906194213338503,1965,78,640,999,292.2376819459257,165.35133295729892,0.0025600441977825304,True
0.23,0.6061264301744371,1.2,1373.0,84.54263999999999,0.3,68900.0,0.33,276.0,2700.0,13.800539721936179,1.561579562811844,4216.264819591979,9.186835083577083,2.3178027979838314,4.613704638359096,0.7562232351719873,1444,64,476,724,236.1315887340438,134.92232651067778,0.0016635714225024794,False
0.24000000000000005,0.7871960605396844,1.2,1374.0,84.54263999999999,0.3,68900.0,0.33,276.0,2700.0,21.61084545208252,2.5643485363544216,6923.741048156939,13.722417322878824,4.379454171597482,7.888428129203694,1.8151056352430603,2063,82,678,1040,277.18205544552177,156.7385110663416,0.0025389843955014773,True
0.25,0.9005827116720748,1.2,1375.0,84.54263999999999,0.3,68900.0,0.33,276.0,2700.0,27.206272042027557,3.3680590817784917,9093.759520801928,16.982178766330936,6.117146710368542,10.224093275696621,2.74908762859005,2456,92,806,1241,292.3464599837088,164.25132375042799,0.0031489716530061053,True
0.26,0.8248681545654735,1.2,1376.0,84.54263999999999,0.3,68900.0,0.33,276.0,2700.0,23.038245050026095,2.9581607681837303,7987.034074096072,14.769611830113305,4.91601939803418,8.26863321991279,1.95785862985045,2236,84,738,1123,265.0801238043311,150.2699214508222,0.0025384008652693138,False
0.27,0.5922236100832086,1.2,1377.0,84.54263999999999,0.1,68900.0,0.33,276.0,2700.0,12.606899563975675,1.6607074623363107,4483.9101483080385,8.872648962994958,2.1922695473353726,3.734250600980717,0.5315620849990619,14975,174,3488,8649,211.70835110483847,121.58987084665614,0.001424427780873103,False
0.28,0.9422986516128187,1.2,1378.0,84.54263999999999,0.3,68900.0,0.33,276.0,2700.0,28.76850181615824,3.981614092974417,10750.358051030926,18.262781055564137,6.852132981541163,10.505720760594102,2.870518888566746,2548,94,838,1285,270.13131162910514,151.8578447206897,0.003009656963980447,False
0.29000000000000004,0.8903946566827337,1.2,1379.0,84.54263999999999,0.3,68900.0,0.33,276.0,2700.0,25.73278512951067,3.6801736416267814,9936.46883239231,16.676069406057678,5.94569288354527,9.056715723452992,2.2655192419184886,2501,90,822,1262,250.04404437249354,141.3932589679987,0.002580610194462542,False
0.3,0.8471826839912144,1.2,1380.0,84.54263999999999,0.3,68900.0,0.33,276.0,2700.0,23.29486693270377,3.4376813721409074,9281.73970478045,15.406723619528364,5.252681489347752,7.888143313175405,1.8150001172068442,2208,84,732,1104,235.6224538312289,133.66635369658042,0.0022451701623039623,False
0.31,0.6177968389875146,1.2,1381.0,84.54263999999999,0.3,68900.0,0.33,276.0,2700.0,12.965579517601919,1.9472707007329013,5257.6308919788335,9.454321971276375,2.4265744307500876,3.5112575463255435,0.4793037300171863,1247,60,414,620,181.0662129248773,103.35528335478351,0.0013154493365065537,False
0.32,0.8163592036041958,1.2,1382.0,84.54263999999999,0.3,68900.0,0.33,276.0,2700.0,21.3684327938853,3.35032010830643,9045.86429242736,14.529964938684637,4.791366357366286,6.838467855200664,1.441046249059856,2112,82,704,1050,218.53114557625122,124.07870357072429,0.0019248785097686035,False
0.33,0.9884071714313514,1.2,1383.0,84.54263999999999,0.3,68900.0,0.33,276.0,2700.0,30.14090921777873,4.89798374413879,13224.556109174731,19.729114395011013,7.727802707461426,10.411794822767718,2.8298189633226363,2778,98,922,1389,236.104613908831,133.72578326818217,0.0027066780519525635,False
0.34,0.9471369136474403,1.2,1384.0,84.54263999999999,0.3,68900.0,0.33,276.0,2700.0,27.623997329628814,4.61376144093242,12457.155890517533,18.414137228976642,6.940859014976079,9.209860100652172,2.327097574043659,2534,92,840,1268,224.18538940698565,126.12877047420592,0.0023989774246834837,False
0.3500000000000001,1.01802393549986,1.2,1385.0,84.54263999999999,0.3,68900.0,0.33,276.0,2700.0,31.34376332642088,5.395361392108549,14567.475758693081,20.69916350131156,8.326425682451125,10.64459982510932,2.9310642903425768,2867,100,952,1433,228.0509734213143,128.82726884314621,0.0026604914476180902,False
0.36000000000000004,0.8073964304530263,1.2,1386.0,84.54263999999999,0.3,68900.0,0.33,276.0,2700.0,20.168123556267446,3.5325461422308866,9537.874584023393,14.279504388676065,4.662261496219063,5.888619167591381,1.1297153539881766,1875,78,622,936,192.77771570113362,109.156255436046,0.0016753373294142605,False
0.37,0.7723710307520979,1.2,1387.0,84.54263999999999,0.3,68900.0,0.33,276.0,2700.0,18.38842908688266,3.2957719859517685,8898.584362069774,13.320096844045738,4.179007956668836,5.068332242836922,0.8832359707170676,1813,76,602,904,178.66365432968283,101.33427565728253,0.0015359983792482498,False
0.38,0.8814706601545301,1.2,1388.0,84.54263999999999,0.3,68900.0,0.33,276.0,2700.0,23.351183491945903,4.321801215411196,11668.863281610229,16.41008309810372,5.798064016964636,6.941100393842184,1.4762628015534398,2113,84,704,1051,194.295379022064,109.99906664644429,0.0018162661677256998,False
0.39,0.9439166288135341,1.2,1389.0,84.54263999999999,0.3,68900.0,0.33,276.0,2700.0,26.345423493288394,5.013120158112375,13535.424426903413,18.313331036125884,6.881722630397681,8.03209245716251,1.8686024722853052,2300,88,764,1148,197.21979641990376,110.81496439178665,0.0020121804164241835,False
0.4,0.8587630446868426,1.2,1390.0,84.54263999999999,0.3,68900.0,0.33,276.0,2700.0,21.846046600143534,4.235168033475541,11434.953690383962,15.742292000426275,5.433036654887403,6.103754599717259,1.1978686214118621,2014,80,670,1003,188.31243791701357,106.45875962335315,0.001669209325078302,False
0.4100000000000001,0.771818501862019,1.2,1391.0,84.54263999999999,0.3,68900.0,0.33,276.0,2700.0,17.678352968633227,3.4797145537177703,9395.22929503798,13.305209129727118,4.17165233164327,4.37314383890611,0.6919377779254998,1667,72,560,821,167.1036454843438,95.05569692388373,0.0013992615646434231,False
0.42000000000000004,0.8693556826904079,1.2,1392.0,84.54263999999999,0.3,68900.0,0.33,276.0,2700.0,21.97766048410993,4.4601391573169815,12042.37572475585,16.05219024712024,5.601427886102654,5.925470236989689,1.1412887287856721,2088,82,690,1043,174.8388181476548,98.01897465380354,0.0016260564074848725,False
0.43,0.9577131691873564,1.2,1393.0,84.54263999999999,0.3,68900.0,0.33,276.0,2700.0,26.225406083535642,5.471943236554191,14774.246738696316,18.747044697014793,7.1373696153508535,7.478361386520849,1.6654263787966626,2585,92,862,1284,184.9578438237166,104.37280584424525,0.001840522438943136,False
0.44,0.8375056811451369,1.2,1394.0,84.54263999999999,0.3,68900.0,0.33,276.0,2700.0,20.11163861801188,4.246151543560306,11464.609167612827,15.128894538227847,5.104936755372551,4.982744079784034,0.8587852118122443,2165,78,660,1125,164.78584950375162,93.11631716483411,0.0014856908851897963,False
0.45,1.1153614988790357,1.2,1395.0,84.54263999999999,0.3,68900.0,0.33,276.0,2700.0,34.622499842009496,7.599210710746561,20517.868919015717,24.042585612994873,10.502020578877923,10.579914229014623,2.902809868131362,3104,104,1028,1550,191.34529921201857,110.4408009013947,0.002329272073427447,False
0.46,1.040936569621149,1.2,1396.0,84.54263999999999,0.3,68900.0,0.33,276.0,2700.0,30.085903421307314,6.715897745214138,18132.923912078175,21.464754415589585,8.809443701406426,8.62114900571773,2.093545956192288,3062,98,958,1575,180.02709955693172,101.92089192326765,0.0019976508783381046,False
0.4700000000000001,0.9339803497838879,1.2,1397.0,84.54263999999999,0.3,68900.0,0.33,276.0,2700.0,24.20752307261231,5.471321539348125,14772.568156239937,18.003933472874007,6.701295448132851,6.203589599738304,1.229973908784726,2190,84,714,1099,167.4743660834487,95.02110838629615,0.0016368186625907806,False
0.4800000000000001,0.9110027920861438,1.2,1398.0,84.54263999999999,0.3,68900.0,0.33,276.0,2700.0,22.882014332747662,5.260060096695556,14202.162261078001,17.297958023781213,6.295745231765116,5.584056308966449,1.03568513506956,2459,84,740,1287,166.2275568751192,93.94436765087723,0.0015663448080218481,False
0.49,0.8256495023757999,1.2,1399.0,84.54263999999999,0.2,68900.0,0.33,276.0,2700.0,18.738181335763002,4.344450937860479,11730.017532223294,14.791709001702088,4.9275682336862685,3.946472334060914,0.5831172958257893,5342,106,1320,3010,168.9379358515801,96.32823020397433,0.001351980363817615,False
0.5,0.9021180766825485,1.2,1400.0,84.54263999999999,0.3,68900.0,0.33,276.0,2700.0,22.092404165873198,5.261301653669151,14205.514464906708,17.028536393048476,6.143256133806392,5.063867772824722,0.8819544801372405,2332,80,674,1239,154.9922364164386,88.49319954713555,0.0014962242524474735,False
0.01,0.4486330576057769,1.2,1401.0,87.56201999999999,0.05,68900.0,0.33,276.0,2700.0,11.63683930562618,0.05818210213302964,157.09167575918002,5.911867338842725,1.137011751042212,5.724971966783455,1.0788296489091824,37769,332,12538,18956,4159.169073640555,2364.946542234007,0.02461537449278398,True
0.02,0.3508611168881842,1.2,1402.0,87.56201999999999,0.08,68900.0,0.33,276.0,2700.0,8.06265805904478,0.08060982542962912,217.64652865999864,4.1923949956653725,0.6450125800326378,3.870263063379408,0.5644027546030087,9939,166,3270,5028,1529.8679259774042,873.6810420852917,0.008049423345675143,True
0.03,0.5450032672399732,1.2,1403.0,87.56201999999999,0.1,68900.0,0.33,276.0,2700.0,15.057789899320818,0.2258102998220479,609.6878095195293,7.841798809678404,1.79785908920848,7.215991089642414,1.572048789386432,12406,196,4082,6277,1696.4262622761148,967.8832302108221,0.011537184781362394,True
0.04,0.47456350196115565,1.2,1404.0,87.56201999999999,0.1,68900.0,0.33,276.0,2700.0,12.057836701053468,0.2410226927345158,650.7612703831926,6.408203335235238,1.296707688131465,5.64963336581823,1.0556849953969492,9833,170,3240,4967,1107.6846725157825,633.179532195491,0.006705432614746047,True
0.05,0.4946156838221015,1.2,1405.0,87.56201999999999,0.1,68900.0,0.33,276.0,2700.0,12.640092503935586,0.3157405132106424,852.4993856687345,6.803610047644507,1.4291536438144083,5.836482456291079,1.113413130603766,10149,174,3340,5133,950.9129443212927,543.6892446183638,0.005744989515760668,True
0.06000000000000001,0.5028954539068667,1.2,1406.0,87.56201999999999,0.1,68900.0,0.33,276.0,2700.0,12.77415260364086,0.3827721887670606,1033.4849096710636,6.969825745017185,1.48617289582158,5.804326858623676,1.1034007070545195,10085,174,3322,5096,784.9477914613111,449.2632063293686,0.0049047131255252835,True
0.06999999999999999,0.4641934745682057,1.2,1407.0,87.56201999999999,0.2,68900.0,0.33,276.0,2700.0,11.13250056197369,0.3889191421489506,1050.0816838021667,6.207682362556578,1.2312964835944895,4.924818199417111,0.8423773414455389,2533,84,832,1279,583.8623284906264,337.03871389902935,0.0036353847503553184,True
0.08,0.533226240181607,1.2,1408.0,87.56201999999999,0.2,68900.0,0.33,276.0,2700.0,13.591984203730036,0.5426070378567756,1465.039002213294,7.593430095077557,1.70697195607571,5.9985541086524785,1.1643649182189344,2985,94,978,1512,582.1479664822355,335.6118241576645,0.004051760137100912,True
0.09,0.5260327468516306,1.2,1409.0,87.56201999999999,0.2,68900.0,0.33,276.0,2700.0,13.12022464431237,0.5888832949644022,1589.9848964038858,7.4434395484561415,1.6528889249448115,5.676785095856228,1.0640056299804095,2879,92,946,1454,520.7349460007125,300.3358881837482,0.00348634074399563,True
0.09999999999999999,0.7237465273210996,1.2,1410.0,87.56201999999999,0.3,68900.0,0.33,276.0,2700.0,21.631305512715286,1.079470880533371,2914.571377440102,12.03929873103386,3.562704730168736,9.592006781681427,2.483233849635365,2225,84,724,1133,647.1494377302544,371.03064473751385,0.005859996689836949,True
0.11,0.5530381449729869,1.2,1411.0,87.56201999999999,0.2,68900.0,0.33,276.0,2700.0,13.820240079239568,0.7573255644768904,2044.779024087604,8.013248779973669,1.8615546872087678,5.806991299265899,1.1042291227318775,3049,94,1000,1543,447.2416428830466,258.0760434506174,0.003092616551388969,True
0.12,0.7236504788126455,1.2,1412.0,87.56201999999999,0.3,68900.0,0.33,276.0,2700.0,21.16735374859317,1.266422110178657,3419.339697482374,12.036827561432313,3.561548492160722,9.130526187160859,2.2951263819820653,2176,82,706,1111,541.0174113859518,309.5170712032042,0.004822815560645047,True
0.13,0.6051892910290693,1.2,1413.0,87.56201999999999,0.3,68900.0,0.33,276.0,2700.0,15.585894668740819,1.0084817674281947,2722.900772056126,9.165504236617714,2.309203451914554,6.420390432123105,1.3007216844863592,1722,72,564,870,432.79913234582494,248.48783713605414,0.0030971897319505637,True
0.14,0.8025100201406632,1.2,1414.0,87.56201999999999,0.3,68900.0,0.33,276.0,2700.0,24.654639626856223,1.7200777537189695,4644.209935041218,14.143806314085895,4.592817761313363,10.510833312770329,2.872740007594393,2234,88,734,1127,506.5057975537613,287.2383698167351,0.005025391169839418,True
0.15000000000000002,0.7587047570020172,1.2,1415.0,87.56201999999999,0.3,68900.0,0.33,276.0,2700.0,22.199751557534654,1.6579127833444816,4476.3645150301,12.954115561506613,3.9994780127717746,9.24563599602804,2.3415652294272933,2161,82,702,1102,452.3684051935775,257.4803455946462,0.00415926444470654,True
0.16,0.5415530235105157,1.2,1416.0,87.56201999999999,0.3,68900.0,0.33,276.0,2700.0,12.474963025971746,0.9894183997383369,2671.4296792935097,7.768674718732901,1.7709292060275317,4.706288307238846,0.7815108062891948,1686,68,554,849,316.11646900813196,182.21333315809693,0.0020519839576282803,True
0.17,0.8524302541825544,1.2,1417.0,87.56201999999999,0.3,68900.0,0.33,276.0,2700.0,26.556067364722384,2.2469759628633463,6066.835099731035,15.558366792797582,5.33392692941269,10.997700571924803,3.0869509665493435,2479,92,816,1249,429.4527316228574,242.17706873125837,0.004576785978402311,True
0.18000000000000002,0.790972473993999,1.2,1418.0,87.56201999999999,0.3,68900.0,0.33,276.0,2700.0,23.123275364747837,2.068880270590148,5585.9767305934,13.825784077310423,4.431470758005488,9.297491287437413,2.3625904874153396,2285,86,748,1157,383.8740101048592,217.23929872482034,0.0036919859537246353,True
0.19,0.6883648234350261,1.2,1419.0,87.56201999999999,0.3,68900.0,0.33,276.0,2700.0,18.023334841369774,1.6978513539228146,4584.198655591599,11.144674579056945,3.152653258173133,6.878660262312829,1.4548019042503184,1748,74,574,881,333.6362446661324,190.18432382641316,0.002637490065074938,True
0.2,0.6013544103056037,1.2,1420.0,87.56201999999999,0.3,68900.0,0.33,276.0,2700.0,14.128845262233499,1.3961293654042035,3769.5492865913493,9.078445933787043,2.2742218836178636,5.050399328446456,0.8780925182136601,1581,68,520,795,279.4275146068197,159.9444385035428,0.0019341926823952288,True
0.21000000000000002,0.6668415403545039,1.2,1421.0,87.56201999999999,0.3,68900.0,0.33,276.0,2700.0,16.683009092525673,1.7323197616719321,4677.263356514217,10.61585078972126,2.918495167007203,6.067158302804412,1.1861754053352707,1587,70,514,810,292.8628155242299,167.39750372979094,0.002214057633396204,True
0.22,0.6939551871373806,1.2,1422.0,87.56201999999999,0.3,68900.0,0.33,276.0,2700.0,17.68029969288467,1.9225318471669774,5190.835987350839,11.283933713814195,3.2153449311073032,6.396365979070476,1.2928130839403258,1654,72,542,835,288.2989909644803,164.41915599737956,0.0022746555586945468,True
0.23,0.7155613167473781,1.2,1423.0,87.56201999999999,0.3,68900.0,0.33,276.0,2700.0,18.45335547757004,2.0966533747097236,5660.964111716254,11.829538810241692,3.4650201480016767,6.623816667328347,1.368366773291953,1731,74,570,870,284.80915548415555,161.64705128149748,0.0022898941677946603,True
0.24000000000000005,0.908081959215382,1.2,1424.0,87.56201999999999,0.3,68900.0,0.33,276.0,2700.0,27.85517881980062,3.3136685404805912,8946.905059297596,17.20916728789196,6.245350511011093,10.646011531908659,2.931681970530502,2550,94,838,1287,317.31163136451505,179.34089336914775,0.0034735463661416696,True
0.25,0.883968080027822,1.2,1425.0,87.56201999999999,0.3,68900.0,0.33,276.0,2700.0,26.31494502594939,3.2566432047687606,8792.936652875653,16.484318853576195,5.839139550918137,9.830626172373194,2.5824963461493766,2467,92,812,1243,298.9009420747374,168.1081648282442,0.0031515979570568642,True
0.26,0.7975430451829515,1.2,1426.0,87.56201999999999,0.2,68900.0,0.33,276.0,2700.0,21.69054953658797,2.7829603514367736,7513.992948879289,14.006485935983788,4.5229071196301955,7.684063600604182,1.739946768193422,4649,122,1546,2324,267.0476388498487,151.42564138122992,0.002453346681453724,False
0.27,0.8962637298527298,1.2,1427.0,87.56201999999999,0.3,68900.0,0.33,276.0,2700.0,26.502618990402606,3.536629584903945,9548.899879240651,16.852092499406073,6.04408207786867,9.650526490996533,2.5074524929647253,2532,92,830,1281,280.49452756298814,158.43033184069282,0.002946852371378824,True
0.28,0.8156919722290656,1.2,1428.0,87.56201999999999,0.3,68900.0,0.33,276.0,2700.0,22.156391942240248,3.0559187106258996,8250.980518689928,14.511249911096058,4.781677753128591,7.645142031144189,1.7257590425026912,2216,84,734,1109,253.33505829269708,143.90715077966732,0.0023521752624751416,False
0.29000000000000004,0.756109986312191,1.2,1429.0,87.56201999999999,0.3,68900.0,0.33,276.0,2700.0,19.1296956882657,2.7227256726462605,7351.3593161449035,12.885158114081236,3.965954554371228,6.244537574184463,1.2432288817249675,1742,74,574,875,233.93263501512118,131.98521356405246,0.0019341209158222246,False
0.3,0.7169232542496479,1.2,1430.0,87.56201999999999,0.3,68900.0,0.33,276.0,2700.0,17.19220064346556,2.5222814287552118,6810.159857639072,11.864323993864998,3.481154922873917,5.327876649600563,0.9588734941187051,1780,72,590,889,215.61062961016253,122.70654912405928,0.0017194752894428957,False
0.31,0.8492352975665611,1.2,1431.0,87.56201999999999,0.3,68900.0,0.33,276.0,2700.0,23.185678283196125,3.531386009400006,9534.742225380016,15.465957201998778,5.284366313115903,7.719721081197347,1.7529803037158973,2225,84,738,1112,239.94881428065065,136.1944672216395,0.0022487282483403814,False
0.32,0.9370449493729383,1.2,1432.0,87.56201999999999,0.3,68900.0,0.33,276.0,2700.0,27.53608029220043,4.3371437080368525,11710.288011699502,18.099094866786317,6.756616050758534,9.436985425414115,2.419472342721682,2459,92,816,1229,245.21244270808145,138.25823039186048,0.0026200551657110205,False
0.33,0.6837480193165897,1.2,1433.0,87.56201999999999,0.3,68900.0,0.33,276.0,2700.0,15.269983007289404,2.4442809194080484,6599.5584824017305,11.030259550311275,3.1014648006682286,4.23972345697813,0.6571838812601802,1444,66,478,721,188.25701840609793,106.47463235290515,0.0014768805075155165,False
0.34,0.9148342683074289,1.2,1434.0,87.56201999999999,0.3,68900.0,0.33,276.0,2700.0,25.90126648179488,4.320897196800668,11666.422431361803,17.414756620582978,6.362245584329924,8.486509861211903,2.041348387529256,2437,90,804,1225,227.39685999672358,128.20888066377066,0.0023219001667548066,False
0.3500000000000001,1.016687200339309,1.2,1435.0,87.56201999999999,0.3,68900.0,0.33,276.0,2700.0,31.26700658490478,5.381928962343231,14531.208198326724,20.654905862249255,8.298785968178645,10.612100722655526,2.916857005835414,2870,100,952,1436,234.52737032326567,131.38998851132402,0.0027478755170176465,False
0.36000000000000004,1.0296306698714823,1.2,1436.0,87.56201999999999,0.3,68900.0,0.33,276.0,2700.0,31.76905856777055,5.620714444301442,15175.928999613894,21.085335908091327,8.568913200369277,10.683722659679223,2.9481987560678347,3066,102,1016,1536,233.7893862379614,132.08730688691202,0.002720820743237048,False
0.37,0.743364094244068,1.2,1437.0,87.56201999999999,0.3,68900.0,0.33,276.0,2700.0,17.11574658147375,3.0603257224511227,8262.879450618031,12.54888618295886,3.803869099437555,4.566860398514891,0.7435433769864321,1541,68,514,764,182.69626864394624,102.56739166010124,0.0014998192780302031,False
0.38,0.8385093021411705,1.2,1438.0,87.56201999999999,0.3,68900.0,0.33,276.0,2700.0,21.256515941449244,3.923814380816837,10594.29882820546,15.15759935103641,5.120134833837025,6.098916590412834,1.1963204530201885,2025,80,672,1011,191.10528606318954,108.18926492679375,0.001749097927543478,False
0.39,0.8077280071866987,1.2,1439.0,87.56201999999999,0.3,68900.0,0.33,276.0,2700.0,19.63111920820687,3.7038308225212933,10000.343220807492,14.288734183384724,4.6669977777595655,5.3423850248221445,0.9631669552382722,1782,76,594,885,182.42656838250042,103.01933618767981,0.0016173990643267018,False
0.4,1.0524748468266192,1.2,1440.0,87.56201999999999,0.3,68900.0,0.33,276.0,2700.0,32.12462642344733,6.290883998136301,16985.386794968013,21.85528363130371,9.059359787949084,10.269342792143622,2.7684757898127836,2952,102,986,1467,211.00677552804933,119.04108735134847,0.0024979463260368507,False
0.4100000000000001,1.0423877589042514,1.2,1441.0,87.56201999999999,0.3,68900.0,0.33,276.0,2700.0,31.30725040405409,6.273638527979033,16938.82402554339,21.513688007383784,8.840628622530005,9.793562396670307,2.566990094550972,2862,100,952,1428,209.41131593444516,117.27840572615418,0.0023800357891846924,False
0.42000000000000004,1.0625922829223413,1.2,1442.0,87.56201999999999,0.3,68900.0,0.33,276.0,2700.0,32.23447404738381,6.614070005604489,17857.98901513212,22.20047577736194,9.282223284129646,10.033998270021872,2.668153278525157,2953,102,988,1465,205.64812003900232,115.42883726333277,0.0024004815703372938,False
0.43,1.0268860159816318,1.2,1443.0,87.56201999999999,0.3,68900.0,0.33,276.0,2700.0,29.97118378778729,6.277285442968292,16948.67069601439,20.993711749725488,8.511167032754999,8.977472038061801,2.233881589786707,2923,98,960,1469,197.9521849140855,111.15199822971867,0.0021802039224347804,False
0.44,0.8592623106104176,1.2,1444.0,87.56201999999999,0.3,68900.0,0.33,276.0,2700.0,21.12692629717078,4.469514832975308,12067.69004903333,15.756835200246522,5.4408998750435815,5.3700910969242575,0.9713850420682739,2075,78,650,1062,172.32809118186228,97.30428424277649,0.0015894714852447808,False
0.45,1.124783440736105,1.2,1445.0,87.56201999999999,0.3,68900.0,0.33,276.0,2700.0,35.18848431509041,7.7265572171897645,20861.704486412364,24.378857675512627,10.730130838746522,10.809626639577786,3.0035736215567574,3283,106,1092,1637,199.47547526064525,113.01028601036455,0.0024533493061781888,False
0.46,0.9467909915389805,1.2,1446.0,87.56201999999999,0.3,68900.0,0.33,276.0,2700.0,25.051409679416523,5.557964184579259,15006.503298363998,18.40329616073772,6.9344910329696425,6.648113518678802,1.3765268483903839,2247,86,742,1122,176.48635380707003,100.02424450921211,0.0017589100179341182,False
0.4700000000000001,0.811365372599685,1.2,1447.0,87.56201999999999,0.2,68900.0,0.33,276.0,2700.0,18.42836300392918,4.11321892320759,11105.691092660494,14.390165572833537,4.719155495996386,4.038197431095645,0.6059365727887958,5231,106,1314,2932,176.8885910313347,100.75524270188582,0.0014164568028492963,False
0.4800000000000001,0.785974597032092,1.2,1448.0,87.56201999999999,0.3,68900.0,0.33,276.0,2700.0,17.172523970658993,3.889782409794293,10502.41250644459,13.689060537315942,4.362713115466587,3.4834634333430508,0.4729307056722938,1803,70,550,934,163.85195721534242,93.58541675033206,0.001323418685808913,False
0.49,1.1308943894983754,1.2,1449.0,87.56201999999999,0.3,68900.0,0.33,276.0,2700.0,34.59196368783883,8.228627614119054,22217.294558121444,24.59815216380305,10.879778359622875,9.993811524035777,2.6511507455038217,3256,104,1020,1672,188.87625073040547,109.00666095520418,0.0022344366409902967,False
0.5,1.0709923926105598,1.2,1450.0,87.56201999999999,0.3,68900.0,0.33,276.0,2700.0,30.89125402988097,7.461014119671096,20144.738123111958,22.489029945651247,9.469920417717432,8.402224084229722,2.0089062980463366,2822,96,912,1422,178.03759648639468,101.66518150744068,0.001971596345170583,False
0.01,0.4538742607305334,1.2,1451.0,90.5814,0.05,68900.0,0.33,276.0,2700.0,11.833441028918422,0.05916511074949026,159.7457990236237,6.010826829498153,1.168256080462902,5.822614199420269,1.109090969713412,37998,334,12598,19095,4265.051923570624,2424.4774521965414,0.025983954025898367,True
0.02,0.5288306912876445,1.2,1452.0,90.5814,0.1,68900.0,0.33,276.0,2700.0,14.59165991870891,0.1458998440262703,393.9295788709298,7.501624558097104,1.673796608551234,7.090035360611806,1.5278967645249637,11549,190,3832,5795,2253.8707049202635,1294.0835864984342,0.017064224184207732,True
0.03,0.5230757848103268,1.2,1453.0,90.5814,0.1,68900.0,0.33,276.0,2700.0,14.15504823300725,0.2122691748273433,573.1267720338269,7.382161510396096,1.6309696093092168,6.772886722611154,1.4187004344818734,11262,186,3714,5685,2193.2886436155527,1249.2198703356569,0.015143425132452697,True
0.04,0.6197268394411211,1.2,1454.0,90.5814,0.1,68900.0,0.33,276.0,2700.0,18.09327116393832,0.3617313819922135,976.6747313789764,9.498887618613287,2.4448642672462437,8.594383545325032,2.08313288525403,14522,216,4780,7346,1628.4403389593247,929.2757168766789,0.011294146338214323,True
0.05,0.4971918146812268,1.2,1455.0,90.5814,0.1,68900.0,0.33,276.0,2700.0,12.739917185432436,0.31823613024773795,859.2375516688925,6.855141019148764,1.4467469730677238,5.884776166283672,1.128510842819986,10767,178,3542,5448,983.036631687955,562.7156109258742,0.0060001026933378405,True
0.06000000000000001,0.4478062646943339,1.2,1456.0,90.5814,0.1,68900.0,0.33,276.0,2700.0,10.710212962430642,0.3208539995308024,866.3057987331665,5.896319654302789,1.132130289574469,4.813893308127853,0.8112762900436665,9313,162,3062,4714,708.0272450552532,406.0579853235327,0.004131990387513021,True
0.06999999999999999,0.6156536373365663,1.2,1457.0,90.5814,0.2,68900.0,0.33,276.0,2700.0,17.260559191242542,0.6034011941733661,1629.1832242680885,9.4049429948971,2.406364847462556,7.8556161963454425,1.80296365328919,3842,108,1258,1949,814.8235304016887,466.95079204000723,0.006270866226159369,True
0.08,0.46705215441191067,1.2,1458.0,90.5814,0.2,68900.0,0.33,276.0,2700.0,11.063554211591834,0.44146983817143554,1191.968563062876,6.262689652060892,1.249120835227686,4.800864559530941,0.8076509970562504,2539,84,834,1282,535.3773363079539,308.9843965525554,0.0033121293156102767,True
0.09,0.6824928512931245,1.2,1459.0,90.5814,0.3,68900.0,0.33,276.0,2700.0,19.877933562366085,0.8929801962768286,2411.046529947437,10.999246216772596,3.0876394392039996,8.87868734559349,2.194659242927171,2040,80,668,1032,711.9335048472698,408.79092500452936,0.0059956235646294225,True
0.09999999999999999,0.5138419566737658,1.2,1460.0,90.5814,0.2,68900.0,0.33,276.0,2700.0,12.46469698371467,0.6211404540833407,1677.07922602502,7.192220603693317,1.563682588426846,5.272476380021353,0.9425421343435052,2826,90,922,1437,475.13914900212916,274.271149807244,0.0030971836632327767,True
0.11,0.5756458373555007,1.2,1461.0,90.5814,0.2,68900.0,0.33,276.0,2700.0,14.739965444372714,0.8079104595592146,2181.3582408098796,8.504362093073796,2.0482430192986536,6.235603351298918,1.240332559739439,3216,98,1056,1626,474.26310206292993,273.6506973806526,0.0034512605127135798,True
0.12,0.6765306634654606,1.2,1462.0,90.5814,0.3,68900.0,0.33,276.0,2700.0,18.940748994199843,1.132825824915055,3058.6297272706483,10.852470176683699,3.0224978643469025,8.088278817516144,1.8896720394318476,1821,76,594,924,524.7202078603334,301.6410007667372,0.004364340042079673,True
0.13,0.6147702294638115,1.2,1463.0,90.5814,0.3,68900.0,0.33,276.0,2700.0,15.992828887898563,1.03493249167345,2794.3177275183148,9.38462303721315,2.398065423627269,6.6082058506854136,1.3631329319538192,1725,72,562,876,453.6093792649671,260.5284347442305,0.003312624997291206,True
0.14,0.716360599540124,1.2,1464.0,90.5814,0.3,68900.0,0.33,276.0,2700.0,20.37004616046301,1.4201562110714432,3834.4217698928965,11.849947604242272,3.474483449948166,8.520098556220736,2.0543272388767226,2049,80,670,1038,472.16357657598627,270.10905343099034,0.004140081008905502,True
0.15000000000000002,0.7817379870205778,1.2,1465.0,90.5814,0.3,68900.0,0.33,276.0,2700.0,23.351995394167812,1.7443310710920097,4709.693891948426,13.573654095552083,4.304962529851958,9.778341298615729,2.560631458759948,2258,88,742,1139,479.51388154274684,271.5633051391217,0.004583164192498454,True
0.16,0.500174138801835,1.2,1466.0,90.5814,0.1,68900.0,0.33,276.0,2700.0,10.934018931420017,0.8661428721741989,2338.585754870337,6.915005487319737,1.4672804375479045,4.019013444100279,0.6011375653737056,9102,160,2978,4597,295.0604766823089,170.0789228897376,0.0018984061537003682,True
0.17,0.5571632145235443,1.2,1467.0,90.5814,0.3,68900.0,0.33,276.0,2700.0,12.904683194586374,1.0866083084017835,2933.8424326848153,8.10190074913441,1.8947925965094872,4.802782445451964,0.8081842881077037,1671,68,550,840,316.6583374963707,181.8647919899998,0.0020871437164198415,True
0.18000000000000002,0.8427042025955775,1.2,1468.0,90.5814,0.3,68900.0,0.33,276.0,2700.0,25.793383937056056,2.3091900420978853,6234.8131136642905,15.277852776807729,5.183971525212593,10.515531160248328,2.874781483114708,2431,90,794,1234,418.4828154210005,237.50166611280898,0.004333424825673568,True
0.19,0.7317284308361782,1.2,1469.0,90.5814,0.3,68900.0,0.33,276.0,2700.0,20.01785524630354,1.8873307923915212,5095.793139457107,12.24547018226173,3.6596230062749826,7.77238506404181,1.7722922138834614,1955,78,638,992,356.1635397648491,202.15170432747985,0.003080096858119887,True
0.2,0.5250833102116754,1.2,1470.0,90.5814,0.3,68900.0,0.33,276.0,2700.0,11.202814014771736,1.1035262406580277,2979.520849776675,7.423740127867121,1.6458312041785508,3.779073886904615,0.542304963520523,1576,64,522,787,257.165816390655,148.06468223903343,0.0016598332207474734,False
0.21000000000000002,0.7600965739400062,1.2,1471.0,90.5814,0.3,68900.0,0.33,276.0,2700.0,20.941466205566275,2.1794577585411963,5884.53594806123,12.99117358211645,4.017533553570436,7.950292623449826,1.8380757950292397,1932,78,634,975,333.6905973330657,189.0802782538117,0.0029633762029819977,True
0.22,0.5813424670750647,1.2,1472.0,90.5814,0.3,68900.0,0.33,276.0,2700.0,12.995366438977483,1.4071891892372415,3799.410810940552,8.630137788097812,2.0970470827454197,4.36522865087967,0.6898578935081783,1459,64,480,733,262.6268816292603,150.30926150818019,0.0017512664815762591,False
0.23,0.7933863814228193,1.2,1473.0,90.5814,0.3,68900.0,0.33,276.0,2700.0,22.128496778017432,2.519294624261185,6802.0954855052,13.892044539798926,4.464924864751126,8.236452238218506,1.9456302404899408,2076,82,682,1047,311.97792635464054,176.38061506982257,0.0029035277841384607,True
0.24000000000000005,0.5441247943402022,1.2,1474.0,90.5814,0.3,68900.0,0.33,276.0,2700.0,11.2784864625695,1.3244654576128563,3576.056735554712,7.8231521600988945,1.790978473176739,3.4553343024706056,0.4665130155638828,1466,62,486,731,224.6210212045659,129.05507294858506,0.0014809564888798356,False
0.25,0.8144517366688651,1.2,1475.0,90.5814,0.3,68900.0,0.33,276.0,2700.0,22.736076470454286,2.8092846353318914,7585.068515396107,14.47649254222771,4.7637019426238165,8.259583928226576,1.954417307291925,2229,84,736,1119,292.83245378702276,165.7081089449662,0.002778020319238144,True
0.26,0.8809908401221443,1.2,1476.0,90.5814,0.3,68900.0,0.33,276.0,2700.0,25.92396380488359,3.3333042063152045,8999.921357051053,16.395838408852402,5.790193548036011,9.52812539603119,2.456889341720806,2431,90,800,1225,296.92735146154774,166.93348943850503,0.0030892987882042097,True
0.27,0.668921953344002,1.2,1477.0,90.5814,0.3,68900.0,0.33,276.0,2700.0,15.67405478343158,2.0747734169628576,5601.888225799716,10.666457920591975,2.940633143892419,5.0075968628396055,0.8658597269295614,1541,68,506,776,239.63864317719458,136.52219979696747,0.001781098145469668,False
0.28,0.7510085516347673,1.2,1478.0,90.5814,0.3,68900.0,0.33,276.0,2700.0,19.089236347830514,2.626516927408538,7091.595704003053,12.750078079869313,3.9005665909874794,6.339158267961201,1.2740496635789413,1763,74,578,890,247.39513474581005,140.44225308439954,0.002059349709108193,False
0.29000000000000004,0.8843482758795798,1.2,1479.0,90.5814,0.3,68900.0,0.33,276.0,2700.0,25.41598316528447,3.634237356813982,9812.440863397751,16.495633915950663,5.845408971419956,8.920349249333807,2.211171614605974,2492,90,818,1259,267.36015193419735,151.26625178759755,0.002727919913546584,False
0.3,0.6008769339374973,1.2,1480.0,90.5814,0.3,68900.0,0.33,276.0,2700.0,12.473785866212292,1.8145192121672287,4899.201872851518,9.067632284395831,2.2698897220843564,3.4061535818164614,0.4553705099171277,1384,62,462,685,195.416369597494,111.93600604426204,0.001394455606709274,False
0.31,0.8626195506413374,1.2,1481.0,90.5814,0.3,68900.0,0.33,276.0,2700.0,23.859068160679534,3.6357614404099334,9816.55588910682,15.854791500946028,5.493963705094263,8.004276659733506,1.8582022646843295,2262,86,748,1134,245.88481923983738,139.6170639415263,0.002390526826884819,False
0.32,0.6317628842358622,1.2,1482.0,90.5814,0.3,68900.0,0.33,276.0,2700.0,13.350963260433174,2.067524982954088,5582.3174539760375,9.778924327725266,2.5608749194862517,3.5720389327079083,0.49334993653216364,1323,62,438,660,188.14278578084628,106.7741752717285,0.0014156375835834539,False
0.33,0.8942234956303298,1.2,1483.0,90.5814,0.3,68900.0,0.33,276.0,2700.0,25.045430185152988,4.057229703755536,10954.520200139947,16.7908043766385,6.009762400881914,8.254625808514486,1.9525326971263777,2293,86,758,1150,237.81572053000934,133.7849150843743,0.0023826260185350113,False
0.34,0.735463834667018,1.2,1484.0,90.5814,0.3,68900.0,0.33,276.0,2700.0,17.289507589326536,2.8568981850810493,7713.625099718834,12.342505156578342,3.705545905749673,4.947002432748194,0.8486477206686236,1709,72,566,854,205.02073507027453,116.39766891376436,0.001649500006310473,False
0.3500000000000001,0.809440199581754,1.2,1485.0,90.5814,0.3,68900.0,0.33,276.0,2700.0,20.45311243960552,3.489497486915858,9421.643214672817,14.336438872517784,4.691503669052938,6.1166735670877355,1.2020061821370804,1849,78,614,922,210.18543485443206,118.88638047880434,0.0018495187112672715,False
0.36000000000000004,0.8934543732017546,1.2,1486.0,90.5814,0.3,68900.0,0.33,276.0,2700.0,24.365935426887297,4.2881522789424595,11578.01115314464,16.76772728502633,5.996857092149292,7.598208141860969,1.7087048132068325,2266,86,752,1132,219.22352398142678,123.253134609319,0.0021385466940892356,False
0.37,0.9742811475493504,1.2,1487.0,90.5814,0.3,68900.0,0.33,276.0,2700.0,28.419058722003616,5.151438468449147,13908.883864812697,19.27420428423746,7.452327705511608,9.144854437766156,2.300889237062461,2799,96,928,1401,227.36120624252544,127.63452499886476,0.002449916418451862,False
0.38,0.8877400122288877,1.2,1488.0,90.5814,0.3,68900.0,0.33,276.0,2700.0,23.664615467427453,4.381353290752699,11829.653885032287,16.596736626482237,5.9015291877273786,7.067878840945216,1.5201758969746795,2124,84,708,1056,209.09844634265798,118.33852604902893,0.001970517032801544,False
0.39,0.8247546709355715,1.2,1489.0,90.5814,0.3,68900.0,0.33,276.0,2700.0,20.419566803084383,3.8575781035225956,10415.460879511009,14.766403693951295,4.9143434709099845,5.653163109133088,1.056765367387389,2069,80,684,1037,191.22208016343112,108.46066271222725,0.001724663130876662,False
0.4,0.9866299033558701,1.2,1490.0,90.5814,0.3,68900.0,0.33,276.0,2700.0,28.419212747021977,5.5498012628512345,14984.463409698334,19.67160400799705,7.692789899734644,8.747608739024926,2.14298863688341,2809,96,932,1405,238.1614044923005,126.91804430369599,0.0022796556082013797,False
0.4100000000000001,0.9010564936915633,1.2,1491.0,90.5814,0.3,68900.0,0.33,276.0,2700.0,23.72916656644415,4.720131341269011,12744.35462142633,16.99647745477467,6.125195948327599,6.73268911166948,1.4050646070585886,2168,84,722,1079,197.10339668081173,111.42711132613123,0.0018736456694343254,False
0.42000000000000004,0.7439579383288704,1.2,1492.0,90.5814,0.3,68900.0,0.33,276.0,2700.0,16.325872895488313,3.273263763706441,8837.81216200739,12.564462750271696,3.811325805855735,3.761410145216617,0.5380620421492943,1485,66,498,732,170.75898415561159,96.92787502867911,0.0013888316181538676,False
0.43,1.0053334922929593,1.2,1493.0,90.5814,0.3,68900.0,0.33,276.0,2700.0,28.77829873633552,6.0208151569061625,16256.200923646638,20.28080931385056,8.066402954081166,8.497489422484957,2.0455877971750036,2977,98,964,1507,200.23943441209727,112.7559372912346,0.0021589449068005417,False
0.44,0.7880913374957149,1.2,1494.0,90.5814,0.2,68900.0,0.33,276.0,2700.0,17.894073697076532,3.758287260954576,10147.375604577355,13.746890137136063,4.391750489078114,4.147183559940469,0.6334632281235382,4992,104,1268,2778,185.48355599688506,105.5119509802575,0.001488473465639976,False
0.45,0.9318242120805255,1.2,1495.0,90.5814,0.3,68900.0,0.33,276.0,2700.0,24.487332283961873,5.31879801018584,14360.754627501768,17.937122928612254,6.662548535723546,6.550209355349619,1.3437505255377058,2253,86,744,1127,186.95841083402908,105.37651988657764,0.0018120341961712532,False
0.46,1.0997350575402514,1.2,1496.0,90.5814,0.3,68900.0,0.33,276.0,2700.0,33.45620510372908,7.491067132171143,20225.881256862085,23.489791708547934,10.130647617618356,9.96641339518115,2.6395804854472136,3140,104,1024,1580,199.47936196323545,112.633920770343,0.002372266714732768,False
0.4700000000000001,0.8853049601810965,1.2,1497.0,90.5814,0.3,68900.0,0.33,276.0,2700.0,21.822872742153923,4.910928711690404,13259.50752156409,16.524122004437725,5.861203710650576,5.2987507377161975,0.9502749989601726,2237,80,672,1171,172.64823248125072,96.96603529227048,0.001636301668863355,False
0.4800000000000001,1.0502025242416138,1.2,1498.0,90.5814,0.3,68900.0,0.33,276.0,2700.0,30.163050459312203,7.007508767071067,18920.27367109188,21.778109090432356,9.009785240651663,8.384941368879847,2.0022764735805962,2670,94,878,1333,186.02105632918094,104.83982705685773,0.0020502133228276517,False
0.49,1.020706298753831,1.2,1499.0,90.5814,0.3,68900.0,0.33,276.0,2700.0,28.328847832966726,6.694164229675378,18074.24342012352,20.788108687430626,8.382067609243283,7.540739145536101,1.6879033795679046,2824,94,890,1449,181.670113398975,102.35744558719708,0.0019339901156872543,False
0.5,1.0007161665572055,1.2,1500.0,90.5814,0.3,68900.0,0.33,276.0,2700.0,27.055508091711577,6.50207763512879,17555.609614847734,20.12959842558412,7.9731091524296005,6.925909666127456,1.4710315173008102,2673,90,818,1384,177.30372776838112,99.95469126651106,0.0018557844769909705,False
0.01,0.5329521843343312,1.6,1501.0,3.01938,0.05,68900.0,0.33,276.0,2700.0,17.621073974590274,0.08810327547784758,237.87884379018845,8.927146897902645,2.0618244348288974,8.693927076687629,1.97372115935105,53916,398,17884,27084,171.69610049892864,97.72582178852404,0.0012329191623338491,False
0.02,0.5574614700371663,1.6,1502.0,3.01938,0.1,68900.0,0.33,276.0,2700.0,18.54251518356011,0.18540839667474535,500.60267102181245,9.509380631286252,2.2877266596488037,9.033134552273857,2.1023182629740584,14422,208,4776,7252,79.61234695977708,45.30444198179723,0.0006658849392808041,False
0.03,0.6357085553318687,1.6,1503.0,3.01938,0.1,68900.0,0.33,276.0,2700.0,22.16886105556562,0.332476367165721,897.6861913474467,11.469228587649235,3.1074807974663465,10.699632467916386,2.7750044303006254,17414,230,5748,8786,71.86926586222427,40.941935278523815,0.0005564453491161553,False
0.04,0.6550138433526449,1.6,1504.0,3.01938,0.1,68900.0,0.33,276.0,2700.0,22.912355424744362,0.45811306720835043,1236.905281462546,11.976432414234665,3.3337783476004286,10.935923010509697,2.875665280392078,18388,236,6060,9292,57.108938558887935,32.544918242349276,0.0004386941276800956,False
0.05,0.6828145114288893,1.6,1505.0,3.01938,0.2,68900.0,0.33,276.0,2700.0,24.117291538610214,0.6026704890774593,1627.2103205091403,12.723290228898245,3.6770677417664834,11.39400130971197,3.074397252689024,4794,122,1584,2412,39.86970431025035,22.798217059003843,0.0003788957622600311,False
0.06000000000000001,0.4774116122915539,1.6,1506.0,3.01938,0.1,68900.0,0.33,276.0,2700.0,14.049364217957168,0.42102853719659766,1136.7770504308137,7.663615411956622,1.601453050925949,6.385748806000546,1.1804245137293514,11211,176,3688,5673,25.08683958125232,14.36927689989632,0.00017268924504142355,False
0.06999999999999999,0.7494525193214268,1.6,1507.0,3.01938,0.2,68900.0,0.33,276.0,2700.0,27.224524649452402,0.9521399852107149,2570.77796006893,14.592585962019156,4.586585766815592,12.631938687433246,3.634445781604877,5647,132,1862,2848,43.46874039351803,25.021105619042466,0.000382060777722812,False
0.08,0.46854922893764867,1.6,1508.0,3.01938,0.2,68900.0,0.33,276.0,2700.0,13.272445442508264,0.5298254874079048,1430.5288160013429,7.469171255899893,1.5343982304354111,5.8032741866083715,1.0045727430275062,2991,88,982,1512,18.500709175708458,10.679571028645407,0.00012915300812057256,False
0.09,0.6495067335225249,1.6,1509.0,3.01938,0.2,68900.0,0.33,276.0,2700.0,21.389440030164703,0.9609979873277673,2594.694565784972,11.830790365908054,3.2682242021082812,9.558649664256649,2.307226214780514,4567,116,1504,2305,21.827875438854946,12.508104696141094,0.00018862607986948676,False
0.09999999999999999,0.484420300758759,1.6,1510.0,3.01938,0.2,68900.0,0.33,276.0,2700.0,13.540446255753727,0.6749279176852929,1822.305377750291,7.818786602624824,1.6557079960922514,5.721659653128903,0.9807800784069585,3164,90,1032,1610,15.096857247290927,8.716130550412787,0.00010976035290227729,False
0.11,0.5382174706386333,1.6,1511.0,3.01938,0.2,68900.0,0.33,276.0,2700.0,15.660163318497274,0.8585213426360653,2318.0076251173764,9.050953846852053,2.109154052922256,6.6092094716452205,1.2506327102861907,3469,96,1134,1762,15.139531309440523,8.738922363071197,0.00011571674381663944,False
0.12,0.6639064029952517,1.6,1512.0,3.01938,0.3,68900.0,0.33,276.0,2700.0,21.398721257014405,1.2803041606839294,3456.821233846609,12.21321581916719,3.4413308196412844,9.185505437847215,2.161026658957355,2206,78,722,1117,17.02006173555834,9.81849104704331,0.0001455803630878833,False
0.13,0.7618611141276509,1.6,1513.0,3.01938,0.3,68900.0,0.33,276.0,2700.0,26.32225637077772,1.706345278060592,4607.132250763599,14.952991410827764,4.769891314250203,11.369264959949955,3.063546036189611,2698,88,878,1375,18.05290513461278,10.40901307774395,0.0001723803835758311,False
0.14,0.7026537700159687,1.6,1514.0,3.01938,0.3,68900.0,0.33,276.0,2700.0,22.90280882327425,1.5974495974682341,4313.113913164232,13.26814381028415,3.9348767778309024,9.6346650129901,2.3374271803626683,2342,80,768,1184,15.369927249301801,8.864160674258711,0.0001367639873240394,False
0.15000000000000002,0.6976664924348244,1.6,1515.0,3.01938,0.3,68900.0,0.33,276.0,2700.0,22.40512892481674,1.6733160858906793,4517.953431904834,13.130245386231783,3.869048990327884,9.274883538584957,2.1957329044372047,2271,80,748,1143,14.40774350860012,8.306009109931292,0.0001252302501814158,False
0.16,0.7937321731004559,1.6,1516.0,3.01938,0.2,68900.0,0.33,276.0,2700.0,27.314246916517085,2.1765611109819623,5876.714999651298,15.896414858629091,5.26142513462232,11.417832057887994,3.084864023640358,5322,130,1758,2679,14.946749772655425,8.614502412455284,0.00014919175706710474,False
0.17,0.7560479660096033,1.6,1517.0,3.01938,0.3,68900.0,0.33,276.0,2700.0,24.99121236640861,2.1139632880066745,5707.700877618021,14.783667749931784,4.683459923558501,10.207544616476827,2.5694966355518263,2628,86,858,1335,16.099585904930816,9.226838247725896,0.00015369045004114603,False
0.18000000000000002,0.7725921972653185,1.6,1518.0,3.01938,0.3,68900.0,0.33,276.0,2700.0,25.63805674551362,2.29521059485907,6197.068606119489,15.267794232265711,4.932039607711941,10.370262513247908,2.636829012852871,2678,90,880,1352,13.46889973098807,7.75509889890709,0.00012520283230961672,False
0.19,0.5747024530581232,1.6,1519.0,3.01938,0.3,68900.0,0.33,276.0,2700.0,15.655219845903728,1.4728804293535385,3976.7771592545537,9.927996663494826,2.4552756720220517,5.727223182408903,0.9823952426685132,1779,68,580,903,9.878148316406794,5.702324569579425,7.667878093551058e-05,False
0.2,0.6698065596689555,1.6,1520.0,3.01938,0.3,68900.0,0.33,276.0,2700.0,19.868054307819772,1.9700502699628308,5319.135728899643,12.371416884517233,3.5138569818208447,7.4966374233025395,1.5438067118580139,2115,76,696,1065,11.135307705570153,6.384771892311518,9.041120238095719e-05,False
0.21000000000000002,0.6720500015861384,1.6,1521.0,3.01938,0.3,68900.0,0.33,276.0,2700.0,19.75963021428233,2.055364979456384,5549.485444532237,12.431799938876257,3.54167924632366,7.327830275406072,1.486314266867276,2125,76,700,1069,10.18986537356866,5.866727420643639,8.639011733583604e-05,False
0.22,0.5387172117946133,1.6,1522.0,3.01938,0.3,68900.0,0.33,276.0,2700.0,13.543335988339248,1.4674658396670357,3962.1577671009964,9.062740870109714,2.113680132029324,4.480595118229534,0.6462142923622882,1491,60,490,750,8.027934459437562,4.624002005723463,6.151726521981042e-05,False
0.23,0.6737691589019381,1.6,1523.0,3.01938,0.3,68900.0,0.33,276.0,2700.0,19.414120229128244,2.207141321138928,5959.281567075105,12.478157288971332,3.5630913032843514,6.935962940156912,1.3559499821454235,2135,76,702,1076,9.381510969156556,5.405624537318639,7.981236677445983e-05,False
0.24000000000000005,0.7919814494058341,1.6,1524.0,3.01938,0.3,68900.0,0.33,276.0,2700.0,25.221817390636524,2.997665168980899,8093.695956248427,15.84392857970665,5.233640860194439,9.377888810929873,2.2359756912135396,2539,86,838,1276,10.279953677682668,5.907332998351647,9.640148908517984e-05,False
0.25,0.561036209778456,1.6,1525.0,3.01938,0.2,68900.0,0.33,276.0,2700.0,13.938154437101302,1.70954438116277,4615.769829139479,9.595562433325703,2.321874163589138,4.342592003775598,0.612329782426368,3027,88,1004,1515,7.367964447024051,4.243872664526027,5.912088895532356e-05,False
0.26,0.705990889277045,1.6,1526.0,3.01938,0.3,68900.0,0.33,276.0,2700.0,20.343903876976526,2.6078964156872857,7041.320322355671,13.360764378520534,3.979308621205251,6.9831394984559925,1.3714122055179652,2173,76,714,1096,8.746761340429957,5.0360554993868,7.63482102787675e-05,False
0.27,0.701575043465213,1.6,1527.0,3.01938,0.3,68900.0,0.33,276.0,2700.0,19.91750426984092,2.64763909762812,7148.625563595924,13.23826399506949,3.9205801975275194,6.679240274771429,1.2729410998993993,2179,76,714,1102,8.415154792026605,4.839811857925325,7.321289346089322e-05,False
0.28,0.5800568995814501,1.6,1528.0,3.01938,0.2,68900.0,0.33,276.0,2700.0,14.207427895169312,1.943063744035926,5246.272108897,10.059524522025955,2.5087864071674773,4.147903373143357,0.5657226631315513,3056,90,1012,1528,7.035226108007669,4.056765745853177,5.534307132300483e-05,False
0.29000000000000004,0.6156572811535123,1.6,1529.0,3.01938,0.3,68900.0,0.33,276.0,2700.0,15.558903523798904,2.2049608087985724,5953.394183756145,10.952342363088402,2.8827071485025324,4.606561160710502,0.67774633970396,1666,64,550,835,7.1063788521550455,4.085358862821778,5.779036512987958e-05,False
0.3,0.9991255802195929,1.6,1530.0,3.01938,0.3,68900.0,0.33,276.0,2700.0,35.759234052502094,5.307336440110701,14329.808388298892,22.588709521725804,9.195572989990708,13.17052453077629,3.8882365498800073,3436,104,1136,1726,10.088035931674893,5.753514840891653,0.00011825248033739304,False
0.31,0.969287958596311,1.6,1531.0,3.01938,0.3,68900.0,0.33,276.0,2700.0,33.64068298197129,5.151911737709955,13910.161691816877,21.550691172270728,8.537121257098699,12.08999180970056,3.385209519388744,3360,102,1110,1689,9.63039463855824,5.482403926225885,0.00010718566837651383,False
0.32,0.6359422852710434,1.6,1532.0,3.01938,0.3,68900.0,0.33,276.0,2700.0,15.905880768288522,2.476311784210942,6686.041817369543,11.475313310065749,3.110162210630676,4.430567458222773,0.633850426419734,1688,66,558,845,6.651547927451779,3.822083592115365,5.553644595723604e-05,False
0.33,0.9287356242524905,1.6,1533.0,3.01938,0.3,68900.0,0.33,276.0,2700.0,30.699784233507387,4.990198121734017,13473.534928681845,20.175790056745203,7.691207819186574,10.523994176762184,2.701009697452557,2967,96,982,1488,8.729212117116349,4.963819402070802,9.127365772625747e-05,False
0.34,1.0006329828150993,1.6,1534.0,3.01938,0.3,68900.0,0.33,276.0,2700.0,34.7675670392127,5.828168291561696,15736.05438721658,22.641744171391355,9.229663234463423,12.125822867821345,3.401494942901727,3311,102,1094,1664,9.003485143859384,5.12713367438568,0.00010229872777429836,False
0.3500000000000001,0.6743127252365653,1.6,1535.0,3.01938,0.2,68900.0,0.33,276.0,2700.0,17.074892292354352,2.8983089611468116,7825.434195096392,12.492830097413403,3.5698779969911363,4.582062194940949,0.6715690358443247,4367,100,1210,2362,6.921931011677231,3.987092382996643,5.6378148799613854e-05,False
0.36000000000000004,0.7019108516948438,1.6,1536.0,3.01938,0.3,68900.0,0.33,276.0,2700.0,18.153872055501242,3.169980872092966,8558.94835465101,13.247562464637513,3.925027276695079,4.90630959086373,0.7550464046021128,1917,70,634,960,6.431500351213337,3.6788846261180566,5.672471304057598e-05,False
0.37,0.8060663311089995,1.6,1537.0,3.01938,0.2,68900.0,0.33,276.0,2700.0,23.041733664408675,4.156633332794085,11222.90999854403,16.268373069471416,5.459783992979555,6.773360594937259,1.3031506601854703,6000,118,1580,3314,7.62825888845363,4.370500695684329,6.81180766337578e-05,False
0.38,0.772117738300662,1.6,1538.0,3.01938,0.3,68900.0,0.33,276.0,2700.0,21.127970908183908,3.899390824496423,10528.355226140342,15.253814538932437,4.924798982487011,5.874156369251471,1.0254081579905878,2279,80,750,1144,6.7860129233623345,3.884053390896202,6.204104853733372e-05,False
0.39,1.0072114447179097,1.6,1539.0,3.01938,0.3,68900.0,0.33,276.0,2700.0,33.86590602912161,6.479614252599854,17494.958482019603,22.873861342705084,9.379373976637789,10.992044686416527,2.899759724037935,3440,102,1146,1715,7.973143323253401,4.533564855331139,8.775169107481633e-05,False
0.4,0.9124530290825601,1.6,1540.0,3.01938,0.3,68900.0,0.33,276.0,2700.0,28.0871387392522,5.483386461297276,14805.143445502647,19.635368191433273,7.367102373957067,8.451770547818928,1.8837159126597909,2760,90,920,1374,7.2560462961951,4.122391180472205,7.39807711428593e-05,False
0.4100000000000001,0.9503342558661876,1.6,1541.0,3.01938,0.3,68900.0,0.33,276.0,2700.0,30.003857485500788,6.006442979675619,16217.396045124171,20.902933584730064,8.134808826067127,9.100923900770724,2.1283658463915085,2790,92,928,1392,7.377584712809088,4.192588048898868,7.709831020355116e-05,False
0.42000000000000004,0.7352032240211837,1.6,1542.0,3.01938,0.3,68900.0,0.33,276.0,2700.0,18.600767060357317,3.750991538328927,10127.677153488103,14.183491104971726,4.381572416488223,4.417275955385591,0.6305808781592956,1932,70,646,957,5.804645381524379,3.318667786725515,5.3049335171464774e-05,False
0.43,1.001914229727311,1.6,1543.0,3.01938,0.3,68900.0,0.33,276.0,2700.0,32.54665833360776,6.831012470319695,18443.733669863177,22.686866929034196,9.258701801561944,9.859791404573564,2.4276893312422496,3023,96,1010,1502,7.380073180708218,4.189997816542044,7.957504539961549e-05,False
0.44,1.0796783444522007,1.6,1544.0,3.01938,0.3,68900.0,0.33,276.0,2700.0,37.07555675804726,7.978213534368136,21541.176542793968,25.502795748781878,11.131430120613764,11.572761009265385,3.1532165862456285,3513,106,1166,1754,7.36623922945737,4.175358023799398,8.694508268333811e-05,False
0.45,0.986400216767026,1.6,1545.0,3.01938,0.2,68900.0,0.33,276.0,2700.0,31.151416083654468,6.818216865116676,18409.185535815024,22.143271541798423,8.91096194737576,9.008144541856044,2.0927450822590847,8132,138,2008,4586,7.294838950959245,4.165083820857697,7.605785314175418e-05,False
0.46,0.8326597410617604,1.6,1546.0,3.01938,0.2,68900.0,0.33,276.0,2700.0,22.574895605407733,4.9883659475572335,13468.58805840453,17.08335299959243,5.903212665451985,5.491542605815301,0.9148467178947515,5918,114,1486,3311,6.505105550393381,3.7277536776850786,5.933488375235937e-05,False
0.4700000000000001,1.1007964260869108,1.6,1547.0,3.01938,0.3,68900.0,0.33,276.0,2700.0,37.6354152300445,8.626876196344691,23292.565730130664,26.293747110915778,11.678332205640329,11.341668119128723,3.051456009295638,4064,108,1268,2094,7.499252025319903,4.27385798249424,8.416209923091866e-05,False
0.4800000000000001,0.9228996846478721,1.6,1548.0,3.01938,0.3,68900.0,0.33,276.0,2700.0,26.898862359367392,6.2241036230843045,16805.079782327623,19.981328191903454,7.574030977074467,6.917534167463938,1.3499273539901626,2900,88,886,1507,6.8027494508262665,3.888681258493129,6.493819799245081e-05,False
0.49,1.0058177534678197,1.6,1549.0,3.01938,0.3,68900.0,0.33,276.0,2700.0,31.353669136013245,7.435245448921787,20075.162712088826,22.8245949598508,9.347529212961721,8.529074176162446,1.912283764039934,3339,96,1032,1725,6.926355830097377,3.9547739022647685,7.153945501662841e-05,False
0.5,1.0819528789516122,1.6,1550.0,3.01938,0.3,68900.0,0.33,276.0,2700.0,35.69371754007399,8.661629997219347,23386.400992492236,25.587446998203355,11.189533355824006,10.106270541870636,2.527903358604659,3974,104,1152,2110,7.022822965031595,4.029810841591305,7.848967106764461e-05,False
0.01,0.4892469125619689,1.6,1551.0,6.03876,0.05,68900.0,0.33,276.0,2700.0,15.63049416608523,0.07815037643532396,211.0060163753747,7.926364827221181,1.6937056274623743,7.704129338864049,1.6155552510270503,50046,374,16580,25170,325.9819230076697,185.45204669106323,0.0021288671201465346,True
0.02,0.3821367978895772,1.6,1552.0,6.03876,0.08,68900.0,0.33,276.0,2700.0,10.965295231911329,0.10963619715829433,296.0177323273947,5.676706759300964,0.9677660021416702,5.288588472610365,0.8581298049833759,14000,192,4616,7070,122.4845419111371,69.92613669256777,0.0007165730318598918,False
0.03,0.6531576266573772,1.6,1553.0,6.03876,0.1,68900.0,0.33,276.0,2700.0,23.071762395889422,0.34601988727057614,934.2536956305556,11.927257402725715,3.3115931469370854,11.144504993163707,2.965573259666509,18640,238,6164,9388,140.47263002046842,80.00980889456922,0.001167620915755623,False
0.04,0.575577888432538,1.6,1554.0,6.03876,0.1,68900.0,0.33,276.0,2700.0,18.938251900253043,0.3786309967185079,1022.3036911399714,9.949451786003724,2.4639763813797737,8.988800114249319,2.0853453846612657,15094,212,4958,7651,96.08309263381408,54.804293051671436,0.0006978067255408191,False
0.05,0.6885357248659986,1.6,1555.0,6.03876,0.2,68900.0,0.33,276.0,2700.0,24.4223200156666,0.6102962010031651,1647.7997427085456,12.879399211846426,3.7503065749801583,11.542920803820174,3.140010373976993,5192,126,1712,2618,79.46489867036149,45.879074029079945,0.0007683386762150151,False
0.06000000000000001,0.7209869854650062,1.6,1556.0,6.03876,0.2,68900.0,0.33,276.0,2700.0,25.9156915247964,0.7770183564017757,2097.9495622847944,13.780430570085946,4.1828075431919824,12.135260954710455,3.405789186790207,5399,128,1780,2723,71.02126413618599,40.55815413321402,0.0006924439706243387,False
0.06999999999999999,0.6146123105075036,1.6,1557.0,6.03876,0.2,68900.0,0.33,276.0,2700.0,20.127939813605,0.7037595159560537,1900.150693081345,10.925681901458319,2.8712762043178257,9.202257912146681,2.167516688361772,4302,112,1412,2178,54.85843855760172,31.372504214450977,0.00044441111551017713,False
0.08,0.41660867743404595,1.6,1558.0,6.03876,0.1,68900.0,0.33,276.0,2700.0,11.177058763649665,0.4460100202535605,1204.2270546846134,6.369261578861912,1.1753037935905857,4.807797184787753,0.7292937733370252,9189,156,3020,4653,30.78458868029001,17.766440165966213,0.0002210205373475975,False
0.09,0.49643473276591205,1.6,1559.0,6.03876,0.2,68900.0,0.33,276.0,2700.0,14.249412381311876,0.6396967431293895,1727.1812064493517,8.087656187184624,1.7512578015909492,6.161756194127252,1.1115610584615596,3182,90,1040,1616,34.79049382082427,20.086235732014554,0.00025040945954606493,False
0.09999999999999999,0.5051463384902989,1.6,1560.0,6.03876,0.2,68900.0,0.33,276.0,2700.0,14.420545138886135,0.7189328618418209,1941.1187269729164,8.284881151341075,1.8225719618992948,6.13566398754506,1.103639100057474,3202,90,1044,1630,31.26292816890455,18.049400250995536,0.00023188766249942602,False
0.11,0.7679038131075004,1.6,1561.0,6.03876,0.3,68900.0,0.33,276.0,2700.0,27.183067675245624,1.4922810822572237,4029.158922094504,15.129901632723476,4.86078178568628,12.053166042522149,3.3685007034290564,2810,92,924,1418,42.34355707049873,24.43780838276747,0.00041623610801322847,False
0.12,0.6417304399771233,1.6,1562.0,6.03876,0.3,68900.0,0.33,276.0,2700.0,20.292040978243193,1.213903343957657,3277.5390286856737,11.62643511537965,3.177020051421354,8.665605862863544,1.963116707463697,2077,76,682,1048,33.13717177407322,19.051736722965977,0.00027338303654384855,False
0.13,0.6578404605642144,1.6,1563.0,6.03876,0.3,68900.0,0.33,276.0,2700.0,20.859099039208576,1.351240051508597,3648.3481390732118,12.05148167409381,3.367737158060661,8.807617365114766,2.0164971065520643,2205,78,722,1116,31.878169714806656,18.40336348213896,0.00026250825318263805,False
0.14,0.7687554834323412,1.6,1564.0,6.03876,0.3,68900.0,0.33,276.0,2700.0,26.44375580003562,1.845315885841385,4982.352891771739,15.154909506729506,4.873678121862989,11.288846293306115,3.028362236021604,2761,92,908,1393,33.805194952986,19.507501372693874,0.0003233236277017348,False
0.15000000000000002,0.6693770681080704,1.6,1565.0,6.03876,0.3,68900.0,0.33,276.0,2700.0,20.97102954816596,1.565758632641869,4227.548308133047,12.359871389322862,3.508546042185059,8.611158158843097,1.9427874095431898,2150,78,712,1076,27.90152684174666,16.09938976946745,0.00023483282456742262,False
0.16,0.5918475025820437,1.6,1566.0,6.03876,0.3,68900.0,0.33,276.0,2700.0,17.036627447347662,1.3543515534484105,3656.7491943107084,10.351691909469638,2.6291132490749916,6.684935537878024,1.274761695626581,1950,72,636,990,24.00515876822736,13.858217892116025,0.00018650427541196807,False
0.17,0.7308144622020264,1.6,1567.0,6.03876,0.3,68900.0,0.33,276.0,2700.0,23.648725476471352,1.999851902362008,5399.600136377422,14.058518399636533,4.319598867028574,9.590207076834819,2.3197469646665665,2399,82,786,1214,26.627886229689434,15.351868658498407,0.00023926875351445287,False
0.18000000000000002,0.4900099611211495,1.6,1568.0,6.03876,0.2,68900.0,0.33,276.0,2700.0,12.267691556679505,1.0918777278639997,2948.069865232799,7.943425678332692,1.699760336921757,4.3242658783468135,0.6078826090577574,2746,82,902,1387,17.410735082780825,10.011764002470294,0.00013021919199617622,False
0.19,0.5450109564693663,1.6,1569.0,6.03876,0.3,68900.0,0.33,276.0,2700.0,14.364458056146212,1.3502580593265745,3645.696760181751,9.2117240420725,2.1711870180030166,5.152734014073712,0.8209289586764421,1530,62,500,774,18.900471746181303,10.907237614407492,0.00014895910096734608,False
0.2,0.884203157054456,1.6,1570.0,6.03876,0.3,68900.0,0.33,276.0,2700.0,31.47466469714728,3.1307113088955787,8452.920534018063,18.71355949942173,6.82547344216844,12.761105197725549,3.6947621332728615,3121,98,1024,1579,26.979924844204717,15.484639659972006,0.0002922619528108474,False
0.21000000000000002,0.5687399069374932,1.6,1571.0,6.03876,0.3,68900.0,0.33,276.0,2700.0,15.006046692290253,1.5562387096469468,4201.844516046756,9.782379260992423,2.396514103240104,5.22366743129783,0.8402753935931571,1564,62,510,793,17.791818143094677,10.2700361778964,0.00013829513742262875,False
0.22,0.8587581224685437,1.6,1572.0,6.03876,0.2,68900.0,0.33,276.0,2700.0,29.449169499206647,3.217107525862449,8686.190319828613,17.90044321850625,6.359685663290599,11.548726280700397,3.14257813742815,5832,138,1924,2940,23.790105399790768,13.66578196815966,0.0002477422254542007,False
0.23,0.8652239759372176,1.6,1573.0,6.03876,0.3,68900.0,0.33,276.0,2700.0,29.562140439248946,3.3741636453028123,9110.241842317593,18.1055225969887,6.476089746615038,11.456617842260247,3.101926101312226,3057,96,1004,1545,23.444287032404755,13.438109572495671,0.00024014403704027297,False
0.24000000000000005,0.6759154175744431,1.6,1574.0,6.03876,0.3,68900.0,0.33,276.0,2700.0,19.30632553744766,2.2878061465982342,6177.076595815232,12.536135747896715,3.5899348542614216,6.770189789550944,1.3021287076631873,2114,76,696,1064,18.117633787055848,10.437026422573245,0.00015442895143030308,False
0.25,0.8474288511974186,1.6,1575.0,6.03876,0.3,68900.0,0.33,276.0,2700.0,28.034857210970532,3.471632227896424,9373.407015320345,17.543642838584308,6.158910875883294,10.491214372386224,2.6872786479868696,2868,92,942,1449,21.04493415930342,12.069430604342827,0.0002101557508016376,False
0.26,0.6377143609968244,1.6,1576.0,6.03876,0.3,68900.0,0.33,276.0,2700.0,17.111510278804385,2.1876852479249065,5906.750169397247,11.52149065819039,3.130538238017206,5.590019620613996,0.9428529900922995,1747,68,578,874,16.087304679928618,9.255854542137932,0.00013274694350106636,False
0.27,0.6757532152064756,1.6,1577.0,6.03876,0.3,68900.0,0.33,276.0,2700.0,18.679699102834107,2.4805354000821915,6697.445580221917,12.531750012329379,3.58790181905524,6.147949090504728,1.1073664189730485,2025,74,670,1014,16.430977010360277,9.440380448048375,0.00013943236275933217,False
0.28,0.6044527421673367,1.6,1578.0,6.03876,0.2,68900.0,0.33,276.0,2700.0,15.252521389554806,2.089376833249936,5641.317449774827,10.667910085046072,2.761587613832724,4.5846113045087336,0.6722107805827884,3117,92,1034,1560,14.099383771612573,8.113923747194672,0.00011636189467347547,False
0.29000000000000004,0.6401979249928504,1.6,1579.0,6.03876,0.2,68900.0,0.33,276.0,2700.0,16.648036486784722,2.362885088431517,6379.789738765096,11.586341024005346,3.159233095329554,5.061695462779376,0.7963480068980369,3499,98,1170,1736,14.44666635764939,8.303909597263669,0.00012142184967600394,False
0.3,0.60387894312778,1.6,1580.0,6.03876,0.3,68900.0,0.33,276.0,2700.0,14.868762176627392,2.1737656587294913,5869.167278569626,10.653428866055995,2.7554705323222963,4.215333310571397,0.581704873592805,1650,64,546,825,13.471363621971738,7.755593113357785,0.00010965007372595878,False
0.31,0.9264895830406139,1.6,1581.0,6.03876,0.3,68900.0,0.33,276.0,2700.0,31.07444403932266,4.754144701599618,12836.190694318968,20.10084742377966,7.645976349088805,10.973596615543002,2.8918316474891874,3009,96,996,1509,18.53878244858828,10.596108751887082,0.00019545393942778437,False
0.32,0.8746843293227575,1.6,1582.0,6.03876,0.3,68900.0,0.33,276.0,2700.0,27.850122214498903,4.387390415604603,11845.954122132429,18.40747275534166,6.648800892920063,9.442649459157241,2.2614104773154597,2687,90,890,1346,17.170074432210495,9.815080751589457,0.00017104343048273557,False
0.33,0.9345104413482992,1.6,1583.0,6.03876,0.3,68900.0,0.33,276.0,2700.0,31.0384245297269,5.046073770610238,13624.399180647642,20.369057807167465,7.8082769561404435,10.669366722559435,2.762203185530206,2995,96,992,1501,17.638811545106098,10.072493944749683,0.000184661630682175,False
0.34,0.6665314145592345,1.6,1584.0,6.03876,0.3,68900.0,0.33,276.0,2700.0,16.906005285759452,2.791702793474646,7537.5975423815435,12.283492290620515,3.4734828527914465,4.622512995138937,0.6817800593168006,1744,66,574,877,13.271903674990268,7.621156724818099,0.0001120836157162897,False
0.3500000000000001,0.9355462727773396,1.6,1585.0,6.03876,0.3,68900.0,0.33,276.0,2700.0,30.59892775191784,5.265015166570512,14215.540949740383,20.403812978550548,7.8293938643187735,10.195114773367294,2.5643786977482614,2982,96,988,1494,16.765973525264016,9.540078917266964,0.00017395056320507158,False
0.36000000000000004,0.8788442493460894,1.6,1586.0,6.03876,0.3,68900.0,0.33,276.0,2700.0,27.139808876623192,4.7874494998949215,12926.113649716288,18.540958708818096,6.725652002089774,8.598850167805097,1.9382025021948524,2585,88,860,1289,15.714819203597878,8.965699928292807,0.00015448839454641893,False
0.37,0.7240387320370748,1.6,1587.0,6.03876,0.2,68900.0,0.33,276.0,2700.0,19.000823363161906,3.40906492706343,9204.47530307126,13.866525910946796,4.224993236000913,5.13429745221511,0.8159283089374827,4793,104,1280,2627,14.074808455106659,8.090957308518007,0.00011800513116852589,False
0.38,0.7255651368059126,1.6,1588.0,6.03876,0.2,68900.0,0.33,276.0,2700.0,18.884292516703585,3.473091930115161,9377.348211310935,13.909676390682954,4.246192092379138,4.974616126020631,0.7731001622639768,4730,102,1244,2608,14.03123006286245,8.065763338227502,0.00011584204967668175,False
0.39,0.8421676030718093,1.6,1589.0,6.03876,0.2,68900.0,0.33,276.0,2700.0,24.49399233200075,4.652091081661003,12560.645920484707,17.379043682264914,6.067042721401787,7.114948649735837,1.4149516397407842,6752,122,1708,3774,14.875670088350924,8.534633379585374,0.00013821126644536692,False
0.4,0.9667207330934673,1.6,1590.0,6.03876,0.3,68900.0,0.33,276.0,2700.0,31.195695085976006,6.1050977306420355,16483.763872733496,21.46242559719174,8.481909107371296,9.733269488784266,2.3768113767292602,3062,96,1022,1523,15.131348366022651,8.620947064656262,0.0001603077759790117,False
0.4100000000000001,0.9556948571605657,1.6,1591.0,6.03876,0.3,68900.0,0.33,276.0,2700.0,30.313193693251996,6.069856902264552,16388.61363611429,21.085220642663817,8.247349380391269,9.22797305058818,2.177492478126717,2953,94,984,1471,14.77915851805588,8.40219746165849,0.0001553209285957485,False
0.42000000000000004,0.8412976592483679,1.6,1592.0,6.03876,0.3,68900.0,0.33,276.0,2700.0,23.817667074882614,4.846540541379246,13085.659461723966,17.35189434937247,6.051935740268839,6.465772725510146,1.205395198889593,2490,82,814,1253,12.89455595302901,7.350309904662226,0.00012781944610069823,False
0.43,1.0419441397992877,1.6,1593.0,6.03876,0.3,68900.0,0.33,276.0,2700.0,34.97514799485181,7.353137747487163,19853.471918215342,24.11741495447451,10.195353056751808,10.857733040377301,2.8422153092646445,3368,102,1112,1688,15.07328307056034,8.555109602501625,0.0001687613871562912,False
0.44,1.1279048822231679,1.6,1594.0,6.03876,0.3,68900.0,0.33,276.0,2700.0,40.18763476343765,8.662870695554021,23389.75087799586,27.32548907219111,12.405057838950984,12.862145691246539,3.742187143396963,3762,110,1246,1885,15.218057481068534,8.639214233723447,0.00018963785458330835,False
0.45,0.8711570623634296,1.6,1595.0,6.03876,0.3,68900.0,0.33,276.0,2700.0,24.757499327284,5.37958559493332,14524.881106319965,18.294628478561656,6.584071930322228,6.462870848722343,1.204486335388908,2719,84,850,1400,13.281348500511038,7.65312546939692,0.00012620904405814403,False
0.46,0.8776579063583344,1.6,1596.0,6.03876,0.3,68900.0,0.33,276.0,2700.0,24.893655692069224,5.521680767489378,14908.53807222132,18.502846309081328,6.703678676425349,6.3908093829878965,1.181997908935971,2687,84,830,1390,12.95259951749204,7.3610047076849545,0.00012524160314561454,False
0.4700000000000001,1.1485168943175654,1.6,1597.0,6.03876,0.3,68900.0,0.33,276.0,2700.0,40.728904806229316,9.35384624674812,25255.384866219923,28.12233825115645,12.976485141785904,12.606566555072867,3.6226388950377846,4261,114,1352,2175,15.311511517199536,8.731891713331544,0.00018136476079740407,False
0.4800000000000001,0.8520474396727966,1.6,1598.0,6.03876,0.2,68900.0,0.33,276.0,2700.0,23.168366680662793,5.328784660195204,14387.718582527052,17.6887096793274,6.240272538191714,5.479657001335394,0.9114878779965103,6042,114,1478,3417,12.892548515917975,7.384811616118496,0.0001178453003716245,False
0.49,1.090280394992347,1.6,1599.0,6.03876,0.3,68900.0,0.33,276.0,2700.0,36.46128066068649,8.686610272466739,23453.847735660194,25.89848126185526,11.403907093055189,10.562799398831231,2.71729682058845,3701,104,1138,1918,14.131900843407715,8.052681303212301,0.00016029157392054676,False
0.5,1.1701130677756262,1.6,1600.0,6.03876,0.3,68900.0,0.33,276.0,2700.0,41.348348464729625,10.075287728383255,27203.27686663479,28.968689263628395,13.592937912878323,12.37965920110123,3.517650184495068,4675,114,1354,2486,14.959441236899218,8.515622680738696,0.00017542518264372707,False
0.01,0.3782139564473612,1.6,1601.0,9.05814,0.04,68900.0,0.33,276.0,2700.0,11.005245930493006,0.055024135257362966,148.56516519488,5.599787896655628,0.9456481782951398,5.405458033837378,0.8906240430377769,55089,376,18168,27831,379.73348065767124,215.59406528751362,0.0020944693985649443,True
0.02,0.40825055935245236,1.6,1602.0,9.05814,0.08,68900.0,0.33,276.0,2700.0,11.995956801188633,0.11994281285106775,323.8455946978829,6.198600648033166,1.122783178208576,5.797356153155468,1.0028403653575082,15311,202,5048,7733,195.05402639024965,111.24870344471448,0.0011854547869385359,False
0.03,0.3966674200134161,1.6,1603.0,9.05814,0.1,68900.0,0.33,276.0,2700.0,11.340620573748506,0.17005275993846336,459.14245183385106,5.96499196178601,1.052340139075714,5.375628611962496,0.8822873791372507,9278,156,3046,4703,119.31504218458876,68.1415216276786,0.0007704481779443031,False
0.04,0.43312219444878064,1.6,1604.0,9.05814,0.1,68900.0,0.33,276.0,2700.0,12.605771290825663,0.25198138452995716,680.3497382308843,6.711605439421003,1.2832999222018224,5.89416585140466,1.0313185376718652,10082,166,3314,5105,103.29602250364124,58.95100517186334,0.000661671678698646,False
0.05,0.3630196130813031,1.6,1605.0,9.05814,0.1,68900.0,0.33,276.0,2700.0,9.683593655528671,0.24182804200041863,652.9357134011303,5.305508226696619,0.8628061182967431,4.378085428832052,0.6209780762963245,7878,140,2586,3993,66.04800198625497,37.84272191689606,0.0004290567941899736,False
0.06000000000000001,0.5356255970994271,1.6,1606.0,9.05814,0.1,68900.0,0.33,276.0,2700.0,16.614192667330535,0.49797339067779983,1344.5281548300595,8.98992194712537,2.0857742550919984,7.624270720205164,1.5878008644141985,13127,194,4304,6665,86.02659042891959,49.244389983455875,0.000612986260539337,False
0.06999999999999999,0.5130571772328583,1.6,1607.0,9.05814,0.2,68900.0,0.33,276.0,2700.0,15.386500591103806,0.5378091431685126,1452.084686554984,8.465629729231335,1.8888262202405701,6.920870861872471,1.3510170770720575,3424,96,1128,1726,66.99207078154727,38.6765144997689,0.0004956895736035314,False
0.08,0.6165572823350879,1.6,1608.0,9.05814,0.2,68900.0,0.33,276.0,2700.0,19.987167479240917,0.7984143688772123,2155.7187959684734,10.975326198498387,2.892574610783026,9.01184128074253,2.094160241905814,4152,110,1364,2100,68.9184619337405,39.7820035088594,0.0005831916607985749,False
0.09,0.6191122637150561,1.6,1609.0,9.05814,0.2,68900.0,0.33,276.0,2700.0,19.877980211105285,0.8929822954700966,2411.0521977692606,11.040685120877866,2.920699825342245,8.83729509022742,2.027717529872149,4176,110,1372,2112,62.0532817605624,35.80472106589401,0.0005201147876392287,False
0.09999999999999999,0.5093001853475321,1.6,1610.0,9.05814,0.2,68900.0,0.33,276.0,2700.0,14.599529169581514,0.727882063376683,1965.2815711170442,8.37959304459722,1.8571826486722312,6.219936124984294,1.1293005852955482,3145,90,1026,1600,48.256258383436325,27.857961338571787,0.0003525502348077994,False
0.11,0.542386737999194,1.6,1611.0,9.05814,0.2,68900.0,0.33,276.0,2700.0,15.845696288875272,0.8687256560068533,2345.559271218504,9.149483513513797,2.1470951458513627,6.6962127753614755,1.2783694898445095,3589,98,1174,1822,45.761481675770014,26.40768754184821,0.00035132919286516773,False
0.12,0.807497109678893,1.6,1612.0,9.05814,0.3,68900.0,0.33,276.0,2700.0,29.162766651901798,1.7461468843771728,4714.596587818367,16.311768201046608,5.483091470812081,12.85099845085519,3.736944586434908,2929,94,960,1483,61.946010134322606,35.73982036365643,0.0006260516790305734,False
0.13,0.6021482732450691,1.6,1613.0,9.05814,0.2,68900.0,0.33,276.0,2700.0,18.15769895702361,1.175649046166576,3174.2524246497555,10.609801306398362,2.7370707271447765,7.547897650625247,1.5614216809782004,3687,102,1212,1863,42.67979028973653,24.60972518997109,0.0003473342635099632,False
0.14,0.6567499336631002,1.6,1614.0,9.05814,0.3,68900.0,0.33,276.0,2700.0,20.573044498190445,1.4343660947123633,3872.788455723381,12.022503400909896,3.354610496606237,8.550541097280549,1.9202444018938738,2084,76,684,1052,44.476869889722245,25.676907921761376,0.0003667849999221611,False
0.15000000000000002,0.8258458736947458,1.6,1615.0,9.05814,0.3,68900.0,0.33,276.0,2700.0,29.407097317100085,2.1984637153119273,5935.852031342204,16.872842023878164,5.787526823444791,12.534255293221921,3.589063108132864,3059,96,1006,1544,50.21032175697904,28.91211552886928,0.0005185396740706058,False
0.16,0.5443269321327857,1.6,1616.0,9.05814,0.3,68900.0,0.33,276.0,2700.0,14.915302888642584,1.184645588752004,3198.5430896304106,9.195483854105719,2.164891529588582,5.719819034536865,0.9802459408365782,1682,66,552,848,33.162396542867725,19.146318165256154,0.00024988313685996125,False
0.17,0.5061780046003169,1.6,1617.0,9.05814,0.3,68900.0,0.33,276.0,2700.0,13.108190172597174,1.1039064015326858,2980.5472841382516,8.308363701147043,1.8311313037843113,4.799826471450132,0.7272249022516255,1425,60,468,717,29.689851550201645,17.113835036653803,0.00021465806510937902,False
0.18000000000000002,0.8113663199665302,1.6,1618.0,9.05814,0.3,68900.0,0.33,276.0,2700.0,27.785814303409516,2.488508775069702,6718.973692688196,16.429378010513467,5.546432539369377,11.35643629289605,3.057923764299675,2841,92,930,1440,41.93789535315914,24.15242972090606,0.00041285937354261444,False
0.19,0.7712455060283387,1.6,1619.0,9.05814,0.3,68900.0,0.33,276.0,2700.0,25.316948872007554,2.390744686833389,6455.0106544501505,15.228129417153987,4.911505316256003,10.088819454853567,2.5207606294226137,2717,90,892,1373,38.360511001087616,22.087826447538806,0.00035355381805145307,False
0.2,0.8267794616514847,1.6,1620.0,9.05814,0.3,68900.0,0.33,276.0,2700.0,28.13942020143577,2.79718685932443,7552.40452017596,16.90161576387002,5.803292535258593,11.23780443756575,3.006105675934163,2975,94,976,1505,38.041709415159495,21.855732174719066,0.00038312604397639166,False
0.21000000000000002,0.7628511136127316,1.6,1621.0,9.05814,0.3,68900.0,0.33,276.0,2700.0,24.38061827615571,2.5405687259530856,6859.535560073331,14.98191245925659,4.78470908192668,9.398705816899122,2.2441403559735944,2402,82,790,1211,34.030123808438994,19.578944373544875,0.00031024688231395445,False
0.22,0.7324823335731834,1.6,1622.0,9.05814,0.3,68900.0,0.33,276.0,2700.0,22.55839762265144,2.459122619440945,6639.631072490552,14.105955040394747,4.34308621677885,8.452442582256694,1.8839635973379054,2266,80,746,1141,31.488596373246217,18.118674324735824,0.00028031156594533356,False
0.23,0.8238741899129955,1.6,1623.0,9.05814,0.2,68900.0,0.33,276.0,2700.0,27.2144100087418,3.1041746457944894,8381.271543645122,16.81214553245402,5.754318767671677,10.40226447628778,2.6501441218771875,5374,130,1780,2698,33.187041121816875,19.0717184523417,0.00032562003929733805,False
0.24000000000000005,0.5544473392426132,1.6,1624.0,9.05814,0.3,68900.0,0.33,276.0,2700.0,13.840659957412791,1.6319262769940526,4406.200947883942,9.436963864247655,2.2591733368060343,4.403696093165136,0.6272470598119817,1453,60,480,727,22.093017398891256,12.715781929088344,0.000178092114017578,False
0.25,0.6223974562445123,1.6,1625.0,9.05814,0.2,68900.0,0.33,276.0,2700.0,16.61141480456547,2.0437019270957903,5517.995203158634,11.12496465817066,2.9571089646169484,5.4864501463948105,0.913407037521158,3342,96,1108,1674,24.317922587445718,14.004217058390033,0.00020046673774109486,False
0.26,0.7203556655538026,1.6,1626.0,9.05814,0.3,68900.0,0.33,276.0,2700.0,21.05380651132723,2.7001837581528774,7290.496147012769,13.762649102342268,4.174113296412444,7.291157408984963,1.4739295382595667,2196,78,724,1104,26.794983376445362,15.411894837760558,0.0002350964797885398,False
0.27,0.6766618183201691,1.6,1627.0,9.05814,0.3,68900.0,0.33,276.0,2700.0,18.7226853432247,2.4863385425346247,6713.114064843487,12.556325950260739,3.599299369452463,6.166359392963962,1.1129608269178384,2011,74,666,1006,24.633286550598523,14.150663298284082,0.0002095489262609809,False
0.28,0.7742878970240226,1.6,1628.0,9.05814,0.2,68900.0,0.33,276.0,2700.0,23.357149602165272,3.224024783015404,8704.86691414159,15.317803411148644,4.957971592771939,8.039346191016628,1.7339468097565347,4902,120,1632,2448,26.613620589425675,15.274699614136782,0.0002433570263544752,False
0.29000000000000004,0.6798716269174852,1.6,1629.0,9.05814,0.3,68900.0,0.33,276.0,2700.0,18.472815095437003,2.6274779866860998,7094.190564052469,12.643311116519774,3.6397423060432508,5.829503978917229,1.012264319357151,2008,74,662,1009,22.679837839673535,13.04157416215842,0.00019825785729423186,False
0.3,0.7142839429959897,1.6,1630.0,9.05814,0.3,68900.0,0.33,276.0,2700.0,19.913764720770185,2.930516040350913,7912.393308947466,13.592147181934054,4.0910683983879395,6.321617538836131,1.1605523580370263,2088,74,686,1053,23.237393842722206,13.341868179077398,0.00020556163944885242,False
0.31,0.9185428695882307,1.6,1631.0,9.05814,0.3,68900.0,0.33,276.0,2700.0,30.608085070067325,4.681859061365043,12641.019465685617,19.836710921765278,7.487291234053778,10.771374148302048,2.805432172688735,3096,96,1024,1554,27.47370585382385,15.708891595341793,0.00028857209829068713,False
0.32,0.6851550300347846,1.6,1632.0,9.05814,0.3,68900.0,0.33,276.0,2700.0,18.13357010676233,2.832742078366753,7648.403611590234,12.78705416799099,3.7069214327652134,5.346515938771342,0.8741793543984602,1913,70,634,956,21.555305805940773,12.355600980737767,0.00018325680403942946,False
0.33,0.9587092738182301,1.6,1633.0,9.05814,0.3,68900.0,0.33,276.0,2700.0,32.4756945727675,5.283223327711934,14264.702984822221,21.188043022780903,8.311063938106896,11.287651549986599,3.0278406103949624,3408,102,1126,1713,26.68288257685981,15.172327435882066,0.0002919677607517487,False
0.34,0.8849458883612518,1.6,1634.0,9.05814,0.3,68900.0,0.33,276.0,2700.0,27.947717170973306,4.668793813961001,12605.743297694702,18.737538489841814,6.83938149278556,9.210178681131492,2.1705876788245595,2700,90,898,1347,24.934589381859972,14.239883014237094,0.00024700213458075617,False
0.3500000000000001,0.7836462533905594,1.6,1635.0,9.05814,0.3,68900.0,0.33,276.0,2700.0,22.317679796249614,3.8157967743285743,10302.65129068715,15.595097821736518,5.1026168492488555,6.722581974513096,1.2868200749202812,2396,82,792,1202,22.833521667670976,13.180171231184882,0.00019565934950799055,False
0.36000000000000004,0.9488204739619699,1.6,1636.0,9.05814,0.3,68900.0,0.33,276.0,2700.0,31.12793800284433,5.505312742614724,14864.344405059755,20.851588254106712,8.103205213542896,10.27634974873762,2.597892470928172,2988,96,988,1500,24.52048839111578,13.921290226022565,0.00025942241766221285,False
0.37,0.6838693536499519,1.6,1637.0,9.05814,0.3,68900.0,0.33,276.0,2700.0,17.145332760093748,3.0657991654958208,8277.657746838717,12.75201078983314,3.6905039508626807,4.393321970260608,0.6247047853668599,1828,68,610,907,17.957773403125174,10.308659035280808,0.00016152425975651214,False
0.38,0.8317180139027983,1.6,1638.0,9.05814,0.3,68900.0,0.33,276.0,2700.0,24.159511525433533,4.475383541773849,12083.535562789391,17.054189325292317,5.8871385418273805,7.105322200141217,1.4117550000535317,2557,84,848,1279,21.48590568860105,12.220735634183535,0.00020510608526448673,False
0.39,0.8363431217112427,1.6,1639.0,9.05814,0.3,68900.0,0.33,276.0,2700.0,24.18826530771636,4.592474311925829,12399.680642199739,17.197635059471693,5.966347524818666,6.990630248244667,1.3738732128928364,2555,84,846,1280,20.640471721238324,11.745549199387339,0.00020190977012971934,False
0.4,0.9308364996875238,1.6,1640.0,9.05814,0.3,68900.0,0.33,276.0,2700.0,29.123599091897518,5.6906785318263395,15364.832035931116,20.24600376967599,7.733668376611069,8.877595322221527,2.0429898447847297,2776,92,924,1384,21.901802251997072,12.443285079257034,0.0002295126626108024,False
0.4100000000000001,0.8554493336243769,1.6,1641.0,9.05814,0.3,68900.0,0.33,276.0,2700.0,24.767532402506458,4.932996337661786,13319.09011168682,17.79590381280475,6.300629901742493,6.971628589701709,1.3676335640807071,2559,84,842,1288,20.0303721307025,11.367707801999535,0.00019969987580492984,False
0.42000000000000004,1.0897599933794644,1.6,1642.0,9.05814,0.3,68900.0,0.33,276.0,2700.0,38.24915798627446,7.8771536327715275,21268.314808483123,25.878993110316433,11.390434552763223,12.370164875958029,3.5132809199916952,3631,108,1208,1813,23.8070199550083,13.495921019585257,0.0002817621447054235,False
0.43,1.044872986050173,1.6,1643.0,9.05814,0.3,68900.0,0.33,276.0,2700.0,35.15599414360163,7.3920196694683336,19958.4531075645,24.223664164857684,10.266144798303406,10.932329978743947,2.8741251288350727,3379,102,1114,1696,22.669314002732136,12.864650369697681,0.00025414364116542443,False
0.44,0.9912269979570534,1.6,1644.0,9.05814,0.3,68900.0,0.33,276.0,2700.0,31.671593888626482,6.789341703095564,18331.222598358025,22.311748857456756,9.018249039986483,9.359845031169726,2.2289073368909182,2993,96,1004,1481,21.13029185172027,12.006015484545374,0.00023048900368105978,False
0.45,0.770158433160257,1.6,1645.0,9.05814,0.2,68900.0,0.33,276.0,2700.0,19.702799009423245,4.24227802341465,11454.150663219556,15.196144526882085,4.894968617578684,4.50665448254116,0.6526905941640333,5556,108,1408,3100,18.768467573967786,10.80082429059228,0.00016288555671805312,False
0.46,1.110400149037924,1.6,1646.0,9.05814,0.3,68900.0,0.33,276.0,2700.0,38.51151618386318,8.653788680601993,23365.22943762538,26.657150183377578,11.932593224307915,11.854366000485602,3.278804543705922,3800,108,1240,1916,22.429885773571325,12.860287230156935,0.0002611219352218423,False
0.4700000000000001,1.0634431307775367,1.6,1647.0,9.05814,0.2,68900.0,0.33,276.0,2700.0,35.29384631789176,8.076607501988704,21806.8402553695,24.902346839152536,10.722269953077088,10.391499478739227,2.645662451088384,9630,150,2390,5419,21.94171899653486,12.467470124830495,0.00024468377007284836,False
0.4800000000000001,1.037461049766884,1.6,1648.0,9.05814,0.3,68900.0,0.33,276.0,2700.0,33.464570809843124,7.799873651198487,21059.658858235915,23.95520029178412,10.087596314339201,9.509370518059004,2.2877226631407144,3196,98,1042,1607,21.07324425845403,12.037005336818273,0.00022769861675662415,False
0.49,1.0410873734427502,1.6,1649.0,9.05814,0.3,68900.0,0.33,276.0,2700.0,33.44288223937513,7.947102659245456,21457.17717996273,24.086374958387708,10.174703365341514,9.356507280987422,2.2276007060960588,3355,98,1048,1727,21.455823786541952,12.259051284858412,0.00022502156192317417,False
0.5,0.9400402468982072,1.6,1650.0,9.05814,0.3,68900.0,0.33,276.0,2700.0,27.411972727184384,6.591193793996949,17796.223243791763,20.554911227137417,7.921427397534752,6.857061500046967,1.3302336035378035,3085,88,878,1652,21.17856920831175,12.099364061723348,0.00019368053375910782,False
0.01,0.584661311095779,1.6,1651.0,12.07752,0.05,68900.0,0.33,276.0,2700.0,20.100193407028062,0.10049887264000154,271.34695612800414,10.173204574631777,2.555366108129458,9.926988832396285,2.4548672354894565,62918,434,20854,31631,809.6854214445137,459.7239028140548,0.0058043347567369,True
0.02,0.4601319383611009,1.6,1652.0,12.07752,0.1,68900.0,0.33,276.0,2700.0,14.14531780635002,0.14143642290267952,381.8783418372347,7.2863203633459905,1.4722988491936828,6.8589974430040295,1.3308624262910034,11265,176,3734,5658,387.43950657794716,221.08790921944987,0.0032595345530036955,True
0.03,0.6977024228711766,1.6,1653.0,12.07752,0.1,68900.0,0.33,276.0,2700.0,25.44613486259162,0.38163547427111116,1030.415780532,13.131236628621727,3.869520783581811,12.314898233969894,3.4878853093107,19643,248,6494,9896,13635.898536931842,7282.516282730941,0.003891006839238399,True
0.04,0.5301118904201868,1.6,1654.0,12.07752,0.1,68900.0,0.33,276.0,2700.0,16.80635587166399,0.3359930761467286,907.1813055961671,8.860650068454202,2.036563197083379,7.945705803209787,1.7005701209366504,13290,196,4370,6729,175.1574965759348,99.85773433490776,0.0012112758474228736,False
0.05,0.5025832033269888,1.6,1655.0,12.07752,0.1,68900.0,0.33,276.0,2700.0,15.350507295497543,0.38350088299963914,1035.4523840990257,8.226655436645943,1.8014113471521593,7.1238518588516,1.4179104641525202,12310,186,4044,6238,132.81572230832725,75.96218529494391,0.0008840426534178087,False
0.06000000000000001,0.45587641396078726,1.6,1656.0,12.07752,0.1,68900.0,0.33,276.0,2700.0,13.143716204523235,0.39385909679358033,1063.4195613426668,7.1945542482309675,1.4414871529752873,5.949161956292268,1.0476280561817068,10788,170,3538,5475,99.21492122994354,56.92134930651327,0.0006498374484441616,False
0.06999999999999999,0.5313841959414256,1.6,1657.0,12.07752,0.2,68900.0,0.33,276.0,2700.0,16.203822871182634,0.5664154229712713,1529.3216420224326,8.890412156925118,2.0478555800084504,7.313410714257516,1.481440157037179,3568,98,1172,1804,156.67835136326397,87.78523397394281,0.0006957586535121214,False
0.08,0.46888432727465,1.6,1658.0,12.07752,0.2,68900.0,0.33,276.0,2700.0,13.286404248124656,0.5303838396325612,1432.0363670079153,7.476487536299691,1.5369023630599297,5.809916711824965,1.0065185234273684,2991,88,982,1512,74.05536096477077,42.748533340291814,0.0005171050373568614,False
0.09,0.5991003711389413,1.6,1659.0,12.07752,0.2,68900.0,0.33,276.0,2700.0,18.90817849805826,0.8493412183829792,2293.221289634044,10.533151347061795,2.7048499614846064,8.375027150996464,1.8555087431016273,3914,104,1274,1997,80.73068482781999,46.59614422963199,0.0006549996838732062,False
0.09999999999999999,0.5171896695878118,1.6,1660.0,12.07752,0.2,68900.0,0.33,276.0,2700.0,14.941865115594831,0.7449988606773499,2011.4969238288447,8.56067523589583,1.9240066099843898,6.381189879699001,1.1790077493070399,3493,96,1146,1768,64.24033337428118,37.08356337799489,0.0004792240446917346,False
0.11,0.7411299197729785,1.6,1661.0,12.07752,0.3,68900.0,0.33,276.0,2700.0,25.703334945382185,1.4108957821147348,3809.418611709784,14.353025694484353,4.466135606921339,11.350309250897832,3.0552398248066046,2680,88,872,1366,81.67068771244263,47.12521675455398,0.0007777937213413335,False
0.12,0.7573186693710796,1.6,1662.0,12.07752,0.3,68900.0,0.33,276.0,2700.0,26.331780635814123,1.576287723411917,4255.976853212176,14.82060788767176,4.702269045544637,11.511172748142362,3.12598132213272,2673,88,868,1365,78.16125808962659,45.107003042983635,0.0007403161586633105,False
0.13,0.4337513598038586,1.6,1663.0,12.07752,0.2,68900.0,0.33,276.0,2700.0,10.937860797675556,0.7063595658089533,1907.170827684174,6.7247842835242,1.2875267771357022,4.213076514151356,0.5811672113267489,2494,78,814,1267,42.953678777304624,24.77361516984291,0.00029799678027204665,False
0.14,0.4846032779709061,1.6,1664.0,12.07752,0.2,68900.0,0.33,276.0,2700.0,12.779458572954335,0.8888150799458362,2399.8007158537575,7.82285422372876,1.6571390279953266,4.956604349225574,0.7683239480494904,2788,84,914,1411,43.447579956959515,25.079541333912335,0.0003215085682091601,False
0.15000000000000002,0.716747353203738,1.6,1665.0,12.07752,0.3,68900.0,0.33,276.0,2700.0,23.3951275360519,1.7475659817333176,4718.428150679957,13.661211267058835,4.124636467778301,9.733916268993063,2.3770704860449836,2370,82,778,1197,59.074196283575965,34.08367142596755,0.0005270179137496181,False
0.16,0.7743147746422816,1.6,1666.0,12.07752,0.3,68900.0,0.33,276.0,2700.0,26.236692514102565,2.0903567587888023,5643.963248729767,15.318596661359097,4.958383309504889,10.918095852743468,2.8680265507160865,2763,90,908,1395,59.51503941252287,34.28199374866915,0.0005696451628952886,False
0.17,0.6450110644291158,1.6,1667.0,12.07752,0.3,68900.0,0.33,276.0,2700.0,19.323213690759093,1.6321834005764646,4406.895181556454,11.712462166394836,3.2153030560256237,7.610751524364257,1.5831196554491591,2022,74,660,1026,47.759923020989795,27.54648748761303,0.00039569234887811515,False
0.18000000000000002,0.8041044488047351,1.6,1668.0,12.07752,0.3,68900.0,0.33,276.0,2700.0,27.37781690431139,2.4517890091508705,6619.83032470735,16.208953345377292,5.427925662803299,11.168863558934099,2.976136653652428,2849,92,934,1442,55.67439811393023,32.041533368182776,0.0005412911693183255,False
0.19,0.7391690124849004,1.6,1669.0,12.07752,0.3,68900.0,0.33,276.0,2700.0,23.607533850615916,2.2283502598011955,6016.5457014632275,14.296835736341746,4.438045761672005,9.31069811427417,2.2096955018708098,2357,82,776,1187,48.310774522283566,27.86195884140868,0.0004346401907835224,False
0.2,0.5857595737852102,1.6,1670.0,12.07752,0.3,68900.0,0.33,276.0,2700.0,15.948484168305331,1.5780932560113874,4260.851791230746,10.200398700033018,2.566553889517892,5.748085468272313,0.9884606335065047,1867,70,614,940,38.412127434367605,22.171685350391403,0.00029925763498103524,False
0.21000000000000002,0.5637273244033596,1.6,1671.0,12.07752,0.3,68900.0,0.33,276.0,2700.0,14.789050374319684,1.5334540962602876,4140.326059902776,9.660653208337136,2.347784464537884,5.128397165982548,0.8143303682775964,1548,62,508,780,35.36385959596732,20.41360297457787,0.00027247960890322223,False
0.22,0.6132201817640588,1.6,1672.0,12.07752,0.3,68900.0,0.33,276.0,2700.0,16.786326174242745,1.8241947601164195,4925.325852314332,10.890206988212897,2.8560909469749003,5.896119186029848,1.0318961868584808,1892,70,618,959,36.607566596002385,21.12086842928334,0.0002923192162091579,False
0.23,0.891594793165684,1.6,1673.0,12.07752,0.3,68900.0,0.33,276.0,2700.0,31.104288268068778,3.5515106456170913,9589.078743166147,18.952815167818798,6.96468066392848,12.15147310024998,3.4131700183113884,3005,96,986,1520,47.467423803532405,27.182594765072235,0.0005096359199934401,False
0.24000000000000005,0.7346763358245926,1.6,1674.0,12.07752,0.3,68900.0,0.33,276.0,2700.0,22.216540669353186,2.6370319624269016,7119.986298552634,14.168462068178627,4.374103262055955,8.04807860117456,1.737071299629053,2303,80,760,1157,39.34267836398135,22.638870412936434,0.0003464773563919223,False
0.25,0.6520623036809883,1.6,1675.0,12.07752,0.3,68900.0,0.33,276.0,2700.0,17.971657078685215,2.2137322113607594,5977.07697067405,11.89828066200683,3.298544820055755,6.073376416678386,1.0848126086949956,1998,72,654,1011,33.44524123598534,19.25711416654109,0.00028415574401437953,False
0.26,0.7050100804101884,1.6,1676.0,12.07752,0.3,68900.0,0.33,276.0,2700.0,20.295810892539087,2.6016443277104178,7024.439684818128,13.33351333229389,3.966217631044814,6.962297560245197,1.3645733033343963,2172,76,714,1095,34.88845659037565,20.088574285485333,0.00030456849953499785,False
0.27,0.6293638655416312,1.6,1677.0,12.07752,0.3,68900.0,0.33,276.0,2700.0,16.54015165854015,2.191696495102515,5917.58053677679,11.304580934861576,3.0352349540063814,5.235570723678574,0.8435384589038666,1780,68,590,889,30.933518065775306,17.799572031902077,0.0002527307640648424,False
0.28,0.8954473917898196,1.6,1678.0,12.07752,0.3,68900.0,0.33,276.0,2700.0,30.025047340291678,4.157530466353103,11225.332259153378,19.078062112320993,7.037939396908307,10.946985227970686,2.8804089305552036,2932,94,966,1477,39.55420121108425,22.658130556106563,0.0004108571642189047,False
0.29000000000000004,0.7011882336391253,1.6,1679.0,12.07752,0.3,68900.0,0.33,276.0,2700.0,19.485940507728838,2.774381171468416,7490.829162964723,13.227556812954049,3.9154615778767226,6.258383694774789,1.1410804064083067,2087,74,688,1049,31.02552465638599,17.832658008118834,0.0002751736739791436,False
0.3,0.7178887396376131,1.6,1680.0,12.07752,0.3,68900.0,0.33,276.0,2700.0,20.08881651525638,2.9567738095238347,7983.289285714353,13.693262842353557,4.140247477491173,6.395553672902823,1.1834736679673385,2126,76,704,1064,32.62735669285975,18.712311302063945,0.0003788598165152911,False
0.31,0.8370477161024954,1.6,1681.0,12.07752,0.3,68900.0,0.33,276.0,2700.0,26.008674058589747,3.968950354586017,10716.165957382245,17.219534942413983,5.978472596559112,8.789139116175765,2.0095222419730954,2679,88,888,1341,34.291339447194346,19.633205344066333,0.00033115125603243794,False
0.32,0.776010581471857,1.6,1682.0,12.07752,0.2,68900.0,0.33,276.0,2700.0,22.5661229043788,3.541950525985388,9563.266420160548,15.368682416952895,4.984403148012122,7.197440487425906,1.442452622026734,5070,118,1606,2595,32.417448143718616,18.560353370371903,0.00030064074935419184,False
0.33,0.6593875925951511,1.6,1683.0,12.07752,0.3,68900.0,0.33,276.0,2700.0,16.767413008415247,2.6913568695937786,7266.663547903202,12.092644471481195,3.3864142257640393,4.674768536934051,0.6950573561702607,1766,66,582,887,25.989140625075596,14.933839979200584,0.0002267423829839715,False
0.34,0.9064472363802002,1.6,1684.0,12.07752,0.3,68900.0,0.33,276.0,2700.0,29.164342584224418,4.875620134213692,13164.174362376969,19.437717125158276,7.249770402331416,9.726625459066142,2.374150268117724,2704,90,896,1354,33.80843115261131,19.329818918066593,0.0003402908771568219,False
0.3500000000000001,0.8212075340712972,1.6,1685.0,12.07752,0.3,68900.0,0.33,276.0,2700.0,24.257498651242187,4.155265073952273,11219.215699671136,16.73021039005724,5.709595847704584,7.527288261184946,1.5543307737523113,2543,84,844,1271,30.67959141287444,17.53540507260814,0.0002891673426656268,False
0.36000000000000004,0.9002597309416863,1.6,1686.0,12.07752,0.2,68900.0,0.33,276.0,2700.0,28.334196673202772,5.002439303279241,13506.58611885395,19.23503396340937,7.130126969631329,9.0991627097934,2.127687666352088,7305,134,1986,3988,33.07918017643255,18.93109820746244,0.00032441961571710626,False
0.37,0.8190767722824697,1.6,1687.0,12.07752,0.2,68900.0,0.33,276.0,2700.0,23.713740902896994,4.280954671914421,11558.577614168938,16.66486947820317,5.6740173879066305,7.048871424693825,1.393062715992209,6295,120,1632,3493,30.762519802734428,17.597563690652397,0.00027848364084604756,False
0.38,0.9519800957580358,1.6,1688.0,12.07752,0.2,68900.0,0.33,276.0,2700.0,30.82022384261845,5.740918882038987,15500.480981505267,20.95882348263476,8.169257691591985,9.86140035998369,2.428338809552998,7757,138,2008,4305,32.781653397098346,18.69084491266449,0.00033556104649226756,False
0.39,0.732083963010856,1.6,1689.0,12.07752,0.3,68900.0,0.33,276.0,2700.0,19.004156303094724,3.5815730560246104,9670.247251266448,14.094618458174436,4.3374690777495495,4.909537844920289,0.7558960217249391,1970,72,654,983,25.107014533019694,14.368043235361013,0.00022358535684343031,False
0.4,0.9191203472691678,1.6,1690.0,12.07752,0.3,68900.0,0.33,276.0,2700.0,28.46107898811544,5.558174511069924,15007.071179888795,19.855851912399604,7.498752018218405,8.605227075715835,1.9405775071484808,2693,90,900,1337,28.979478963008898,16.499921566171942,0.00029886244227589207,False
0.4100000000000001,0.936481224556605,1.6,1691.0,12.07752,0.3,68900.0,0.33,276.0,2700.0,29.21115081805588,5.843938112849423,15778.63290469344,20.435206497524522,7.8484851195683865,8.775944320531359,2.0045470067189637,2768,92,922,1379,29.194460005021735,16.61969150082678,0.0003021908049509118,False
0.42000000000000004,1.042782174241814,1.6,1692.0,12.07752,0.3,68900.0,0.33,276.0,2700.0,35.28264625291082,7.25418616876517,19586.302655665957,24.147794155540637,10.215577009324106,11.134852097370185,2.961390840558936,3420,104,1130,1713,30.60791160740567,17.301888519394897,0.00034464025006422915,False
0.43,0.8914080609034205,1.6,1693.0,12.07752,0.3,68900.0,0.33,276.0,2700.0,26.26068140339325,5.479527430323573,14794.724061873649,18.94675403070294,6.961142127794489,7.3139273726903085,1.4816146974709161,2571,86,848,1289,26.797304689147037,15.232904128307226,0.0002697013682761176,False
0.44,0.8742450258057657,1.6,1694.0,12.07752,0.3,68900.0,0.33,276.0,2700.0,25.128533365348297,5.349868387974355,14444.644647530758,18.393401516226895,6.640717516349691,6.735131849121402,1.2908491283753367,2621,86,848,1325,25.556649133268362,14.561407058363418,0.00025792623372555574,False
0.45,1.126664957324015,1.6,1695.0,12.07752,0.3,68900.0,0.33,276.0,2700.0,39.83430562279635,8.7718670114236,23684.04093084372,27.27789473265409,12.37120579536467,12.55641089014226,3.5993387839410698,3742,110,1242,1871,30.12891982362577,16.972583652670615,0.0003688027574422404,False
0.46,0.9254808028534874,1.6,1696.0,12.07752,0.3,68900.0,0.33,276.0,2700.0,27.46953800333906,6.1141336990814406,16508.16098751989,20.067229175672956,7.625715971324601,7.402308827666104,1.5115822722431602,2658,88,872,1334,25.821577486697066,14.622113356919249,0.0002688971952053424,False
0.4700000000000001,1.116042221186792,1.6,1697.0,12.07752,0.3,68900.0,0.33,276.0,2700.0,38.61128388770534,8.856205330894987,23911.754393416464,26.871726066167973,12.083599739070145,11.739557821537367,3.227394408175158,3804,108,1218,1933,29.814013561624048,16.990981442846365,0.00034321383926505294,False
0.4800000000000001,1.0142178665825483,1.6,1698.0,12.07752,0.3,68900.0,0.33,276.0,2700.0,32.07911921314793,7.467365267991637,20161.88622357742,23.122274915443626,9.540507423665314,8.956844297704308,2.0731421556736773,3385,98,1050,1746,28.3554903280819,16.200034598600283,0.0002933746414212551,False
0.49,0.844068199396637,1.6,1699.0,12.07752,0.2,68900.0,0.33,276.0,2700.0,22.573279839057058,5.284050071167524,14266.935192152316,17.438423938221458,6.100129682522079,5.1348559008356,0.8160796113545548,6227,114,1548,3501,24.880592689454062,14.185458260440006,0.00022898080371004117,False
0.5,0.8811883026217053,1.6,1700.0,12.07752,0.2,68900.0,0.33,276.0,2700.0,24.274440911487293,5.806810840072674,15678.38926819622,18.6163676477118,6.769201351394379,5.658073263775492,0.9623905113217051,6219,116,1526,3512,25.43806929359935,14.571642997945515,0.00023806522732009616,False
0.01,0.6786692903997461,1.6,1701.0,15.0969,0.08,68900.0,0.33,276.0,2700.0,24.951552892058434,0.1247556700651883,336.8403091760084,12.610697708233408,3.624560401168893,12.340855183825026,3.499804731103705,31220,310,10398,15617,1006.7697464044543,575.488400977191,0.009535972344470177,True
0.02,0.3900690221353015,1.6,1702.0,15.0969,0.08,68900.0,0.33,276.0,2700.0,11.274740716940256,0.11273065200858352,304.3727604231755,5.833423087208787,1.0134154223553398,5.441317629731469,0.9006847703467562,14250,194,4702,7191,300.5743815034721,171.54898448134256,0.0018416933267617756,True
0.03,0.42564775983538317,1.6,1703.0,15.0969,0.1,68900.0,0.33,276.0,2700.0,12.500391903981104,0.18744932989194957,506.11319070826386,6.555802957624292,1.2337176084934873,5.944588946356812,1.0462682786015378,9751,164,3208,4933,217.8934501333473,124.10077759645372,0.0014087253035136211,False
0.04,0.6625929246037101,1.6,1704.0,15.0969,0.1,68900.0,0.33,276.0,2700.0,23.308104377210356,0.46602804625765276,1258.2757248956625,12.178116552224331,3.4253120803819153,11.129987824986024,2.9592840341242623,18560,238,6116,9380,281.92313006218234,160.7498479345153,0.0022391842652180285,True
0.05,0.5231868126636287,1.6,1705.0,15.0969,0.1,68900.0,0.33,276.0,2700.0,16.270045726925694,0.4064893437853421,1097.5212282204238,8.699370281905905,1.975761639473646,7.5706754450197895,1.5692722956883038,12963,192,4266,6558,172.44267608626643,98.54805652522649,0.001182190017627454,False
0.06000000000000001,0.631036152697016,1.6,1706.0,15.0969,0.2,68900.0,0.33,276.0,2700.0,21.186231797268135,0.6351345645758675,1714.8633243548422,11.34787937622379,3.0541756534198927,9.838352421044345,2.4190410888440255,4227,112,1388,2139,159.18796719490766,90.9452774677468,0.0013620267084903292,False
0.06999999999999999,0.5946972869093253,1.6,1707.0,15.0969,0.2,68900.0,0.33,276.0,2700.0,19.157278252074235,0.6697863613024786,1808.4231755166923,10.422832950979947,2.6587146582796004,8.734445301094288,1.9889282969771218,4105,108,1346,2080,126.85136900976656,73.23506532543753,0.0010470208358910533,False
0.08,0.7548601991074761,1.6,1708.0,15.0969,0.2,68900.0,0.33,276.0,2700.0,27.25679121201453,1.0891993181881539,2940.8381591080156,14.749175321621887,4.665920860305002,12.507615890392643,3.5767215421168483,5607,132,1846,2832,148.63071229193648,85.01503903282662,0.0013991793981091203,False
0.09,0.6377725248093036,1.6,1709.0,15.0969,0.2,68900.0,0.33,276.0,2700.0,20.800416749568125,0.9344919397005884,2523.1282371915886,11.523007648209306,3.1312084159560882,9.277409101358819,2.1967164762555,4390,114,1442,2221,107.51318743702235,61.62376663170591,0.0009139218671626148,False
0.09999999999999999,0.49792067072177,1.6,1710.0,15.0969,0.2,68900.0,0.33,276.0,2700.0,14.111266742448999,0.7034689420200563,1899.366143454152,8.121161911211075,1.7633004437353068,5.9901048312379235,1.0598315017152506,3174,90,1040,1608,78.80845715422898,45.49841152607873,0.0005696092394346715,False
0.11,0.49313575529624,1.6,1711.0,15.0969,0.2,68900.0,0.33,276.0,2700.0,13.709823489202753,0.751252652024866,2028.3821604671382,8.0134674424832,1.7246992547419429,5.696356046719552,0.9734466027170768,3026,88,998,1523,70.4282261961524,40.65719095547746,0.0005138302886679488,False
0.12,0.5385517962463781,1.6,1712.0,15.0969,0.2,68900.0,0.33,276.0,2700.0,15.468027488970353,0.9244625346012858,2496.0488434234717,9.05883864155033,2.112181336533898,6.4091888474200225,1.1877188019326124,3470,96,1136,1760,69.52904571635526,40.11544961094533,0.0005340918603901319,False
0.13,0.6453426554348638,1.6,1713.0,15.0969,0.3,68900.0,0.33,276.0,2700.0,20.23931412799704,1.3109540322798325,3539.5758871555477,11.721172451842246,3.219188247185013,8.518141676154794,1.9082342149051803,2040,76,672,1026,77.6016144307093,44.79451311571448,0.0006389559580014743,False
0.14,0.5104566346399534,1.6,1714.0,15.0969,0.2,68900.0,0.33,276.0,2700.0,13.854859773774455,0.964093164003246,2603.051542808764,8.40603842475281,1.8668885112508133,5.448821349021646,0.9027953472475674,3005,88,990,1514,57.25080571332371,33.03823070521908,0.0004305870960085857,False
0.15000000000000002,0.5527776568155731,1.6,1715.0,15.0969,0.3,68900.0,0.33,276.0,2700.0,15.484749712082891,1.1542876449353003,3116.576641325311,9.396946758923265,2.2434500217552023,6.087802953159626,1.089162376819902,1689,66,554,852,59.173829622113296,34.14385698563841,0.0004514605236800573,False
0.16,0.652266945172508,1.6,1716.0,15.0969,0.3,68900.0,0.33,276.0,2700.0,19.897666947559525,1.5832347134653593,4274.7337263564705,11.90369215684033,3.3009802556471866,7.993974790719195,1.7177455421818273,2128,76,696,1078,91.04686987692327,52.03132973770783,0.0007183306666076564,False
0.17,0.5590152954855365,1.6,1717.0,15.0969,0.3,68900.0,0.33,276.0,2700.0,15.359315265245826,1.2952520344078366,3497.180492901159,9.546801653990196,2.3025316422832844,5.81251361125563,1.0072796078754478,1687,66,552,853,53.06483736495152,30.635027594290587,0.0004087987531089932,False
0.18000000000000002,0.7629692423888872,1.6,1718.0,15.0969,0.3,68900.0,0.33,276.0,2700.0,25.116731549721454,2.2482913272377747,6070.386583541992,14.985365023240776,4.78647908083009,10.131366526480678,2.5381877535923154,2628,86,858,1335,65.71766593954094,37.840564109182196,0.0006109820442923744,False
0.19,0.6594328573530515,1.6,1719.0,15.0969,0.3,68900.0,0.33,276.0,2700.0,19.582319498359283,1.8459548963368186,4984.078220109411,12.093849685630774,3.3869616236650475,7.488469812728509,1.5410067273282289,2067,74,674,1050,54.83184148159016,31.626430667085714,0.00046142227932687154,False
0.2,0.7019994435417656,1.6,1720.0,15.0969,0.2,68900.0,0.33,276.0,2700.0,21.463433513716012,2.1295881905522602,5749.888114491103,13.250016029443305,3.926201011402582,8.213417484272707,1.7966128208503216,4484,114,1486,2249,54.790182894192235,31.586843867516425,0.000479918207300776,False
0.21000000000000002,0.8226235417452721,1.6,1721.0,15.0969,0.3,68900.0,0.33,276.0,2700.0,27.6487141320656,2.8837187908236253,7786.040735223788,16.7736961089426,5.733316736113528,10.875018023122998,2.8495979452899025,2908,92,958,1465,60.40714713485484,34.76013251103731,0.0006004294755239786,False
0.22,0.6891423426630342,1.6,1722.0,15.0969,0.3,68900.0,0.33,276.0,2700.0,20.37812238674839,2.219292343492041,5992.08932742851,12.895999617039617,3.7581244823398916,7.4821227697087735,1.5388321388478508,2092,76,690,1051,49.680693774133985,28.630563031178355,0.0004286029176990984,False
0.23,0.5914392866434905,1.6,1723.0,15.0969,0.3,68900.0,0.33,276.0,2700.0,15.616752105861366,1.7704439869632391,4780.198764800745,10.341518059228417,2.624889600152939,5.275234046632949,0.8544456131896998,1710,66,562,861,42.3250561507005,24.389402734923358,0.00033517619795336384,False
0.24000000000000005,0.9072669105073514,1.6,1724.0,15.0969,0.3,68900.0,0.33,276.0,2700.0,31.767853193371238,3.7831894653090647,10214.611556334476,19.464639240429758,7.265714028677055,12.30321395294148,3.4825245633679907,2999,96,984,1517,57.83448671457567,33.113100571634526,0.0006290648045511687,False
0.25,0.69738990281815,1.6,1725.0,15.0969,0.3,68900.0,0.33,276.0,2700.0,20.13552598589668,2.48421582476219,6707.3827268579125,13.122615968066729,3.865418355942906,7.012910017829952,1.381202531180716,2172,76,714,1095,44.894719421463115,25.830346294660245,0.0003885540015391039,False
0.26,0.8357582937000301,1.6,1726.0,15.0969,0.3,68900.0,0.33,276.0,2700.0,27.133342719064533,3.490523465158725,9424.413355928556,17.179467176951622,5.956295179071509,9.953875542112911,2.4657717139127837,2907,92,956,1467,50.06065471116197,28.718576309927684,0.000487768800459808,False
0.27,0.6365716929620197,1.6,1727.0,15.0969,0.3,68900.0,0.33,276.0,2700.0,16.865489805439147,2.2356171449338804,6036.166291321477,11.491705590597087,3.1173900192758914,5.373784214842059,0.881772874342011,1758,68,582,879,39.08171825627972,22.475944391601463,0.00032092100559190243,False
0.28,0.6409593613354162,1.6,1728.0,15.0969,0.2,68900.0,0.33,276.0,2700.0,16.872307142613835,2.3161468386782,6253.59646443114,11.606254559351727,3.1680629369827407,5.266052583262107,0.8519160983045406,3617,100,1206,1802,37.25114200879451,21.41026300537163,0.00031464202355035526,False
0.29000000000000004,0.9790872522056113,1.6,1729.0,15.0969,0.3,68900.0,0.33,276.0,2700.0,34.78362202692713,4.992544991752168,13479.871477730854,21.889130370148404,8.749959069111691,12.894491656778722,3.757414077359523,3412,104,1130,1711,50.82794888946112,28.96986078264646,0.0005902140994269876,False
0.3,0.6829590253599985,1.6,1730.0,15.0969,0.3,68900.0,0.33,276.0,2700.0,18.420101286517948,2.7064665252130773,7307.459618075309,12.727223307464493,3.6789067186401065,5.6928779790534545,0.9724401934270293,1893,72,628,945,37.34727059241559,21.46692789453787,0.0003214776796165691,False
0.31,0.9315117453863033,1.6,1731.0,15.0969,0.3,68900.0,0.33,276.0,2700.0,31.370810426195003,4.800081491564833,12960.220027225048,20.26859482674547,7.7473470301862495,11.102215599449533,2.9472655386214166,3082,98,1014,1555,46.751065089425175,26.714253532473897,0.0004945002233892316,False
0.32,0.9209249897079921,1.6,1732.0,15.0969,0.3,68900.0,0.33,276.0,2700.0,30.4947319425178,4.810527972087576,12988.425524636456,19.91572234762421,7.534638741293393,10.579009594893588,2.724110769205817,3025,96,1000,1519,44.61637455513559,25.47255877819002,0.0004652681875182957,False
0.33,0.8792754319141225,1.6,1733.0,15.0969,0.3,68900.0,0.33,276.0,2700.0,27.868056539775147,4.522963052268164,12212.000241124042,18.554819624377192,6.733649528404344,9.313236915397955,2.21068647613618,2672,90,888,1334,42.14368046204782,24.078741555162953,0.0004185043668780357,False
0.34,0.9668283854993169,1.6,1734.0,15.0969,0.3,68900.0,0.33,276.0,2700.0,32.70519052834037,5.477564284713401,14789.423568726184,21.466123542519828,8.48421978816595,11.23906698582054,3.0066555034525484,3320,102,1100,1664,43.69348465478087,24.79174334429115,0.0004775043073240283,False
0.3500000000000001,0.8381374927380694,1.6,1735.0,15.0969,0.3,68900.0,0.33,276.0,2700.0,25.15501709268524,4.312330801204704,11643.2931632527,17.253431458061225,5.997256510520346,7.901585634624016,1.6849257093156425,2594,86,860,1298,37.96554453295352,21.671821301752594,0.00037007328043991636,False
0.36000000000000004,0.7593846842837908,1.6,1736.0,15.0969,0.3,68900.0,0.33,276.0,2700.0,20.90024585235789,3.664328155527163,9893.68601992334,14.88075485620436,4.732950756253313,6.019490996153531,1.0686226007261501,2203,76,724,1111,33.67363047730691,19.300517790903307,0.0003154578018754489,False
0.37,1.0656151541747594,1.6,1737.0,15.0969,0.3,68900.0,0.33,276.0,2700.0,38.05600111905416,6.934272811903498,18722.536592139444,24.982293876965233,10.776445235014513,13.073707242088926,3.8421724231110153,3665,108,1218,1832,43.75561320453525,24.831558686051633,0.00052410584078123,False
0.38,0.8828788970534225,1.6,1738.0,15.0969,0.2,68900.0,0.33,276.0,2700.0,26.904204489749652,4.996875204993914,13491.563053483567,18.670840322529276,6.800720114358846,8.233364167220376,1.8038449093649325,6831,126,1734,3820,39.5730172371266,22.646880195469308,0.0003767792687517753,False
0.39,0.9935618978421854,1.6,1739.0,15.0969,0.3,68900.0,0.33,276.0,2700.0,33.03888895741141,6.318345923616338,17059.53399376411,22.393457953594183,9.070440104450268,10.645431003817226,2.7520941808339305,3237,100,1074,1620,39.574963993998885,22.435828737651185,0.0004295696959825175,False
0.4,0.7556524781450331,1.6,1740.0,15.0969,0.3,68900.0,0.33,276.0,2700.0,19.937091329339648,3.853376979314765,10404.117844149867,14.772178952230332,4.677615434339154,5.1649123771093155,0.8242384550243891,2029,72,674,1012,30.617699520009175,17.540129822739924,0.0002853478743713065,False
0.4100000000000001,0.8638833179281187,1.6,1741.0,15.0969,0.2,68900.0,0.33,276.0,2700.0,25.214645841246277,5.024654592603484,13566.567400029406,18.06291420690647,6.451844999422961,7.151731634339807,1.4271904068194772,6966,124,1712,3938,36.34688053220985,20.838683745254315,0.00034299239202210903,False
0.42000000000000004,0.7765878289334235,1.6,1742.0,15.0969,0.2,68900.0,0.33,276.0,2700.0,20.568435139829575,4.164201835018104,11243.34495454888,15.385747943591392,4.993279606038045,5.182687196238183,0.8290777710199411,5735,110,1442,3208,33.83570490794181,19.415842805194053,0.00029153458543344383,False
0.43,1.1287100416757998,1.6,1743.0,15.0969,0.3,68900.0,0.33,276.0,2700.0,40.51546354219199,8.544305590165306,23069.625093446328,27.356415694402433,12.42707166411315,13.159047847789555,3.8827660739478436,3790,110,1260,1894,39.669279040307316,22.448784255331528,0.000488656390321461,False
0.44,0.8249867008641016,1.6,1744.0,15.0969,0.3,68900.0,0.33,276.0,2700.0,22.579211212936823,4.789017514443841,12930.34728899837,16.846381158514994,5.773041504558734,5.732830054421829,0.9840239901148937,2692,82,820,1402,32.42821187078443,18.65449656172011,0.0003001215359126134,False
0.45,1.1207731272842099,1.6,1745.0,15.0969,0.3,68900.0,0.33,276.0,2700.0,39.44968260233275,8.685326831819289,23450.38244591208,27.052265708477638,12.211154188047754,12.397416893855112,3.525827356228465,3761,110,1250,1878,37.679475117294,21.28910619633695,0.00045565852881626173,False
0.46,0.8671216195600384,1.6,1746.0,15.0969,0.2,68900.0,0.33,276.0,2700.0,24.341594045234707,5.394706588717438,14565.707789537082,18.16591015865305,6.510504858832624,6.175683886581659,1.115798270115186,6556,120,1618,3701,33.26957679752652,19.071310404774543,0.00031261594669139067,False
0.4700000000000001,0.8950852709635608,1.6,1747.0,15.0969,0.3,68900.0,0.33,276.0,2700.0,25.610408622382952,5.800999643544224,15662.699037569406,19.066273778134665,7.031032967792889,6.544134844248287,1.230033324248665,2655,84,816,1377,32.473240152645324,18.581579390734426,0.0003157087363404757,False
0.4800000000000001,0.9996836684244621,1.6,1748.0,15.0969,0.3,68900.0,0.33,276.0,2700.0,31.226581761724443,7.262756279649999,19609.441955054997,22.6083379718261,9.208184959177185,8.618243789898344,1.9454286795271862,2993,94,968,1509,35.71942757557668,20.262348754624195,0.0003606553731139604,False
0.49,1.0339648554221463,1.6,1749.0,15.0969,0.3,68900.0,0.33,276.0,2700.0,33.01593785046567,7.84250128396236,21174.75346669837,23.82904570536732,10.004064898533079,9.186892145098348,2.161563614570719,3324,98,1042,1709,35.09882942456994,20.021167850754985,0.0003710250028010781,False
0.5,1.1038106916635677,1.6,1750.0,15.0969,0.3,68900.0,0.33,276.0,2700.0,37.059263680638075,9.003016532360368,24308.144637372992,26.40755675616424,11.757760011326859,10.651706924473835,2.754743478966491,4190,106,1208,2236,36.279015993365924,20.676439539651728,0.0004030599034077441,False
0.01,0.38192940817821186,1.6,1751.0,18.11628,0.05,68900.0,0.33,276.0,2700.0,11.149997522502039,0.05574789321740857,150.51931168700315,5.6726305900946405,0.9665891342618123,5.477366932407398,0.9108412410444037,35578,302,11796,17878,721.8548155364895,410.96899778748065,0.004257111870564362,True
0.02,0.5508259365059239,1.6,1752.0,18.11628,0.1,68900.0,0.33,276.0,2700.0,18.227607103186,0.1822593158710401,492.1001528518083,9.350258899627699,2.225155386309395,8.8773482035583,2.042896070438355,14277,206,4730,7176,479.04645396124937,271.4735645520665,0.00391246090051824,True
0.03,0.6150213828360755,1.6,1753.0,18.11628,0.1,68900.0,0.33,276.0,2700.0,21.118232328962847,0.31671693626667896,855.1357279200332,10.936115344051487,2.87574773232745,10.18211698491136,2.559030796060771,16620,224,5486,8385,395.17568654199243,225.3096296707275,0.0031501689340313163,True
0.04,0.6503916029042546,1.6,1754.0,18.11628,0.1,68900.0,0.33,276.0,2700.0,22.672418155802468,0.45331432182949666,1223.948668939641,11.854140388301971,3.278703235673579,10.818277767500497,2.8253889138440824,18216,234,5988,9228,339.0086208608617,193.26373313038843,0.0025982446309960887,True
0.05,0.7003229949403103,1.6,1755.0,18.11628,0.2,68900.0,0.33,276.0,2700.0,25.05594922984778,0.626136931357893,1690.569714666311,13.203619979151494,3.9040269407256147,11.852329250696286,3.277890009367722,5076,126,1674,2559,244.63244299190958,140.99564889747535,0.0023802113097370157,False
0.06000000000000001,0.6170252455137544,1.6,1756.0,18.11628,0.2,68900.0,0.33,276.0,2700.0,20.48617075778391,0.6141327333913997,1658.1583801567792,10.987284881343236,2.8977134572147643,9.498885876440674,2.2835807238233645,4306,112,1414,2179,186.37706494853202,106.4522596159927,0.0015722224982148679,False
0.06999999999999999,0.3973567801899711,1.6,1757.0,18.11628,0.1,68900.0,0.33,276.0,2700.0,10.616393109643365,0.3708553813173972,1001.3095295569724,5.978800603638253,1.0564569258654175,4.637592506005112,0.6856015445480204,8627,150,2836,4367,102.30099739966712,58.77786056477863,0.0007054468048955027,False
0.08,0.7693124796325178,1.6,1758.0,18.11628,0.2,68900.0,0.33,276.0,2700.0,28.071931790615544,1.1218049413321953,3028.8733415969273,15.171274627986422,4.8821239061654245,12.900657162629122,3.760318964833229,5847,136,1924,2955,175.22185814573137,100.08749618656346,0.001738428769136084,False
0.09,0.6149696028425178,1.6,1759.0,18.11628,0.2,68900.0,0.33,276.0,2700.0,19.675569359764047,0.8838738071597374,2386.459279331291,10.934794456140391,2.8751814945434626,8.740774903623656,1.9913076873837252,4165,110,1366,2110,123.27672635159408,71.13365237467669,0.001028211076853503,False
0.09999999999999999,0.46876380857951383,1.6,1760.0,18.11628,0.2,68900.0,0.33,276.0,2700.0,12.889933904057242,0.6424023001004688,1734.486210271266,7.47385589845206,1.5360014651222988,5.416078005605183,0.89359916502183,2709,84,892,1365,88.78736121653306,51.21926776187152,0.0006298808962906645,False
0.11,0.710969617881291,1.6,1761.0,18.11628,0.3,68900.0,0.33,276.0,2700.0,24.079599798170484,1.3215903490180942,3568.2939423488547,13.499467512423195,4.046173265149033,10.58013228574729,2.724582916130939,2479,84,814,1252,118.38916953628835,68.25193135502846,0.0010823062722413652,False
0.12,0.5044737253887515,1.6,1762.0,18.11628,0.2,68900.0,0.33,276.0,2700.0,13.992298625635511,0.8359188028011957,2256.9807675632283,8.26958568969659,1.8170045868933677,5.722712935938921,0.9810857840921721,3174,90,1036,1614,79.4632048122838,45.86923493432262,0.00058670510687322,False
0.13,0.6230052077373169,1.6,1763.0,18.11628,0.3,68900.0,0.33,276.0,2700.0,19.151123131924216,1.2402216175351166,3348.598367344815,11.140585869780834,2.9638749249325387,8.010537262143382,1.723653307397422,2094,76,688,1056,91.98546965359975,53.107142951259476,0.0007290717091433178,False
0.14,0.6766946767175153,1.6,1764.0,18.11628,0.3,68900.0,0.33,276.0,2700.0,21.572290635944228,1.5043133243551279,4061.6459757588455,12.557215094410983,3.599711964807444,9.015075541533244,2.095398640452316,2272,80,744,1150,91.69628030801101,52.92595678803094,0.0007652635778109396,False
0.15000000000000002,0.5173357946944562,1.6,1765.0,18.11628,0.2,68900.0,0.33,276.0,2700.0,13.95255667812962,1.0393731673891455,2806.307551950693,8.564043905745505,1.9252577856832693,5.388512772384114,0.8858846182941238,3091,90,1024,1549,64.45442166457816,37.20099850052361,0.000493538381044445,False
0.16,0.6039045916108203,1.6,1766.0,18.11628,0.3,68900.0,0.33,276.0,2700.0,17.592911179525977,1.3988542520226757,3776.9064804612244,10.654075991441344,2.755743784910745,6.938835188084633,1.3568895328880695,1975,72,646,1000,72.12069051390847,41.63519110121067,0.0005752780488398927,False
0.17,0.8179391794225983,1.6,1767.0,18.11628,0.3,68900.0,0.33,276.0,2700.0,28.419505226874293,2.4053681811462604,6494.494089094903,16.630031327503044,5.655079370276607,11.789473899371249,3.249711189130347,2996,94,978,1523,88.06160100206435,50.74695570920803,0.0008924293138331406,False
0.18000000000000002,0.5531705766873081,1.6,1768.0,18.11628,0.2,68900.0,0.33,276.0,2700.0,14.907823355915749,1.3294895897952617,3589.6218924472064,9.406357524569188,2.247144117581644,5.501465831346561,0.9176545277863823,3221,92,1066,1616,58.37729217529839,33.67134890855192,0.00045791331100342885,False
0.19,0.725574075939522,1.6,1769.0,18.11628,0.3,68900.0,0.33,276.0,2700.0,22.89863973555706,2.161005318870607,5834.714360950639,13.909929266701816,4.2463164339651005,8.988710468855245,2.0853111150944934,2384,82,782,1205,73.23395744928165,42.20391313838842,0.0006342713272854924,False
0.2,0.6871247135153439,1.6,1770.0,18.11628,0.3,68900.0,0.33,276.0,2700.0,20.719813887445195,2.0552262279253677,5549.110815398492,12.84082194224798,3.732160818868579,7.878991945197216,1.6769345909432114,2184,78,720,1098,65.35591436700001,37.66530522791778,0.000558482275710333,False
0.21000000000000002,0.879713721914263,1.6,1771.0,18.11628,0.3,68900.0,0.33,276.0,2700.0,30.93783465444487,3.22907644567345,8718.506403318315,18.568913806245494,6.74178500879325,12.368920848199377,3.5127085631197996,3098,98,1016,1568,76.96529737946972,44.260318152367674,0.00082229756884442,False
0.22,0.9128624473629925,1.6,1772.0,18.11628,0.3,68900.0,0.33,276.0,2700.0,32.64687962663371,3.5688556398787328,9635.910227672579,19.64887518188122,7.375144217498947,12.998004444752493,3.8062885776202147,3309,100,1088,1671,75.40799533403913,43.104440184405284,0.0008432372704891548,False
0.23,0.5940676940099887,1.6,1773.0,18.11628,0.2,68900.0,0.33,276.0,2700.0,15.732719285776653,1.7837802126530193,4816.206574163152,10.407098443636894,2.6521574703527193,5.3256208421397595,0.8683772576997,3290,94,1088,1652,55.10425075611593,31.75036972125346,0.00042398971772150326,False
0.24000000000000005,0.6901205042856249,1.6,1774.0,18.11628,0.3,68900.0,0.33,276.0,2700.0,19.993944954032813,2.3703204765884545,6399.865286788827,12.922786988402526,3.770751953479387,7.071157965630286,1.4004314768909327,2179,76,716,1099,55.54034809824407,31.93909299490352,0.0004764754318984873,False
0.25,0.7206024326448921,1.6,1775.0,18.11628,0.3,68900.0,0.33,276.0,2700.0,21.283641901073977,2.6277303141593533,7094.871848230254,13.769598238830307,4.177510322674742,7.514043662243671,1.5497800085153886,2187,78,722,1098,56.08419157948447,32.2956395671683,0.0004875743315101845,False
0.26,0.6034771083239181,1.6,1776.0,18.11628,0.3,68900.0,0.33,276.0,2700.0,15.578837747012988,1.988437818791959,5368.782110738289,10.643292510759274,2.7511916505295786,4.935545236253715,0.7627538317376197,1692,66,560,846,46.4436596644991,26.649593098499608,0.0003705937662468881,False
0.27,0.8885342822306009,1.6,1777.0,18.11628,0.3,68900.0,0.33,276.0,2700.0,29.879470085822494,3.9925044827856366,10779.76210352122,18.853584655768454,6.906827273930336,11.02588543005404,2.9143227911446994,2931,94,964,1479,61.07229423303732,34.92282412815474,0.0006328521743946291,False
0.28,0.724724654569916,1.6,1778.0,18.11628,0.3,68900.0,0.33,276.0,2700.0,20.842146130240295,2.8719242969459073,7754.19560175395,13.885909254598415,4.234511245635642,6.9562368756418795,1.3625869486897346,2225,78,734,1118,50.36179825599755,28.945228118760845,0.00044378149522625434,False
0.29000000000000004,0.5957067514725094,1.6,1779.0,18.11628,0.2,68900.0,0.33,276.0,2700.0,14.695791802414611,2.0798096091978504,5615.485944834196,10.448081834918222,2.6692488805639725,4.247709967496389,0.5894392713661221,3105,90,1026,1556,40.4612511521482,23.244411023297094,0.0003334502478979082,False
0.3,0.7885251255746822,1.6,1780.0,18.11628,0.3,68900.0,0.33,276.0,2700.0,23.650774978608368,3.49106757902664,9425.882463371929,15.74053497539279,5.1790578796318725,7.910240003215577,1.6879903006052324,2446,84,810,1225,50.657325894788634,29.044560933612754,0.00046798879093366125,False
0.31,0.837979808339274,1.6,1781.0,18.11628,0.3,68900.0,0.33,276.0,2700.0,26.059392064797787,3.976811645548264,10737.391442980312,17.248524980631178,5.994536300398618,8.81086708416661,2.0177246548503542,2668,88,884,1336,51.715482595317816,29.596262385529336,0.0004964271974895513,False
0.32,0.7956404698354408,1.6,1782.0,18.11628,0.3,68900.0,0.33,276.0,2700.0,23.578310909747863,3.7039006068443636,10000.531638479782,15.953712884371855,5.291814867458307,7.624598025376008,1.5879142606139438,2370,82,786,1185,48.316128234768875,27.68347903203823,0.0004486343130717114,False
0.33,0.8385245455033163,1.6,1783.0,18.11628,0.3,68900.0,0.33,276.0,2700.0,25.62735231438878,4.1532468550793755,11213.766508714314,17.265477566988395,6.003936829993983,8.361874747400385,1.8506899749146077,2587,86,860,1291,48.89152187112064,27.98333876712798,0.00046885232014741066,False
0.34,0.7064608865604203,1.6,1784.0,18.11628,0.3,68900.0,0.33,276.0,2700.0,18.745481040494553,3.10441367177961,8381.916913804946,13.373831472812938,3.9855912146989394,5.371649567681615,0.8811775429193296,1920,70,632,966,41.61033260814333,23.80015292633328,0.0003606457383685948,False
0.3500000000000001,1.0006461025298052,1.6,1785.0,18.11628,0.3,68900.0,0.33,276.0,2700.0,34.50306580434223,5.948239325744781,16060.24617951091,22.642206010423152,9.229960290716992,11.860859793919076,3.2817209649722106,3343,102,1102,1684,52.64144903154537,29.88899443015342,0.0005935039368934296,False
0.36000000000000004,0.8803842972256958,1.6,1786.0,18.11628,0.3,68900.0,0.33,276.0,2700.0,27.224931391679867,4.802771552605111,12967.4831920338,18.59048697881726,6.754244096538776,8.634444412862607,1.951472543933665,2592,88,862,1293,47.17660780414622,26.949664804341996,0.0004647216695723259,False
0.37,0.925942579118287,1.6,1787.0,18.11628,0.3,68900.0,0.33,276.0,2700.0,29.555474583434876,5.361675402813782,14476.523587597212,20.08261499231157,7.634986093654772,9.472859591123306,2.27331069084099,2770,92,922,1381,47.17155774945367,26.842389413580044,0.00048767431889197756,False
0.38,0.7208623868524624,1.6,1788.0,18.11628,0.3,68900.0,0.33,276.0,2700.0,18.66369385279819,3.4311781839731377,9264.181096727472,13.776920389178004,4.181090739348581,4.886773463620186,0.7499125553754431,1959,72,652,975,36.625811754823616,20.952381292853122,0.0003360242734277758,False
0.39,1.053428915280424,1.6,1789.0,18.11628,0.3,68900.0,0.33,276.0,2700.0,36.7357320210885,7.039230321033396,19005.92186679017,24.535280825627773,10.474732527865998,12.20045119546073,3.4355022068326013,3641,106,1214,1814,49.30412154042455,27.961172887819014,0.0005759322183500503,False
0.4,1.0396457610783287,1.6,1790.0,18.11628,0.2,68900.0,0.33,276.0,2700.0,35.606097691642795,6.9871782517753935,18865.381279793564,24.03418807151325,10.140017772292962,11.571909620129546,3.1528395205175688,9569,154,2390,5382,50.139206405687496,28.59866159704192,0.0005464349345127927,False
0.4100000000000001,0.7242840014871437,1.6,1791.0,18.11628,0.3,68900.0,0.33,276.0,2700.0,18.27421910409378,3.601867111487167,9725.04120101535,13.873455571687686,4.228395120971608,4.400763532406096,0.6265280094844408,1884,70,630,933,34.666423883033275,19.827519202511752,0.0003180437349678978,False
0.42000000000000004,0.9656288057421747,1.6,1792.0,18.11628,0.3,68900.0,0.33,276.0,2700.0,30.651336690357297,6.281611160628927,16960.350133698103,21.424933488724538,8.458494169892704,9.22640320163276,2.1768830092637774,3040,96,1018,1507,43.17906888037229,24.636336096445667,0.0004631143431944133,False
0.43,0.8755182325648696,1.6,1793.0,18.11628,0.1,68900.0,0.33,276.0,2700.0,25.40728932355716,5.296048133158811,14299.32995952879,18.434196677867558,6.664162085498128,6.973092645689601,1.3681139523393169,40946,242,6576,25974,45.489483776011355,25.60125668234635,0.0004046166804315894,False
0.44,0.9051595109186683,1.6,1794.0,18.11628,0.3,68900.0,0.33,276.0,2700.0,26.790777425538483,5.715562081216359,15432.01761928417,19.39545601232589,7.224767173903723,7.395321413212592,1.5092050926873641,2547,86,840,1277,52.44656803607649,30.277806309347294,0.0004174831383993849,False
0.45,1.040547934383324,1.6,1795.0,18.11628,0.3,68900.0,0.33,276.0,2700.0,34.38615865028041,7.546033942607516,20374.29164504029,24.066840954481023,10.16171550292009,10.319317695799384,2.6156815603125745,3408,102,1098,1729,42.45789566344272,24.1684493607551,0.00048502521190425764,False
0.46,0.9058045383990372,1.6,1796.0,18.11628,0.2,68900.0,0.33,276.0,2700.0,26.395797313905664,5.867173340511761,15841.368019381754,19.416619584493503,7.237284601006062,6.979177729412161,1.3701112604943004,7475,126,1874,4192,40.8013823040972,23.31379994032973,0.0003967507267071858,False
0.4700000000000001,1.1634806946457823,1.6,1797.0,18.11628,0.3,68900.0,0.33,276.0,2700.0,41.72251075074719,9.587343643709824,25885.827838016525,28.707520333955497,13.401673452529321,13.014990416791694,3.8143298088194975,4294,114,1366,2191,45.37599778127914,25.796638589851415,0.0005588960619730648,False
0.4800000000000001,1.0248446177140391,1.6,1798.0,18.11628,0.3,68900.0,0.33,276.0,2700.0,32.709176173676056,7.618578938518261,20570.163133999304,23.5014024484174,9.788234018365253,9.207773725258654,2.1696550798469927,3313,98,1044,1697,42.87220331763395,24.353973247230414,0.00044751422307257456,False
0.49,1.101973234025743,1.6,1799.0,18.11628,0.3,68900.0,0.33,276.0,2700.0,37.19662568576551,8.866769803611092,23940.27846974995,26.33815268332034,11.709301020983865,10.85847300244517,2.8425312173727733,3980,106,1206,2079,43.46304561196739,24.923068055196506,0.000489361107108534,False
0.5,0.9686082240570705,1.6,1800.0,18.11628,0.3,68900.0,0.33,276.0,2700.0,28.997763726685506,6.987641543872073,18866.632168454595,21.527304621228502,8.52248045694609,7.470459105457003,1.534838913074017,3304,92,960,1752,40.708970112228975,23.24369948721989,0.00040308786748520476,False
0.01,0.646039151216333,1.6,1801.0,21.135659999999998,0.08,68900.0,0.33,276.0,2700.0,23.217312548862086,0.1160844683492086,313.42806454286324,11.739477112413468,3.227358368203334,11.477835436448618,3.1112738998541256,28314,294,9434,14157,146489.05578533845,77273.61231563089,0.0405454668928106,True
0.02,0.3877335639956472,1.6,1802.0,21.135659999999998,0.08,68900.0,0.33,276.0,2700.0,11.183303211850555,0.11181627695768694,301.9039477857547,5.787117370013192,0.9998458061356666,5.396185841837363,0.8880295291779797,14072,192,4642,7103,430.4150647815821,245.59163766094417,0.0025553617634359424,True
0.03,0.49001222187911836,1.6,1803.0,21.135659999999998,0.1,68900.0,0.33,276.0,2700.0,15.227208823492317,0.22835158368461897,616.5492759484712,7.943476247912963,1.6997782951418225,7.2837325755793545,1.4714267114572035,12160,184,4010,6139,370.77389002182827,211.6532076909052,0.0024818531568297033,True
0.04,0.5544893876533179,1.6,1804.0,21.135659999999998,0.1,68900.0,0.33,276.0,2700.0,17.93649387878836,0.35859583628921604,968.2087579808833,9.437972538611671,2.259570167344824,8.49852134017669,1.9009743310556078,14304,204,4696,7254,323.43150453273734,184.40717279248773,0.002290872057291939,True
0.05,0.7128113003787613,1.6,1805.0,21.135659999999998,0.2,68900.0,0.33,276.0,2700.0,25.734882130315057,0.6431102538700748,1736.397685449202,13.5509330631099,4.071082376710927,12.183949067205157,3.427972122840852,5180,128,1708,2612,288.7906155689425,166.73311982917198,0.0028647348352858065,True
0.06000000000000001,0.368971423925308,1.6,1806.0,21.135659999999998,0.1,68900.0,0.33,276.0,2700.0,9.725837171259144,0.2913227257956568,786.5713596482734,5.420089912817541,0.8947240423778205,4.305747258441603,0.6034013165821637,8064,142,2640,4098,131.36890654414574,75.56522543175421,0.0008635771749586543,False
0.06999999999999999,0.4177970853132877,1.6,1807.0,21.135659999999998,0.2,68900.0,0.33,276.0,2700.0,11.410170942987126,0.3986376054844288,1076.3215348079577,6.393669751785646,1.1828875741531248,5.016501191201479,0.7842499686686961,2539,80,834,1282,133.2149930698607,76.8688472696732,0.0008803536933751203,False
0.08,0.5898737810580106,1.6,1808.0,21.135659999999998,0.2,68900.0,0.33,276.0,2700.0,18.695245915470935,0.7467375063264121,2016.1912670813126,10.302540235306477,2.6087304139050818,8.392705680164458,1.8619929075786696,4023,106,1312,2049,156.37689470100435,90.27660254536183,0.0012593133232142826,False
0.09,0.5678256044747321,1.6,1809.0,21.135659999999998,0.2,68900.0,0.33,276.0,2700.0,17.432875983591774,0.7829526052319862,2113.972034126363,9.760129162038345,2.38758022305086,7.67274682155343,1.6046276178188736,3855,102,1266,1950,134.22145195954212,77.4837838582773,0.0010533661997738685,False
0.09999999999999999,0.5168832214756702,1.6,1810.0,21.135659999999998,0.2,68900.0,0.33,276.0,2700.0,14.928509492364826,0.7443310795158486,2009.6939146927914,8.553612330225702,1.921384289487021,6.374897162139124,1.1770532099711724,3494,96,1146,1769,112.40277765378421,64.88576746739611,0.0008380423774874688,False
0.11,0.6505642534674259,1.6,1811.0,21.135659999999998,0.3,68900.0,0.33,276.0,2700.0,20.96505874280022,1.150290590972726,3105.78459562636,11.858698603142853,3.280750253165931,9.106360139657367,2.1304596621932053,2203,78,728,1105,127.3786822979946,73.54200695111186,0.0010735343441855972,False
0.12,0.4612805913410499,1.6,1812.0,21.135659999999998,0.2,68900.0,0.33,276.0,2700.0,12.205730507017932,0.7287247156841403,1967.556732347179,7.311167918735108,1.4806825702270403,4.894562588282825,0.7519578545429,2644,82,872,1330,86.47714351762929,49.92444082837438,0.000608203708216564,False
0.13,0.6645584975978442,1.6,1813.0,21.135659999999998,0.3,68900.0,0.33,276.0,2700.0,21.195501031548048,1.373106181010665,3707.386688728796,12.230657444875076,3.4493006779715025,8.964843586672972,2.0761944969608375,2213,78,724,1121,112.6883867565372,65.05445843003824,0.0009356030011137202,False
0.14,0.5971712872365272,1.6,1814.0,21.135659999999998,0.2,68900.0,0.33,276.0,2700.0,17.70718727772185,1.2337560892795625,3331.1414410548186,10.484758561437857,2.684577320686462,7.222428716283993,1.4508212314068993,3813,102,1246,1938,92.02552300410709,53.0650892788658,0.0007474599347526087,False
0.15000000000000002,0.7257082674938458,1.6,1815.0,21.135659999999998,0.3,68900.0,0.33,276.0,2700.0,23.866374362789763,1.782909493738657,4813.855633094374,13.913725605929718,4.248183283707203,9.952648756860045,2.4652737899685455,2580,86,844,1308,105.11315580937628,60.63436758501554,0.0009454862821923966,False
0.16,0.5691238086889735,1.6,1816.0,21.135659999999998,0.3,68900.0,0.33,276.0,2700.0,16.00807702993728,1.2720675200555809,3434.5823041500685,9.791728003294436,2.4002713701526566,6.216349026642844,1.1282038500970757,1698,66,558,855,83.04785066563697,47.90552377306905,0.000705073438486375,False
0.17,0.599427097648129,1.6,1817.0,21.135659999999998,0.3,68900.0,0.33,276.0,2700.0,17.17576353298904,1.4496501371660109,3914.055370348229,10.541356834000583,2.7082927616569794,6.6344066989884585,1.2586426244909685,1827,70,602,918,78.3474044218515,45.225498958476166,0.0006263931170079563,False
0.18000000000000002,0.842150688157943,1.6,1818.0,21.135659999999998,0.3,68900.0,0.33,276.0,2700.0,29.544824317371376,2.6468196763262672,7146.413126080922,17.378515617862387,6.066748760840541,12.166308699508988,3.419929084514274,2974,94,976,1504,100.5493587036153,57.752073060351215,0.0010400945614130476,False
0.19,0.6145287949408527,1.6,1819.0,21.135659999999998,0.3,68900.0,0.33,276.0,2700.0,17.45615162764607,1.6439689486190623,4438.716161271468,10.923552343105385,2.8703638287296345,6.532599284540684,1.2263948801105722,1866,70,614,939,72.76330397948671,41.970148182912546,0.0005850974109878191,False
0.2,0.8303453871467231,1.6,1820.0,21.135659999999998,0.3,68900.0,0.33,276.0,2700.0,28.341707077052774,2.817415546886132,7607.021976592556,17.01172134994979,5.863758657012394,11.329985727102983,3.0463431101262617,2980,94,974,1513,89.32300956735195,51.37168545289297,0.0009007263251920641,False
0.21000000000000002,0.6109938391898608,1.6,1821.0,21.135659999999998,0.3,68900.0,0.33,276.0,2700.0,16.88542808908073,1.7535737563102123,4734.649142037573,10.833575459633407,2.831908679218617,6.051852629447323,1.078334922908405,1889,70,622,950,65.66463183965313,37.893176104281785,0.000530451344554011,False
0.22,0.5881726891922392,1.6,1822.0,21.135659999999998,0.3,68900.0,0.33,276.0,2700.0,15.664917719415188,1.7008398300853573,4592.267541230465,10.260256424383236,2.5912408211473474,5.404661295031952,0.8904009910619901,1690,66,560,844,60.904458945902924,35.1264136518308,0.0004839843436153613,False
0.23,0.787189637688082,1.6,1823.0,21.135659999999998,0.3,68900.0,0.33,276.0,2700.0,25.203505456608518,2.8729206222991617,7756.885680207736,15.70066517019896,5.158063213653167,9.502840286409558,2.285142591354005,2525,86,834,1268,74.93828084295338,43.11056138135072,0.0006963115070796538,False
0.24000000000000005,0.6202840512028023,1.6,1824.0,21.135659999999998,0.2,68900.0,0.33,276.0,2700.0,16.711045473874176,1.9763725389694182,5336.205855217429,11.070715467883758,2.9336547532456634,5.640330005990418,0.9572822142762452,3367,96,1112,1693,59.30798671374734,34.19561921338046,0.00048153058892444006,False
0.25,0.7648351741824347,1.6,1825.0,21.135659999999998,0.3,68900.0,0.33,276.0,2700.0,23.546417629669545,2.9105772802337975,7858.558656631253,15.039947358990572,4.814491659716205,8.506470270678973,1.9039143794824072,2302,82,760,1156,69.93021618473323,40.244015773236,0.0006182461367340743,False
0.26,0.6032511381995147,1.6,1826.0,21.135659999999998,0.3,68900.0,0.33,276.0,2700.0,15.568917642955522,1.9871482052645557,5365.3001542143,10.637594156404543,2.7487872282498835,4.93132348655098,0.7616390229853278,1695,66,560,849,54.1650710165239,31.079913289202498,0.0004321236193596956,False
0.27,0.8996065142118155,1.6,1827.0,21.135659999999998,0.2,68900.0,0.33,276.0,2700.0,30.52455197054934,4.079590537223754,11014.894450504136,19.213692796194977,7.117569294434283,11.310859174354363,3.037978757210529,6245,140,2084,3113,71.90773864309264,41.15738708684146,0.0007563180020254774,False
0.28,0.8256287458962026,1.6,1828.0,21.135659999999998,0.2,68900.0,0.33,276.0,2700.0,26.092554934136494,3.6069815294913736,9738.85012962671,16.866153154817667,5.783863986592126,9.226401779318827,2.176882457100753,5316,128,1762,2667,64.99965096576035,37.25445623605059,0.0006231878175048085,False
0.29000000000000004,0.5982880749052519,1.6,1829.0,21.135659999999998,0.2,68900.0,0.33,276.0,2700.0,14.806339717274188,2.0958390568524914,5658.765453501726,10.51276277375811,2.696302204219701,4.2935769435160775,0.6004631473672095,3069,90,1016,1535,47.642822926231176,27.359928406964727,0.0003911724091284558,False
0.3,0.7096445587753879,1.6,1830.0,21.135659999999998,0.3,68900.0,0.33,276.0,2700.0,19.689433805016836,2.8968664029878286,7821.539288067137,13.462491657595857,4.028310175266468,6.22694214742098,1.1314437722786397,2057,74,678,1034,54.51265791341823,31.323894038437892,0.0004752578345040195,False
0.31,0.8111684118392543,1.6,1831.0,21.135659999999998,0.3,68900.0,0.33,276.0,2700.0,24.617940106365,3.753386591991181,10134.143798376188,16.423353198431375,5.5431816281308794,8.194586907933626,1.7897950361396986,2459,84,810,1238,58.20257931191496,33.360150958109614,0.000551628311082653,False
0.32,1.0084467340302357,1.6,1832.0,21.135659999999998,0.3,68900.0,0.33,276.0,2700.0,35.79453380567449,5.658496270192697,15277.939929520282,22.91756909551252,9.407656804998128,12.876964710161971,3.749160534805431,3568,106,1186,1783,66.74528294677633,37.95334971647151,0.0007805132049892309,False
0.33,0.9447701685026377,1.6,1833.0,21.135659999999998,0.3,68900.0,0.33,276.0,2700.0,31.644198440302386,5.146026465855186,13894.271457809004,20.714490848617,8.019027694148907,10.929707591685386,2.8730012282937203,3017,96,1000,1511,62.51490794981191,35.69324317459994,0.0006608716773721583,False
0.34,0.9682832033314035,1.6,1834.0,21.135659999999998,0.3,68900.0,0.33,276.0,2700.0,32.79276433488609,5.492451831826157,14829.619945930624,21.516126251011187,8.515485453448585,11.2766380838749,3.023033621622428,3317,102,1098,1664,63.21143817932996,36.0964649761375,0.0006797360373012453,False
0.3500000000000001,0.96285716546712,1.6,1835.0,21.135659999999998,0.3,68900.0,0.33,276.0,2700.0,32.21086623270189,5.547104400707721,14977.181881910847,21.329901798714644,8.39924370276796,10.880964433987245,2.8521393020602384,3296,100,1096,1646,59.903480027489465,34.15537303749898,0.0006392381199967662,False
0.36000000000000004,0.8149162710659121,1.6,1836.0,21.135659999999998,0.2,68900.0,0.33,276.0,2700.0,23.711527139241362,4.1703587871661885,11259.968725348708,16.537614479756822,5.604948051289444,7.1739126594845395,1.4345892641232556,6298,120,1682,3461,53.82853333099001,30.866058163858373,0.000495135255734885,False
0.37,0.7905576256737789,1.6,1837.0,21.135659999999998,0.3,68900.0,0.33,276.0,2700.0,22.25180371657081,4.010496292443934,10828.33998959862,15.801299483660637,5.211112252878516,6.450504232910172,1.2006159604345825,2307,80,766,1152,48.4240158953031,27.70007123021032,0.00045355610591238876,False
0.38,0.7394831945560602,1.6,1838.0,21.135659999999998,0.3,68900.0,0.33,276.0,2700.0,19.543680432102892,3.5983756340410307,9715.614211910783,14.30583214771236,4.442538984325306,5.237848284390532,0.8441633502842749,1996,72,664,994,44.410652660770786,25.413950006194746,0.00040582170479651786,False
0.39,0.9274591662434626,1.6,1839.0,21.135659999999998,0.3,68900.0,0.33,276.0,2700.0,29.166263784563135,5.563184014910948,15020.596840259559,20.133183511852543,7.665481467468815,9.033080272710592,2.1022974525578677,2803,92,932,1399,53.20433455673667,30.279656860078994,0.000544991641246047,False
0.4,0.9189240193617909,1.6,1840.0,21.135659999999998,0.3,68900.0,0.33,276.0,2700.0,28.45003589869375,5.555965893185579,15001.107911601064,19.849343515990334,7.494854399269032,8.600692382703414,1.9388885060834529,2694,90,900,1338,50.96257744063711,28.94040744985506,0.0005228226194955346,False
0.4100000000000001,0.9481462277164401,1.6,1841.0,21.135659999999998,0.3,68900.0,0.33,276.0,2700.0,29.878011322738587,5.980644516309172,16147.740194034764,20.828737318564666,8.08915381267018,9.04927400417392,2.1085092963610075,2812,92,936,1402,51.38107163976227,29.20858499453384,0.0005377883391131961,False
0.42000000000000004,1.0024393863412273,1.6,1842.0,21.135659999999998,0.3,68900.0,0.33,276.0,2700.0,32.823653848910176,6.737797763925031,18192.053962597583,22.7053737353027,9.270620818961286,10.118280113607476,2.5328230550362543,3259,100,1074,1636,51.9173012533613,29.428850267414134,0.000569609665388299,False
0.43,1.1281854512638794,1.6,1843.0,21.135659999999998,0.3,68900.0,0.33,276.0,2700.0,40.48082951419855,8.536859274146401,23049.520040195282,27.336264035464822,12.412726036722397,13.144565478733725,3.8758667625759955,3790,110,1260,1894,142.2669550460221,79.33116610511283,0.0007062370541489593,False
0.44,0.8518724053875386,1.6,1844.0,21.135659999999998,0.3,68900.0,0.33,276.0,2700.0,23.955540242313777,5.091809900906772,13747.886732448284,17.683202193202128,6.237176889546538,6.272338049111649,1.1453669886397657,2590,82,814,1329,43.85905962062676,24.969699534020954,0.00043506054389118076,False
0.45,0.9990421222978656,1.6,1845.0,21.135659999999998,0.3,68900.0,0.33,276.0,2700.0,31.893446229865734,6.985173648014212,18859.96884963837,22.585774906481564,9.193687905699187,9.30767132338417,2.2085142576849757,2975,96,994,1476,48.88498380009219,27.70273164447171,0.0005327684108695635,False
0.46,0.7666838533806175,1.6,1846.0,21.135659999999998,0.2,68900.0,0.33,276.0,2700.0,19.359163497402854,4.248747562716112,11471.618419333501,15.094111315732203,4.842345750198054,4.265052181670651,0.593598187481942,5458,106,1368,3058,43.22817638863228,24.78179286215651,0.0003724338054560768,False
0.4700000000000001,1.1028687169198896,1.6,1847.0,21.135659999999998,0.3,68900.0,0.33,276.0,2700.0,37.767374462920095,8.657886616070453,23376.293863390223,26.371966079428713,11.732901524330163,11.395408383491382,3.0750149082597105,3861,108,1224,1973,52.23129632052701,29.664814763657702,0.0005903302648692934,False
0.4800000000000001,0.9142343632189183,1.6,1848.0,21.135659999999998,0.3,68900.0,0.33,276.0,2700.0,26.42907462856941,6.11135456769279,16500.657332770534,19.69416633903145,7.402131883331717,6.734908289537959,1.2907773156389268,3142,88,908,1676,48.0161713784197,27.5700303545126,0.00044986709459522164,False
0.49,1.0176654611517715,1.6,1849.0,21.135659999999998,0.3,68900.0,0.33,276.0,2700.0,32.04849963201005,7.605478920441003,20534.793085190708,23.244962723835894,9.620435056179154,8.803536908174156,2.014956135738151,3356,98,1042,1731,48.78833783276625,27.835099526062308,0.0005085310931266839,False
0.5,1.1428688083306324,1.6,1850.0,21.135659999999998,0.3,68900.0,0.33,276.0,2700.0,39.55917987782598,9.627995581656762,25995.58807047326,27.902924239526527,12.818267769158371,11.656255638299456,3.190272187501609,4033,108,1224,2103,51.085879975662515,29.125657318320975,0.000590432816291964,False
0.01,0.6809893071935561,1.6,1851.0,24.15504,0.08,68900.0,0.33,276.0,2700.0,25.07689600614557,0.12538238563562548,338.53244121618883,12.6736608071856,3.6538904432035055,12.40323519895997,3.52850805756788,31138,310,10366,15583,1589.3327947303806,914.7492041545758,0.015365014589729487,True
0.02,0.5622313582583585,1.6,1852.0,24.15504,0.1,68900.0,0.33,276.0,2700.0,18.770251055773585,0.18768575539691618,506.7515395716737,9.624447371056574,2.3333595427644496,9.145803684717011,2.1456737873675333,14806,210,4904,7444,640.3478591965932,364.49432625631283,0.005404149736415526,True
0.03,0.4953882909419741,1.6,1853.0,24.15504,0.1,68900.0,0.33,276.0,2700.0,15.464390382709096,0.23190930707287152,626.1551290967531,8.06409375781012,1.7428068706547934,7.400296624898976,1.510897563581922,12640,188,4148,6412,405.83761941631974,231.41408756181508,0.0028910795135907393,True
0.04,0.6141303533260696,1.6,1854.0,24.15504,0.1,68900.0,0.33,276.0,2700.0,20.827380998797658,0.4164135786894001,1124.3166624613802,10.913394917753998,2.8660134545978395,9.91398608104366,2.449599875908439,16790,224,5516,8510,419.03097064342325,239.0346976361519,0.003131461527693419,True
0.05,0.6586544731039351,1.6,1855.0,24.15504,0.2,68900.0,0.33,276.0,2700.0,22.84733485765251,0.570921572053388,1541.4882445441476,12.073131688636828,3.377556025827608,10.774203169015681,2.80663445377422,4807,120,1588,2419,320.6988632008465,183.49117216948932,0.002832305398752225,True
0.06000000000000001,0.7300646260286054,1.6,1856.0,24.15504,0.2,68900.0,0.33,276.0,2700.0,26.415571166585465,0.7920147456554482,2138.43981326971,14.037214770718048,4.30906526938661,12.378356395867417,3.5170505237311622,5344,130,1760,2698,291.60919053692214,166.4645301133547,0.0028355845346286187,True
0.06999999999999999,0.5607559838375513,1.6,1857.0,24.15504,0.2,68900.0,0.33,276.0,2700.0,17.54891498928479,0.6134936471048472,1656.4328471830875,9.588794990037831,2.3191861863304175,7.960119999246958,1.7056925392255704,3828,102,1260,1932,1020.4859784387045,548.3961975641246,0.001667384962298749,True
0.08,0.6342934509358493,1.6,1858.0,24.15504,0.2,68900.0,0.33,276.0,2700.0,20.865691016446913,0.8335553103654529,2250.5993379867227,11.432418308534661,3.0912766928019564,9.433272707912252,2.2577213824365034,4296,112,1408,2178,195.37313872081955,111.8792145000092,0.0016385387690308092,False
0.09,0.6828899197571849,1.6,1859.0,24.15504,0.2,68900.0,0.33,276.0,2700.0,23.10303324987677,1.03810968221481,2802.8961419799866,12.72534246991025,3.6780272611901985,10.37769077996652,2.6399175789753886,4694,120,1552,2360,185.62112547144923,106.40516271546866,0.0016490497072729493,False
0.09999999999999999,0.7703796547740167,1.6,1860.0,24.15504,0.3,68900.0,0.33,276.0,2700.0,27.589481030387066,1.377379656416957,3718.9250723257837,15.202651112261337,4.898331052869829,12.386829918125729,3.5209513964528725,2863,94,940,1447,184.30278353503715,106.4031479605754,0.001849160603212171,False
0.11,0.7638517967515844,1.6,1861.0,24.15504,0.3,68900.0,0.33,276.0,2700.0,26.956807908628157,1.4798367950932618,3995.559346751807,15.01117064409571,4.799715866099858,11.945637264532447,3.3198790710065955,2725,88,890,1384,167.17951945672428,96.40255419206015,0.0016540599173624274,False
0.12,0.7564401331142254,1.6,1862.0,24.15504,0.3,68900.0,0.33,276.0,2700.0,26.283342387919717,1.5733814285382435,4248.129857053257,14.795063962260333,4.689259826219162,11.488278425659384,3.115878397680919,2675,88,868,1367,156.14537828593103,90.11226215634973,0.0014773676408369044,False
0.13,0.7119466818932607,1.6,1863.0,24.15504,0.3,68900.0,0.33,276.0,2700.0,23.63287841294112,1.531535710801141,4135.14641916308,13.526760808829255,4.059376440731564,10.106117604111866,2.5278407299304226,2505,84,818,1272,134.6797400353632,77.74632639568252,0.0012194417374591677,False
0.14,0.6091291250503474,1.6,1864.0,24.15504,0.3,68900.0,0.33,276.0,2700.0,18.268072593840667,1.2730180614078785,3437.148765801272,10.786238546537346,2.811751306363002,7.481834047303321,1.5387332449551236,1947,72,638,984,110.42754891060478,63.745012044576484,0.0008789310692089871,False
0.15000000000000002,0.6113754464169856,1.6,1865.0,24.15504,0.3,68900.0,0.33,276.0,2700.0,18.156494862631686,1.354668531226801,3657.6050343123625,10.843273565395126,2.8360447002268523,7.313221297236559,1.4813761690000513,1962,72,642,993,106.92305602613264,61.644530914476675,0.0012481103565638737,False
0.16,0.6305917367109464,1.6,1866.0,24.15504,0.3,68900.0,0.33,276.0,2700.0,18.85017544117585,1.499435392954616,4048.4755609774634,11.33636581122101,3.0491350330070013,7.5138096299548405,1.5496996400523853,2021,74,660,1025,100.59966249600988,57.86805863031544,0.0008128347643305211,False
0.17,0.4722606068369656,1.6,1867.0,24.15504,0.2,68900.0,0.33,276.0,2700.0,11.73709729663027,0.9873635070755157,2665.8814691038924,7.550360102766899,1.562269701737639,4.18673719386337,0.5749061946621233,2580,80,846,1305,70.87091612762741,40.91471658355201,0.0005224675527650019,False
0.18000000000000002,0.735035766682808,1.6,1868.0,24.15504,0.3,68900.0,0.33,276.0,2700.0,23.629797111697805,2.114467227815646,5709.061515102245,14.178713770740387,4.379197686828583,9.451083340957418,2.2647304590129367,2398,82,788,1210,101.26873569359874,58.40551990263831,0.0009099521393892098,False
0.19,0.6579755226016926,1.6,1869.0,24.15504,0.3,68900.0,0.33,276.0,2700.0,19.51172466397713,1.8392483870705127,4965.970645090384,12.05507272080669,3.369365098232073,7.45665194317044,1.5301167111615601,2065,74,674,1048,87.87454465887674,50.69826403531873,0.0007360642934866444,False
0.2,0.8711009299800765,1.6,1870.0,24.15504,0.3,68900.0,0.33,276.0,2700.0,30.699075114366373,3.053152350617491,8243.511346667225,18.292835219773256,6.583045059553484,12.406239894593117,3.5298927089359933,3162,98,1038,1599,105.84749463413442,60.73843178929805,0.0011343863468399997,False
0.21000000000000002,0.6673427945454549,1.6,1871.0,24.15504,0.2,68900.0,0.33,276.0,2700.0,19.531373367771423,2.0313980105727376,5484.774628546392,12.305249488892136,3.483458258155818,7.226123878879287,1.4520602475830806,4066,108,1340,2050,81.01745008629325,46.719047779732946,0.0006842345936580491,False
0.22,0.6390729454154027,1.6,1872.0,24.15504,0.3,68900.0,0.33,276.0,2700.0,17.976860134089044,1.9551534956995136,5278.914438388687,11.556946558214852,3.1462152353697217,6.419913575874192,1.1910617396702081,1929,72,632,975,75.98829054455508,43.82375584223597,0.0006195628325297606,False
0.23,0.7537798962577484,1.6,1873.0,24.15504,0.3,68900.0,0.33,276.0,2700.0,23.430969965691414,2.669079040843466,7206.513410277358,14.717834410363322,4.650004215653088,8.713135555328092,1.9809251748096224,2296,80,756,1156,82.47985429589203,47.40403272232937,0.0007473867912194885,False
0.24000000000000005,0.579471424497098,1.6,1874.0,24.15504,0.3,68900.0,0.33,276.0,2700.0,14.906005883452137,1.7597677881187748,4751.373027920692,10.045107690369692,2.5029010269671925,4.860898193082445,0.7431332388484178,1735,66,570,874,63.50959451093626,36.58663210933895,0.0005029388439761383,False
0.25,0.5876103183495773,1.6,1875.0,24.15504,0.3,68900.0,0.33,276.0,2700.0,15.072646810018053,1.8513559277773308,4998.661004998793,10.246293644046775,2.585474678598513,4.826353165971279,0.7341187508211822,1664,66,550,833,62.394630046697,35.92282056881973,0.0004940405553376408,False
0.26,0.7182795078729476,1.6,1876.0,24.15504,0.3,68900.0,0.33,276.0,2700.0,20.95056225053043,2.6867620042492937,7254.257411473093,13.704243632557283,4.145600514995073,7.246318617973149,1.4588385107457795,2194,78,722,1105,71.25737338686122,40.930123955344776,0.0006245333806025312,False
0.27,0.8833794328707543,1.6,1877.0,24.15504,0.3,68900.0,0.33,276.0,2700.0,29.58124451493688,3.9522440307160753,10671.058882933403,18.686981878496045,6.810069578130767,10.894262636440835,2.8578255474146914,2941,94,968,1483,80.95553952593788,46.35778573621787,0.0008338867082272027,False
0.28,0.7599821135700575,1.6,1878.0,24.15504,0.3,68900.0,0.33,276.0,2700.0,22.61855006245791,3.1206208474562933,8425.676288131992,14.898167543787842,4.741846155984839,7.720382518670068,1.6212253085285457,2336,80,766,1181,69.76362536121529,40.06599547849371,0.0006331233937176307,False
0.29000000000000004,0.7109403671617534,1.6,1879.0,24.15504,0.3,68900.0,0.33,276.0,2700.0,19.95705009184899,2.8426920611658386,7675.268565147764,13.498650793010677,4.045778407955787,6.458399298838314,1.2030863467899482,2057,74,678,1034,64.23074089663963,36.83675072865523,0.0005611956131507534,False
0.3,0.7511842708833272,1.6,1880.0,24.15504,0.3,68900.0,0.33,276.0,2700.0,21.736552505687893,3.2039342080885422,8650.622361839063,14.642652033199985,4.6118998404688565,7.093900472487908,1.4079656323803142,2261,78,744,1139,65.23210583403161,37.345209984300986,0.0005848107132077951,False
0.31,0.6852680598964109,1.6,1881.0,24.15504,0.3,68900.0,0.33,276.0,2700.0,18.332416174903635,2.7791303826146683,7503.652033059604,12.790136982973161,3.7083669259504815,5.542279191930474,0.9292365433358132,1893,70,630,942,58.802249472594134,33.73600078591277,0.0005013971177755224,False
0.32,0.7220543858921009,1.6,1882.0,24.15504,0.3,68900.0,0.33,276.0,2700.0,19.883734078115864,3.112768313783317,8404.474447214956,13.810517267630686,4.197532835397879,6.073216810485178,1.0847645216145616,2140,76,706,1075,59.760225478274826,34.29591296370914,0.0005223821056583892,False
0.33,0.6653753614704235,1.6,1883.0,24.15504,0.3,68900.0,0.33,276.0,2700.0,17.037505172593452,2.735922076683215,7386.98960704468,12.252521246107458,3.459300388909202,4.784983926485994,0.7233783122259871,1782,68,590,891,54.531744894616885,31.33494227871791,0.0004590396907446676,False
0.34,0.6859313971573556,1.6,1884.0,24.15504,0.2,68900.0,0.33,276.0,2700.0,17.789716374437027,2.9419336785499643,7943.220932084903,12.808235541181121,3.7168571024966366,4.981480833255906,0.7749234239466722,4036,100,1224,2104,57.77209413887884,33.26800628482781,0.00046987277260269854,False
0.3500000000000001,0.7978185360623375,1.6,1885.0,24.15504,0.1,68900.0,0.33,276.0,2700.0,23.041263812544624,3.942423977180149,10644.544738386403,16.019222784660762,5.326634431495381,7.022041027883862,1.384210454315232,33775,234,6244,20801,61.96336166572203,35.62155456179947,0.000565551947216171,False
0.36000000000000004,0.9587376058907449,1.6,1886.0,24.15504,0.3,68900.0,0.33,276.0,2700.0,31.71305443683203,5.610633700732505,15148.710991977763,21.18901051899001,8.311664252983801,10.524043917842022,2.7010305522512965,3299,100,1096,1649,65.93293867010311,37.57847895138679,0.0007022134099219482,False
0.37,0.6927697411787632,1.6,1887.0,24.15504,0.3,68900.0,0.33,276.0,2700.0,17.54946191263642,3.1405630587162165,8479.520258533785,12.99545822637491,3.8050837002513394,4.554003686261511,0.6645206415351228,1858,68,618,925,51.19562147673599,29.380142410396573,0.0004381923143192017,False
0.38,0.6909090738921372,1.6,1888.0,24.15504,0.2,68900.0,0.33,276.0,2700.0,17.28472006110654,3.169173163551723,8556.767541589652,12.944399809252992,3.7809509911096715,4.340320251853548,0.6117778275579484,4737,98,1214,2632,53.542752679791484,30.861277064458278,0.00043645272928506245,False
0.39,0.7655973905703222,1.6,1889.0,24.15504,0.3,68900.0,0.33,276.0,2700.0,20.610966361463383,3.894901017406499,10516.232746997546,15.062268926353962,4.825963860070961,5.548697435109421,0.931062842664462,2047,74,680,1021,51.600903475706055,29.470083283894027,0.00047509471562824353,False
0.4,0.84399938272517,1.6,1890.0,24.15504,0.3,68900.0,0.33,276.0,2700.0,24.377118103595436,4.741382334165927,12801.732302248001,17.436272317592397,6.098929702265387,6.940845786003038,1.3575473680994605,2562,84,846,1287,54.983580169893074,31.37207836809322,0.0005330606845852074,False
0.4100000000000001,0.8408708445675819,1.6,1891.0,24.15504,0.3,68900.0,0.33,276.0,2700.0,24.00311012831595,4.776289771452731,12895.982382922375,17.338581210150625,6.044532538305558,6.664528918165324,1.2682427668528264,2570,84,844,1294,53.33808993593606,30.435575082614516,0.0005193488936704304,False
0.42000000000000004,0.7923054270216554,1.6,1892.0,24.15504,0.2,68900.0,0.33,276.0,2700.0,21.33829928149889,4.325873304768661,11679.857922875384,15.85363554277864,5.2387755107490905,5.484663738720251,0.9129022059804299,5650,110,1410,3167,53.74463370268575,30.89543974239293,0.00047937209861798383,False
0.43,0.9747640951955646,1.6,1893.0,24.15504,0.3,68900.0,0.33,276.0,2700.0,30.945385234911676,6.486738754100036,17514.194636070097,21.739523559001228,8.655652477799213,9.205861675910448,2.168913723699178,3004,96,1008,1486,56.57117389924013,32.070605276180274,0.0006128516954345628,False
0.44,0.7551853075005821,1.6,1894.0,24.15504,0.3,68900.0,0.33,276.0,2700.0,19.175566766391213,4.0402157362038045,10908.582487750273,14.758612856744142,4.670717475032424,4.416953909647072,0.6305017388286194,1973,70,648,993,45.700026381813174,26.119154306132828,0.0004245594534146123,False
0.45,0.9712917944985147,1.6,1895.0,24.15504,0.3,68900.0,0.33,276.0,2700.0,30.27514834871546,6.6210566247554015,17876.852886839584,21.61970155919796,8.580374431680509,8.655446789517502,1.9593178069251076,2921,94,974,1448,54.50716198577191,30.84167438982945,0.0005819898710998758,False
0.46,0.8934091661211101,1.6,1896.0,24.15504,0.3,68900.0,0.33,276.0,2700.0,25.729368744753142,5.713894769606682,15427.515877938042,19.011753472621447,6.999121594721842,6.717615272131695,1.28522682511516,2739,86,852,1413,55.44257196490118,31.86152306927034,0.0005142752361176051,False
0.4700000000000001,1.0422032032102786,1.6,1897.0,24.15504,0.3,68900.0,0.33,276.0,2700.0,33.99365542948151,7.77106264321239,20981.869136673453,24.12680425818025,10.201602212710304,9.866851171301256,2.430539569497914,3148,98,1050,1563,55.79743146972724,31.607529644786922,0.0006222476208332952,False
0.4800000000000001,1.0597917992791066,1.6,1898.0,24.15504,0.3,68900.0,0.33,276.0,2700.0,34.82121275463202,8.125467717947824,21938.762838459126,24.768217171922704,10.631588207573595,10.052995582709318,2.5061204896257703,3883,104,1158,2042,58.19905646046438,33.09725659648067,0.0006298933313019951,False
0.49,1.1832317219152189,1.6,1899.0,24.15504,0.3,68900.0,0.33,276.0,2700.0,42.496679240780104,10.165282924589341,27446.26389639122,29.48853035527446,13.97637320741657,13.008148885505644,3.8110902828272284,4393,114,1356,2275,60.20536184068084,34.21811973303318,0.0007331555398235767,False
0.5,0.9254570424829865,1.6,1900.0,24.15504,0.2,68900.0,0.33,276.0,2700.0,26.618283533040575,6.392771495460999,17260.483037744696,20.066437654352203,7.625239175927908,6.551845878688372,1.2324676804669092,7501,128,1844,4235,52.3115863239894,29.88077595921132,0.0005084487677612942,False
0.01,0.6315371873979078,1.6,1901.0,27.174419999999998,0.05,68900.0,0.33,276.0,2700.0,22.46373451548354,0.1123165781823144,303.2547610922489,11.36086572520441,3.059864587811058,11.10286879027913,2.947548009628744,69788,462,23158,35045,1882.533171008304,1071.5734209344735,0.014978668635886835,True
0.02,0.6748039095985818,1.6,1902.0,27.174419999999998,0.1,68900.0,0.33,276.0,2700.0,24.476961807817798,0.24475286291728665,660.832729876674,12.506095315101508,3.5760175373575493,11.97086649271629,3.3312646744402628,19628,246,6512,9854,899.3262835227818,511.9934366404667,0.008399199463950329,True
0.03,0.7127148680270741,1.6,1903.0,27.174419999999998,0.1,68900.0,0.33,276.0,2700.0,26.268814808578117,0.39397567346090556,1063.734318344445,13.548236160104672,4.069775758404324,12.720578648473445,3.6758000849434187,20462,254,6774,10295,694.3808884210545,395.2568353497366,0.006161102778245142,True
0.04,0.48762894226400594,1.6,1904.0,27.174419999999998,0.1,68900.0,0.33,276.0,2700.0,14.908238975943291,0.29803073823231274,804.6829932272444,7.890237361741004,1.680910240055108,7.018001614202287,1.3828795018227953,12186,184,3994,6189,357.9382605537775,204.56520139444584,0.0023684917832336888,True
0.05,0.5252126338180731,1.6,1905.0,27.174419999999998,0.1,68900.0,0.33,276.0,2700.0,16.36161022557206,0.40877845625149495,1103.7018318790363,8.746425392200335,1.9934326530274764,7.6151848333717265,1.5846541967759815,13062,192,4298,6609,303.9935817857962,173.73683643409973,0.0021418608388968693,True
0.06000000000000001,0.5161286358168,1.6,1906.0,27.174419999999998,0.2,68900.0,0.33,276.0,2700.0,15.736211444040174,0.47163395397896296,1273.4116757432,8.53623097300014,1.914936415052448,7.199980471040034,1.443302461073485,3617,98,1188,1829,231.08889015484962,133.40936623136366,0.0017301330477405487,False
0.06999999999999999,0.38813308606397295,1.6,1907.0,27.174419999999998,0.1,68900.0,0.33,276.0,2700.0,10.265077223229328,0.35855932529290535,968.1101782908445,5.79502907531378,1.0021594675538497,4.4700481479155485,0.6436001422609443,8298,146,2728,4200,147.63353148570994,85.23580461629008,0.001027100615971038,False
0.08,0.5549182324096124,1.6,1908.0,27.174419999999998,0.2,68900.0,0.33,276.0,2700.0,17.056972502667808,0.6812065698142854,1839.2577384985707,9.44826237855739,2.26361979858483,7.608710124110418,1.5824132287705446,3658,100,1200,1852,190.12670359412377,109.76858412029381,0.0015154518654081361,False
0.09,0.5693331422098681,1.6,1909.0,27.174419999999998,0.2,68900.0,0.33,276.0,2700.0,17.502862160817973,0.7861019832071644,2122.475354659344,9.79682723566198,2.4023216407521497,7.706034925155993,1.6162196575449852,3859,102,1266,1954,174.70976042189946,100.39069565714911,0.0013585707918750292,False
0.09999999999999999,0.5622941364455931,1.6,1910.0,27.174419999999998,0.2,68900.0,0.33,276.0,2700.0,16.959085989642084,0.845859904379704,2283.821741825201,9.62596561760924,2.333963795779406,7.333120372032845,1.4881038913997022,3719,100,1222,1880,154.93416199496593,89.40964261184598,0.0012102552151674066,False
0.11,0.4914323995642,1.6,1911.0,27.174419999999998,0.2,68900.0,0.33,276.0,2700.0,13.638135228446034,0.7473097976832466,2017.7364537447656,7.975268762168981,1.7110820123616257,5.662866466277053,0.9637722146783791,2902,86,950,1471,126.7335567781588,73.15556879985273,0.0009209541167293834,False
0.12,0.5125418992730261,1.6,1912.0,27.174419999999998,0.2,68900.0,0.33,276.0,2700.0,14.336411522872229,0.8565655766353419,2312.7270569154234,8.453808657900298,1.8844671136808637,5.882602864971931,1.0279015370455218,3379,94,1104,1717,119.20692312066984,68.80098007730301,0.0008985535806058833,False
0.13,0.7601202195448398,1.6,1913.0,27.174419999999998,0.3,68900.0,0.33,276.0,2700.0,26.226349618394657,1.7001113391556923,4590.300615720369,14.902194060187576,4.743903959972897,11.324155558207082,3.0437926208172046,2694,88,876,1374,162.06507963248654,93.44631745959947,0.0015434727415445941,False
0.14,0.6734940223501298,1.6,1914.0,27.174419999999998,0.3,68900.0,0.33,276.0,2700.0,21.410588608625478,1.4929941824428161,4031.0842925956035,12.470733195493146,3.5596591274783034,8.939855413132332,2.0666649450354875,2280,80,748,1152,135.94521141605833,78.46083275532517,0.0011395103385539664,False
0.15000000000000002,0.6577454696969476,1.6,1915.0,27.174419999999998,0.3,68900.0,0.33,276.0,2700.0,20.393049501236504,1.5224101291221603,4110.507348629833,12.0489563193874,3.3665924973092025,8.344093181849104,1.8441823681870422,2139,76,700,1083,125.14384397338424,72.22817432550534,0.0010327459798815954,False
0.16,0.5646138912970589,1.6,1916.0,27.174419999999998,0.3,68900.0,0.33,276.0,2700.0,15.807029915811702,1.255983750925534,3391.1561274989417,9.682136719289735,2.3563588016689407,6.124893196521967,1.1003750507434067,1681,66,552,847,102.32670138340725,58.887893603764184,0.0007880997739764324,False
0.17,0.4938432819574733,1.6,1917.0,27.174419999999998,0.2,68900.0,0.33,276.0,2700.0,12.602874784183113,1.0609545935175078,2864.577402497271,8.029355548593635,1.7303746164939593,4.573519235589478,0.6694200229764515,2843,84,938,1430,83.00111041023696,47.7104019488405,0.000622391949611312,False
0.18000000000000002,0.5596093764738167,1.6,1918.0,27.174419999999998,0.2,68900.0,0.33,276.0,2700.0,15.18822993269517,1.3547261817054075,3657.7606906046003,9.561125034956103,2.308207469829829,5.627104897739068,0.9534812881244217,3171,92,1052,1587,88.40591105138058,51.00631468513099,0.0006975668091932106,False
0.19,0.5257647072189688,1.6,1919.0,27.174419999999998,0.3,68900.0,0.33,276.0,2700.0,13.55144837566975,1.2730221396813113,3437.1597771395404,8.759266656641072,1.9982648661472822,4.792181719028678,0.7252427264659709,1504,62,494,757,80.03148830215183,46.17541155069573,0.0006124385293979883,False
0.2,0.5493551410058453,1.6,1920.0,27.174419999999998,0.3,68900.0,0.33,276.0,2700.0,14.360952778532269,1.4193401170340425,3832.2183159919146,9.315138686284412,2.211428901585434,5.045814092247857,0.7920887845513915,1503,62,492,759,81.59988277752988,47.109753641366865,0.0006211997813203731,False
0.21000000000000002,0.8680314201743926,1.6,1921.0,27.174419999999998,0.3,68900.0,0.33,276.0,2700.0,30.25145335556113,3.1570064092906525,8523.917305084762,18.1948942888123,6.527045398367742,12.056559066748829,3.370038989077089,3115,96,1026,1570,114.32358098679067,65.67961341954506,0.0012026173143627195,False
0.22,0.8442922840995398,1.6,1922.0,27.174419999999998,0.3,68900.0,0.33,276.0,2700.0,28.619129601530197,3.125803137118017,8439.668470218645,17.445430990705727,6.104038151632638,11.17369861082447,2.9782350145146212,2978,94,976,1508,107.26034777131115,61.49613477103154,0.0010801427146789446,False
0.23,0.6810542617833616,1.6,1923.0,27.174419999999998,0.3,68900.0,0.33,276.0,2700.0,19.766545014079323,2.247670171408304,6068.709462802421,12.675425561084364,3.654713712956428,7.09111945299496,1.4070435415481244,2095,76,690,1054,85.48296205264354,49.242115239262965,0.000728947104798078,False
0.24000000000000005,0.7219329156254473,1.6,1924.0,27.174419999999998,0.3,68900.0,0.33,276.0,2700.0,21.57066694229308,2.559527115179614,6910.723210984957,13.807091954780429,4.195855476223374,7.763574987512651,1.6363283610437604,2291,80,752,1157,86.85212157148811,49.976207723648706,0.0007607212167958775,False
0.25,0.6174528719837238,1.6,1925.0,27.174419999999998,0.3,68900.0,0.33,276.0,2700.0,16.388988391908857,2.015898625513713,5442.926288887024,10.998217582253606,2.902414248455492,5.390770809655251,0.8865156229417792,1733,66,570,872,73.44246048026298,42.17363886097045,0.000593167417487466,False
0.26,0.7690261621837875,1.6,1926.0,27.174419999999998,0.2,68900.0,0.33,276.0,2700.0,23.536193033267047,3.0228940060050533,8161.813816213644,15.162861352957874,4.877781310002833,8.373331680309173,1.8548873039977796,4910,120,1630,2459,84.13858211043518,48.35566757298189,0.0007733340092403088,False
0.27,0.6119822223932045,1.6,1927.0,27.174419999999998,0.3,68900.0,0.33,276.0,2700.0,15.76634206155974,2.0872321995101597,5635.526938677432,10.858701610555158,2.8426288183455934,4.907640451004582,0.7553966188354337,1722,66,564,870,67.47807865210268,38.86254831937511,0.00054798997459456,False
0.28,0.6469879408040473,1.6,1928.0,27.174419999999998,0.3,68900.0,0.33,276.0,2700.0,17.146237785905303,2.3544971287390073,6357.1422475953195,11.764431942884125,3.2385084985056305,5.381805843021178,0.8840113697666232,1805,68,598,902,69.27296288195633,39.80974303846072,0.0005699049062625962,False
0.29000000000000004,0.641294485161582,1.6,1929.0,27.174419999999998,0.3,68900.0,0.33,276.0,2700.0,16.69740923465913,2.370044136873307,6399.119169557929,11.615023534572103,3.1719539386855633,5.082385700087027,0.8019098018122564,1808,68,596,908,66.11617798235476,38.091838467717,0.0005468269590808506,False
0.3,0.953145372325818,1.6,1930.0,27.174419999999998,0.3,68900.0,0.33,276.0,2700.0,32.925368486799265,4.882256605255112,13182.092834188801,20.998435438878737,8.193703593612959,11.926933047920528,3.3114469883578472,3106,98,1020,1570,87.53519330857453,49.98682484965782,0.0009686218649304176,False
0.31,0.8497567385680376,1.6,1931.0,27.174419999999998,0.3,68900.0,0.33,276.0,2700.0,26.703972770148493,4.076721654877621,11007.148468169577,17.616693246992302,6.199835500622748,9.087279523156191,2.1231138457451273,2690,88,892,1346,77.85476664259727,44.517543403648865,0.0007587088163595033,False
0.32,0.8140746137126667,1.6,1932.0,27.174419999999998,0.2,68900.0,0.33,276.0,2700.0,24.546477094577718,3.858807196417216,10418.779430326484,16.511924067641132,5.591039858968268,8.034553026936585,1.7322326625510525,5224,122,1718,2625,73.71625492029571,42.4181143897691,0.0006952693137509624,False
0.33,0.6462130432548276,1.6,1933.0,27.174419999999998,0.3,68900.0,0.33,276.0,2700.0,16.17948937296229,2.5943494697440745,7004.743568309002,11.744049084757815,3.229400167313054,4.435440288204475,0.6350506975689796,1765,66,578,892,59.04498064488787,33.92344055455449,0.000497533427786164,False
0.34,0.9717773782309082,1.6,1934.0,27.174419999999998,0.3,68900.0,0.33,276.0,2700.0,33.00353331958624,5.5282825592252,14926.36290990804,21.636439836265968,8.590876670734584,11.367093483320271,3.0625941115093838,3313,102,1098,1660,79.1839620702179,45.002005722263064,0.0008693028972717162,False
0.3500000000000001,0.9419999638330678,1.6,1935.0,27.174419999999998,0.3,68900.0,0.33,276.0,2700.0,30.97645330122779,5.3310821376995765,14393.921771788857,20.620960568978315,7.9617739084052,10.355492732249473,2.6306917707056234,2979,96,986,1494,75.28114194063164,42.77707552876393,0.0007900711051566498,False
0.36000000000000004,0.7310749014967947,1.6,1936.0,27.174419999999998,0.3,68900.0,0.33,276.0,2700.0,19.526719137049582,3.4170933467716695,9226.152036283507,14.065921058445385,4.323261221580683,5.460798078604197,0.9061678748090136,1997,72,664,995,61.2322269659704,35.09432813006959,0.0005421486005949182,False
0.37,1.041377070180721,1.6,1937.0,27.174419999999998,0.3,68900.0,0.33,276.0,2700.0,36.510542852246935,6.648363032544162,17950.580187869236,24.09686838737473,10.181682629501655,12.413674464872205,3.533319596957493,3481,106,1158,1738,77.11671501362439,43.637107636569844,0.0009016064853016531,False
0.38,0.6959621205667743,1.6,1938.0,27.174419999999998,0.3,68900.0,0.33,276.0,2700.0,17.514187127684202,3.2127719062014823,8674.484146744002,13.083262756294982,3.846710217776727,4.430924371389221,0.6339383115752448,1860,68,616,930,53.95811126786384,30.81469544508075,0.00048477212480270567,False
0.39,0.9501052947809758,1.6,1939.0,27.174419999999998,0.3,68900.0,0.33,276.0,2700.0,30.46825234529027,5.817071784252741,15706.093817482402,20.89516385344741,8.130023757217648,9.57308849184286,2.312951972964907,2772,92,922,1383,69.77621651668436,39.83217974633614,0.0007251821250965029,False
0.4,0.8294769744827283,1.6,1940.0,27.174419999999998,0.3,68900.0,0.33,276.0,2700.0,23.620324263443724,4.5900235661355735,12393.063628566048,16.984877811841542,5.8489971197617,6.635446451602181,1.2589735536261264,2431,82,808,1211,60.81233394296188,34.703007676272826,0.0005871283538947255,False
0.4100000000000001,0.9472467753023724,1.6,1941.0,27.174419999999998,0.2,68900.0,0.33,276.0,2700.0,29.826348403229044,5.970053617809783,16119.144768086415,20.798271689332115,8.070433057323267,9.02807671389693,2.1003794395134845,7944,136,1972,4474,69.14528591780994,39.526077128746806,0.0006994796315235634,False
0.42000000000000004,0.961062558066544,1.6,1942.0,27.174419999999998,0.3,68900.0,0.33,276.0,2700.0,30.386615435113406,6.226019697027708,16810.25318197481,21.268472773646838,8.361020035742989,9.118142661466567,2.1350003387152805,3134,96,1044,1558,67.11087043266232,38.44500421597363,0.0006839597771016656,False
0.43,0.797539783883499,1.6,1943.0,27.174419999999998,0.3,68900.0,0.33,276.0,2700.0,21.403279354562486,4.435185989824961,11975.002172527395,16.01083207636318,5.322170207750218,5.392447278199306,0.8869842179252565,2156,76,720,1070,53.95804022287447,30.820555348849137,0.0005216245306583367,False
0.44,0.9472852877215947,1.6,1944.0,27.174419999999998,0.3,68900.0,0.33,276.0,2700.0,29.133172929332336,6.230889092050855,16823.40054853731,20.799575738660764,8.071234074192017,8.333597190671572,1.8403449821411613,2703,90,902,1344,61.079974593260424,34.69780354113576,0.0006432283544113586,False
0.45,0.7907690414321282,1.6,1945.0,27.174419999999998,0.2,68900.0,0.33,276.0,2700.0,20.69266151321086,4.464997086766864,12055.492134270533,15.807626022735166,5.214453565336888,4.885035490475696,0.749456478570024,5491,108,1374,3078,57.89447586825703,33.27238162360983,0.0005065994763933832,False
0.46,1.0322241544925401,1.6,1946.0,27.174419999999998,0.3,68900.0,0.33,276.0,2700.0,33.63371295034443,7.531893936892675,20336.113629610223,23.76634984714063,9.962640234937309,9.8673631032038,2.4307462980446344,3135,98,1050,1552,63.45697345416281,35.99041404907743,0.0007039246131922792,False
0.4700000000000001,0.775027883023871,1.6,1947.0,27.174419999999998,0.2,68900.0,0.33,276.0,2700.0,19.575324667424756,4.382754914129051,11833.438268148437,15.339649553689814,4.9693146349157855,4.235675113734942,0.5865597207867346,5497,106,1374,3084,54.96059733392213,31.61693053508044,0.0004782654638991447,False
0.4800000000000001,0.8607749194409293,1.6,1948.0,27.174419999999998,0.2,68900.0,0.33,276.0,2700.0,23.614257098307665,5.435798360429975,14676.655573160931,17.964297805891764,6.395851596666432,5.6499592924159,0.9600532362364573,6144,116,1526,3453,58.57869682085164,33.58379217428905,0.0005377390815374193,False
0.49,1.0485476575083712,1.6,1949.0,27.174419999999998,0.3,68900.0,0.33,276.0,2700.0,33.89280754202501,8.057334358394671,21754.802767665613,24.357274469996575,10.355404188686709,9.535533072028436,2.2980698302920377,3264,98,1038,1663,64.30209153995946,36.54663037904094,0.0006815877076801268,False
0.5,1.1221411904652236,1.6,1950.0,27.174419999999998,0.3,68900.0,0.33,276.0,2700.0,38.222958808138266,9.29394031423542,25093.638848435636,27.10457824065817,12.248199174788494,11.118380567480095,2.9542588605530735,4093,108,1218,2152,65.96968846300061,37.45606296815316,0.0007407812437659109,False
0.01,0.7020279666792475,1.6,1951.0,30.1938,0.08,68900.0,0.33,276.0,2700.0,26.22589884811544,0.13112739984547472,354.04397958278173,13.250806024093803,3.9265789546978547,12.975092824021635,3.79545155485238,32681,318,10886,16346,2069.9828430946764,1189.3831487584057,0.02027058183137573,True
0.02,0.3557243749016377,1.6,1952.0,30.1938,0.08,68900.0,0.33,276.0,2700.0,9.957713800787737,0.0995603828470581,268.8130336870569,5.1662778778173735,0.8246098445592075,4.791435922970363,0.7250494617121495,12409,178,4082,6280,525.4644302783087,299.88037880929596,0.0032669795343971634,True
0.03,0.4871944600857814,1.6,1953.0,30.1938,0.1,68900.0,0.33,276.0,2700.0,15.103475004413598,0.2264955763984402,611.5380562757886,7.880547067203665,1.6774841778413903,7.222927937209933,1.45098860144295,12159,184,4008,6141,530.7983620969936,303.0798852859486,0.0035122564966459185,True
0.04,0.7296315475520917,1.6,1954.0,30.1938,0.1,68900.0,0.33,276.0,2700.0,26.934310691288182,0.5385521725392101,1454.0908658558672,14.024916996521071,4.30298871691999,12.909393694767111,3.76443654438078,21122,258,6956,10682,632.5603028973917,361.04905561378723,0.005335680215464566,True
0.05,0.4195214212434498,1.6,1955.0,30.1938,0.1,68900.0,0.33,276.0,2700.0,11.859871384384077,0.2962349852218031,799.8344600988684,6.4291482242116675,1.1939429862960749,5.430723160172409,0.8977080010742717,9657,160,3170,4896,267.35880761368907,153.05476528369155,0.0017229820594822475,False
0.06000000000000001,0.49497114590878594,1.6,1956.0,30.1938,0.1,68900.0,0.33,276.0,2700.0,14.805071631727554,0.4436997596097096,1197.9893509462158,8.05470869527678,1.739444931614697,6.750362936450774,1.2957451720049873,12043,182,3960,6097,266.0214339866903,152.37094084544978,0.001812603454174741,False
0.06999999999999999,0.6292840366242702,1.6,1957.0,30.1938,0.2,68900.0,0.33,276.0,2700.0,20.855795726224244,0.7292344728977259,1968.93307682386,11.302515782123436,3.034332603979651,9.553279944100808,2.3050981310819254,4366,112,1432,2212,275.0530745794235,157.16726469541973,0.0023143764869830493,False
0.08,0.43464212792554086,1.6,1958.0,30.1938,0.2,68900.0,0.33,276.0,2700.0,11.88919683634057,0.4744955431611985,1281.137966535236,6.743459816993915,1.2935253169052812,5.145737019346655,0.8190297737440826,2638,82,866,1333,173.75452466763127,100.3140996573201,0.0011687998615047851,False
0.09,0.6302278011246338,1.6,1959.0,30.1938,0.2,68900.0,0.33,276.0,2700.0,20.425349142681227,0.917613897391011,2477.5575229557294,11.326940963305823,3.0450110411885216,9.098408179375404,2.1273971437975105,4234,110,1386,2149,208.05639826947956,119.99275024828916,0.0017918034283048462,False
0.09999999999999999,0.6761986927173306,1.6,1960.0,30.1938,0.3,68900.0,0.33,276.0,2700.0,22.508474811686806,1.1233293454813724,3032.9892327997054,12.543796715508476,3.5934871149401184,9.96467809617833,2.470157769458746,2450,84,804,1238,207.33786281849493,119.70627716358,0.001816524449746273,False
0.11,0.6086736057974864,1.6,1961.0,30.1938,0.2,68900.0,0.33,276.0,2700.0,18.912848869803028,1.037419047957882,2801.0314294862815,10.774688192215697,2.8068405979414486,8.138160677587331,1.7694215499835666,4011,106,1312,2037,168.14521125722115,96.95958048631817,0.0013751027080670052,False
0.12,0.611633815525912,1.6,1962.0,30.1938,0.3,68900.0,0.33,276.0,2700.0,18.82962361828289,1.1261583023600454,3040.6274163721228,10.849841794948093,2.838847115633477,7.979781823334799,1.7126888132734315,2032,74,664,1030,160.3366627770173,92.570271828438,0.0012736574767365366,False
0.13,0.7125565849079225,1.6,1963.0,30.1938,0.3,68900.0,0.33,276.0,2700.0,23.66498407882372,1.5336225790835813,4140.78096352567,13.543809996522354,4.067631651627694,10.121174082301367,2.5340090725441122,2508,84,818,1275,167.52914065317657,96.70067924819702,0.0015244715987955577,False
0.14,0.8083855447614152,1.6,1964.0,30.1938,0.3,68900.0,0.33,276.0,2700.0,28.671975280416866,2.0012912494682107,5403.486373564169,16.33874009225859,5.497595397858348,12.333235188158277,3.496304148390137,2855,92,938,1442,176.07696310881443,101.38492311887069,0.001781249611319256,False
0.15000000000000002,0.6197270701961337,1.6,1965.0,30.1938,0.3,68900.0,0.33,276.0,2700.0,18.55133677463414,1.3842816746269848,3737.560521492859,11.05643696134242,2.9274925517901864,7.49489981329172,1.5432108771632016,1950,72,638,987,131.67953421634232,75.78763935499433,0.0010555766976744815,False
0.16,0.4908610766026855,1.6,1966.0,30.1938,0.3,68900.0,0.33,276.0,2700.0,12.664279871177335,1.0045637473547848,2712.3221178579192,7.962472864444289,1.7065292138792159,4.701807006733047,0.701965466524431,1467,60,480,741,99.21033182055129,57.13037254258587,0.0007254503400982987,False
0.17,0.512843310098615,1.6,1967.0,30.1938,0.3,68900.0,0.33,276.0,2700.0,13.384429932977701,1.1273867811650258,3043.9443091455696,8.460722560192863,1.8870162250328866,4.923707372784838,0.7596294438678608,1418,60,466,713,99.14307547215286,57.24028055980745,0.0007255317039245938,False
0.18000000000000002,0.6873624191478884,1.6,1968.0,30.1938,0.3,68900.0,0.33,276.0,2700.0,21.18267340630146,1.8942260943299736,5114.410454690928,12.847317346403045,3.735213926539697,8.335356059898416,1.8409878322097233,2177,78,720,1091,120.08340174894644,69.26258076628629,0.0010276901300459325,False
0.19,0.522471042616963,1.6,1969.0,30.1938,0.2,68900.0,0.33,276.0,2700.0,13.414181576790327,1.259981793787766,3401.950843226968,8.682769269288404,1.9695408328228239,4.731412307501923,0.7095590390350579,2983,88,986,1498,87.69992251674164,50.396651867562795,0.000672985201656392,False
0.2,0.8748092216456743,1.6,1970.0,30.1938,0.3,68900.0,0.33,276.0,2700.0,30.917712849255746,3.0750161241064315,8302.543535087365,18.411474040701147,6.651100094812336,12.506238808554599,3.5760839707059047,3072,98,1006,1557,133.50465224985746,76.644106145995,0.001431087328056887,False
0.21000000000000002,0.8687790643295952,1.6,1971.0,30.1938,0.3,68900.0,0.33,276.0,2700.0,30.295174932163352,3.1615971748338834,8536.312372051485,18.21872806355722,6.540657613453221,12.076446868606133,3.3790604386193377,3106,96,1024,1564,126.76236655969929,72.64375341691807,0.0013374670790453126,False
0.22,0.8746434437350583,1.6,1972.0,30.1938,0.3,68900.0,0.33,276.0,2700.0,30.37277580093198,3.318704219052231,8960.501391441023,18.40616295292881,6.648048319354569,11.96661284800317,3.329344100302338,3024,96,994,1527,121.96765214229558,69.83268680856384,0.0012895801928046195,False
0.23,0.8574601683344176,1.6,1973.0,30.1938,0.2,68900.0,0.33,276.0,2700.0,29.114778686121696,3.3227170436931757,8971.336017971575,17.859402257170544,6.336478348234867,11.255376428951152,3.0137613045416916,5608,134,1852,2824,114.45294839456045,65.71435240156462,0.0011747659408737553,False
0.24000000000000005,0.6836641139939105,1.6,1974.0,30.1938,0.3,68900.0,0.33,276.0,2700.0,19.680155938293158,2.332665794699696,6298.197645689179,12.746420466155913,3.6878873062505,6.933735472137245,1.3552215115508042,2091,76,688,1053,90.88159503797974,52.31518383006097,0.0007843467717257081,False
0.25,0.8364589213101876,1.6,1975.0,30.1938,0.3,68900.0,0.33,276.0,2700.0,27.41896450253731,3.3946456393422686,9165.543226224125,17.201233433223575,5.9683392124032215,10.217731069313736,2.573693573060953,2902,92,956,1462,104.32858345534494,59.798448843207446,0.0010219724698537628,False
0.26,0.6705650953344577,1.6,1976.0,30.1938,0.3,68900.0,0.33,276.0,2700.0,18.637503407816688,2.3860643546965066,6442.373757680568,12.391818993383087,3.5232488797100756,6.245684414433601,1.137184525013569,2053,74,676,1033,84.2450216063072,48.418880447867444,0.0007128568662004316,False
0.27,0.6389929232023241,1.6,1977.0,30.1938,0.3,68900.0,0.33,276.0,2700.0,16.97536229986634,2.25044993168155,6076.214815540185,11.554856878477118,3.145290506540405,5.4205054213892225,0.894840574858855,1750,68,578,877,76.39850984656111,44.00818616670239,0.0006438447427831841,False
0.28,0.801557314576556,1.6,1978.0,30.1938,0.3,68900.0,0.33,276.0,2700.0,24.793548047361277,3.425120565342843,9247.825526425677,16.13195236381944,5.386737383463192,8.661595683541837,1.961616818120349,2447,84,808,1229,91.17726048656037,52.331134888073066,0.0008501822995195697,False
0.29000000000000004,0.9170979844102138,1.6,1979.0,30.1938,0.3,68900.0,0.33,276.0,2700.0,31.034881130786736,4.448977561811571,12012.239416891241,19.788855689241416,7.45866404343828,11.24602544154532,3.0096864816267095,3139,98,1034,1582,97.79467255568666,55.76273026595008,0.001038026936767057,False
0.3,0.9197097548192026,1.6,1980.0,30.1938,0.3,68900.0,0.33,276.0,2700.0,30.931390168851646,4.5831598575631345,12374.531615420463,19.875396971512615,7.510460966821799,11.055993197339031,2.9273011092586643,3039,96,1004,1527,95.06307165242204,54.37132869858936,0.0010003471289757372,False
0.31,0.9217016005218706,1.6,1981.0,30.1938,0.3,68900.0,0.33,276.0,2700.0,30.793077509452136,4.710532889469687,12718.438801568154,19.941512214368462,7.550115519998454,10.851565295083674,2.839582630528767,3021,96,998,1518,92.5732899947209,52.92413610387493,0.0009669799792374194,False
0.32,1.0008084089414013,1.6,1982.0,30.1938,0.3,68900.0,0.33,276.0,2700.0,35.316666398186136,5.5820374849945615,15071.501209485315,22.647919864107788,9.233635729613752,12.668746534078348,3.6515982446191906,3360,104,1112,1686,94.31971006875642,53.5948295254897,0.001098946943101173,False
0.33,0.9556668786754275,1.6,1983.0,30.1938,0.3,68900.0,0.33,276.0,2700.0,32.293376278807806,5.2531408092085154,14183.480184862992,21.084267360377492,8.246759461194742,11.209108918430314,2.9936186519862265,3251,100,1072,1637,89.35074105671639,50.82171055666298,0.0009673165950142592,False
0.34,0.7688601781288579,1.6,1984.0,30.1938,0.3,68900.0,0.33,276.0,2700.0,21.78057780966892,3.620380122539254,9775.026330855986,15.157984949533754,4.875264921503318,6.622592860135166,1.254884798964064,2221,80,742,1102,72.33946854955144,41.42218392863379,0.0006729051354382875,False
0.3500000000000001,0.7387493254863717,1.6,1985.0,30.1938,0.3,68900.0,0.33,276.0,2700.0,20.09206241024974,3.42631373177814,9251.047075800978,14.284822126314635,4.432048086726533,5.807240283935103,1.0057343549483928,2164,76,712,1090,69.82353644956964,40.03007952200266,0.0006229705903592641,False
0.36000000000000004,1.0485544359881185,1.6,1986.0,30.1938,0.3,68900.0,0.33,276.0,2700.0,37.23743236073155,6.605021727034425,17833.55866299295,24.357521247727565,10.355569294814785,12.879911113003988,3.7505475677803597,3484,106,1154,1747,87.69096233947414,49.792078525926826,0.001046464482403966,False
0.37,0.8045262867490415,1.6,1987.0,30.1938,0.2,68900.0,0.33,276.0,2700.0,22.96275143260229,4.142021619909899,11183.458373756728,16.221721429338,5.4347659072358,6.741030003264289,1.2927442873259007,6043,118,1578,3346,75.79401918937502,43.50161332541532,0.0006800261577625159,False
0.38,1.0363666415295973,1.6,1988.0,30.1938,0.3,68900.0,0.33,276.0,2700.0,35.92800267076502,6.711396859386834,18120.771520344453,23.915677288139833,10.0614011757096,12.012325382625185,3.3500043163227655,3435,104,1142,1716,84.09281256461176,47.787389947285526,0.0009606786352709213,False
0.39,1.0545969662608785,1.6,1989.0,30.1938,0.3,68900.0,0.33,276.0,2700.0,36.80965200227429,7.053644717364621,19044.84073688448,24.57796529921224,10.503415912173036,12.23168670306205,3.449771194808415,3639,106,1214,1812,82.25214922445414,46.64290341184189,0.0009620991955183208,False
0.4,0.9219747290393945,1.6,1990.0,30.1938,0.3,68900.0,0.33,276.0,2700.0,28.621851649195573,5.590329043285585,15093.888416871081,19.95058593061928,7.555563354769852,8.671265718576294,1.9652343114842665,2678,90,894,1331,72.95496757403181,41.563605956636046,0.000750592442510816,False
0.4100000000000001,0.916388968229661,1.6,1991.0,30.1938,0.3,68900.0,0.33,276.0,2700.0,28.078560853935098,5.611757170204654,15151.744359552566,19.765391952276058,7.444641743390869,8.31316890165904,1.832884573186215,2755,90,920,1369,71.26233563244308,40.40972414503685,0.0007275591928372332,False
0.42000000000000004,1.0049693719684243,1.6,1992.0,30.1938,0.3,68900.0,0.33,276.0,2700.0,32.97545836663176,6.769676712646565,18278.127124145725,22.794628943720443,9.328177961452328,10.18082942291132,2.5585012488057624,3497,102,1144,1759,74.17621105772353,42.05623973225974,0.0008162876143500034,False
0.43,0.974165194936454,1.6,1993.0,30.1938,0.3,68900.0,0.33,276.0,2700.0,30.910480699100155,6.479234278900362,17493.93255303098,21.718835109970048,8.642638867115654,9.191645589130108,2.1634045882152915,3013,96,1008,1495,70.66857004762802,40.063868773071725,0.0007589589211543732,False
0.44,0.9527918823008492,1.6,1994.0,30.1938,0.3,68900.0,0.33,276.0,2700.0,29.445958154883492,6.299701841672106,17009.194972514688,20.986415431090958,8.18628298071421,8.459542723792534,1.8865811390421046,2659,90,888,1321,68.56848984878586,38.966858530707015,0.0007209572874575073,False
0.45,0.8491619814950149,1.6,1995.0,30.1938,0.3,68900.0,0.33,276.0,2700.0,23.613033842054485,5.12208086075668,13829.618324043035,17.59801648389851,6.189363402219937,6.015017358155976,1.067282541463257,2694,82,818,1405,65.51929867204045,37.5940327940926,0.0006111613382465632,False
0.46,0.807901802659813,1.6,1996.0,30.1938,0.2,68900.0,0.33,276.0,2700.0,21.342521172088126,4.7049198278937086,12703.283535313012,16.324051765313694,5.489695214306751,5.018469406774432,0.7847753864130427,5794,110,1454,3245,63.13147913446103,36.21920684226438,0.0005702809503153322,False
0.4700000000000001,1.0204765577259183,1.6,1997.0,30.1938,0.3,68900.0,0.33,276.0,2700.0,32.68713226624054,7.464029699850763,20152.88018959706,23.345220889259032,9.685919762426026,9.341911376981507,2.2218900625752633,3260,98,1054,1647,72.5968043461243,41.481138800255046,0.0007543846828502352,False
0.4800000000000001,1.049187402552097,1.6,1998.0,30.1938,0.3,68900.0,0.33,276.0,2700.0,34.173847147320345,7.970099972192907,21519.26992492085,24.380570154148465,10.37099408540873,9.79327699317188,2.4008941132158235,3214,98,1046,1617,72.81723212111466,41.38505878514036,0.0007698809448585216,False
0.49,0.9771923084413081,1.6,1999.0,30.1938,0.2,68900.0,0.33,276.0,2700.0,29.70399537289253,7.031075376957213,18983.903517784474,21.823496282200423,8.708542598714674,7.880499090692105,1.6774672217574604,7930,134,1948,4482,68.09660226745949,38.98986978113378,0.0006978421118504386,False
0.5,0.8191425321077757,1.6,2000.0,30.1938,0.2,68900.0,0.33,276.0,2700.0,21.155164425003267,5.026991718451667,13572.8776398195,16.666884330804027,5.675113333059847,4.48828009419924,0.6481216146081801,5900,110,1436,3346,61.188279235921335,34.99343014554579,0.0005437335341986212,False
0.01,0.57535223588394,1.6,2001.0,33.21318,0.08,68900.0,0.33,276.0,2700.0,19.643963209704758,0.0982177216534201,265.18784846423426,9.943919663078274,2.4617318864199924,9.700043546626484,2.3635141647665723,24613,270,8196,12313,1916.736078030408,1105.5105068523474,0.015562451120787498,True
0.02,0.5940408869429251,1.6,2002.0,33.21318,0.1,68900.0,0.33,276.0,2700.0,20.318224529379087,0.20316549013297022,548.5468233590196,10.406428714389694,2.6518784955432935,9.911795814989393,2.4487130054103234,16442,222,5450,8261,949.7403356292601,538.18837045157,0.008170028558952533,True
0.03,0.5103106389830045,1.6,2003.0,33.21318,0.1,68900.0,0.33,276.0,2700.0,16.13034764256313,0.24189866597068227,653.1263981208422,8.40269798041474,1.8656615100003546,7.727649662148391,1.6237628440296723,13179,194,4336,6669,589.5867856001354,335.87166853624956,0.004178993155849142,True
0.04,0.37361983690929335,1.6,2004.0,33.21318,0.08,68900.0,0.33,276.0,2700.0,10.262775397366438,0.205121466660776,553.8279599840952,5.5101983456006245,0.9201280789427525,4.7525770517658135,0.7150066122819765,13174,184,4330,6673,328.5995214416897,188.10000507114208,0.0020037107068585354,True
0.05,0.7070089288265243,1.6,2005.0,33.21318,0.2,68900.0,0.33,276.0,2700.0,25.41845832526516,0.6351996587438302,1715.0390786083417,13.389075423016575,3.9929248164255537,12.029382902248585,3.3577251576817235,5297,128,1746,2672,447.5791150791055,258.403918781484,0.004431400523626814,True
0.06000000000000001,0.6553707303775015,1.6,2006.0,33.21318,0.2,68900.0,0.33,276.0,2700.0,22.42557139302229,0.6723147524483412,1815.2498316105211,11.985897013413306,3.3380542697343163,10.439674379608986,2.6657395172859752,4675,118,1544,2353,358.8295912770719,204.85973819224844,0.0032068153778164405,True
0.06999999999999999,0.5002458145937021,1.6,2007.0,33.21318,0.2,68900.0,0.33,276.0,2700.0,14.825183766521677,0.5181630543082987,1399.0402466324065,8.173701853770604,1.7822443687215084,6.651481912751073,1.2640813144132097,3265,92,1070,1654,244.81501902878657,141.32041683856357,0.001758701654485977,False
0.08,0.4389081399590619,1.6,2008.0,33.21318,0.2,68900.0,0.33,276.0,2700.0,12.060051840571038,0.48132974333041684,1299.5903069921255,6.833175982169832,1.3224842001506532,5.226875858401206,0.8411544568202363,2649,82,874,1332,193.9031309332757,111.94543031720552,0.0013018331685580664,False
0.09,0.7156567488231156,1.6,2009.0,33.21318,0.2,68900.0,0.33,276.0,2700.0,24.839464099580656,1.1162490704514825,3013.872490219003,13.630616305373175,4.109754177142276,11.20884779420748,2.993505106690793,5128,124,1690,2587,270.19527343570036,154.7507799745509,0.0024683004929432722,False
0.09999999999999999,0.5579623081410001,1.6,2010.0,33.21318,0.2,68900.0,0.33,276.0,2700.0,16.760913360250953,0.8359512729101554,2257.0684368574193,9.521435766922355,2.292492338385143,7.239477593328598,1.4565410654749877,3713,100,1218,1880,186.86691308636324,107.8530460705289,0.0014635793949537058,False
0.11,0.5979109114405254,1.6,2011.0,33.21318,0.2,68900.0,0.33,276.0,2700.0,18.39983032109527,1.0092030277788948,2724.848175003016,10.503301637190896,2.6923389584980164,7.896528683904373,1.6831359307191216,3900,104,1272,1986,182.08915835850974,105.02847439309089,0.0014751729477715018,False
0.12,0.6431335298144354,1.6,2012.0,33.21318,0.3,68900.0,0.33,276.0,2700.0,20.361328946663335,1.218060622062867,3288.763679569741,11.66319490921783,3.1933587672373336,8.698134037445504,1.9752981451744667,2077,76,682,1048,182.84245736049357,105.55609249789455,0.0015078856750016902,False
0.13,0.7567695305940395,1.6,2013.0,33.21318,0.3,68900.0,0.33,276.0,2700.0,26.04218726239207,1.688140786015341,4557.980122241421,14.804639102294162,4.694134859941195,11.237548160097907,3.0059940739258537,2697,88,878,1374,197.39343549015166,113.82021592900551,0.0018711092140050534,False
0.14,0.4800992366696256,1.6,2014.0,33.21318,0.2,68900.0,0.33,276.0,2700.0,12.595544028144754,0.8759410618091658,2365.0408668847476,7.722973028008374,1.6221296953595374,4.8725710001363804,0.7461886335503717,2814,84,926,1419,318.09463951937323,169.01744809917858,0.0008734041354146044,True
0.15000000000000002,0.7798052278642528,1.6,2015.0,33.21318,0.2,68900.0,0.33,276.0,2700.0,26.797021086566023,2.002707998021873,5407.311594659058,15.48101933578657,5.042934888304778,11.316001750779453,3.040226890282905,5572,130,1842,2803,170.60474481844685,98.43495662042055,0.0016964848977532926,False
0.16,0.6700113788863111,1.6,2016.0,33.21318,0.3,68900.0,0.33,276.0,2700.0,20.772776874348057,1.6532435076084369,4463.75747054278,12.376924421096929,3.5163914497513864,8.395852453251129,1.8631479421429495,2178,78,718,1095,144.9862002459772,83.68235736825652,0.0012176995586486437,False
0.17,0.5031948518306794,1.6,2017.0,33.21318,0.3,68900.0,0.33,276.0,2700.0,12.985278509732641,1.093458910189216,2952.3390575108833,8.24053501115337,1.8064474128715988,4.744743498579272,0.7129885026823828,1435,60,468,727,106.42388042161775,61.43732166286594,0.0007790769377657819,False
0.18000000000000002,0.8306486986667725,1.6,2018.0,33.21318,0.3,68900.0,0.33,276.0,2700.0,28.882029836966375,2.5871681730898173,6985.354067342507,17.021101490365155,5.868919930567586,11.86092834660122,3.2817517574777684,3015,94,988,1527,155.00962265598002,89.22234550764989,0.001587024624507446,False
0.19,0.8750722565331075,1.6,2019.0,33.21318,0.3,68900.0,0.33,276.0,2700.0,31.204699182287232,2.9500809663098297,7965.21860903654,18.41990240333395,6.655944063252777,12.784796778953282,3.7058630969429474,3095,98,1016,1565,154.0192071558639,88.45559208737426,0.0016662332770968778,False
0.2,0.6632036123048233,1.6,2020.0,33.21318,0.2,68900.0,0.33,276.0,2700.0,19.547270946098976,1.9379719337907524,5232.524221235031,12.194430186911873,3.432754087174116,7.352840759187103,1.4947821533833636,4045,108,1336,2035,114.84204168289587,66.21964596734313,0.0009751906474955588,False
0.21000000000000002,0.7608591688897803,1.6,2021.0,33.21318,0.3,68900.0,0.33,276.0,2700.0,24.274799532200074,2.529457757837745,6829.535946161911,14.923746468996066,4.754923888735947,9.351053063204008,2.225466130898202,2436,82,798,1233,125.98059432407726,72.40863102994767,0.0011335249064718619,False
0.22,0.5815314354880947,1.6,2022.0,33.21318,0.3,68900.0,0.33,276.0,2700.0,15.37286951095864,1.6687145271551693,4505.5292233189575,10.095871899969053,2.523646328320853,5.2769976109895875,0.8549318011656837,1750,66,576,880,95.49526922392333,55.04613252613313,0.000749545563069767,False
0.23,0.8485387936074866,1.6,2023.0,33.21318,0.3,68900.0,0.33,276.0,2700.0,28.60445737977392,3.2640300934631816,8812.881252350591,17.57845646471877,6.178402626793057,11.02600091505515,2.914372533329875,2899,92,954,1462,126.64321173099566,72.53754259954164,0.0012720722336801477,False
0.24000000000000005,0.6745971498632243,1.6,2024.0,33.21318,0.3,68900.0,0.33,276.0,2700.0,19.243027044027272,2.2802103273877905,6156.567883947035,12.500510699435774,3.573432357755164,6.742516344591499,1.2932220303673736,2127,76,700,1071,99.47765495703395,57.306929993625474,0.0008471502864928985,False
0.25,0.788776327909092,1.6,2025.0,33.21318,0.3,68900.0,0.33,276.0,2700.0,24.81217501990578,3.068796954012985,8285.751775835059,15.74803940677453,5.183012881294943,9.06413561313125,2.1142159272819585,2542,86,842,1273,110.05706095252935,63.198511685260875,0.001016014833638289,False
0.26,0.8072197874792446,1.6,2026.0,33.21318,0.3,68900.0,0.33,276.0,2700.0,25.567599743338064,3.286976878314287,8874.837571448576,16.30335307314125,5.478569022269994,9.264246670196815,2.191592143955707,2564,86,846,1289,107.86876331364007,61.86706724645617,0.0010123300413158232,False
0.27,0.6919476117266434,1.6,2027.0,33.21318,0.3,68900.0,0.33,276.0,2700.0,19.45208151386018,2.5848070255707007,6978.978969040892,12.972887510750454,3.7944090304885036,6.4791940031097255,1.209602004917803,2051,74,680,1025,90.31925850927475,51.96082156761367,0.0007910814529198178,False
0.28,0.6818671344100823,1.6,2028.0,33.21318,0.3,68900.0,0.33,276.0,2700.0,18.7669621659373,2.581398541943399,6969.776063247177,12.6975194975034,3.6650261980802594,6.069442668433901,1.0836276561368603,2018,74,666,1013,88.27523742251464,50.686349816094314,0.0007520311100228833,False
0.29000000000000004,0.9598651119990016,1.6,2029.0,33.21318,0.3,68900.0,0.33,276.0,2700.0,33.600520709693924,4.820995300753349,13016.687312034042,21.22752947555894,8.335576703949254,12.372991234134986,3.514581403195905,3524,104,1164,1772,110.99359652434084,63.2622962394324,0.0012506787532676,False
0.3,0.7634984857229279,1.6,2030.0,33.21318,0.2,68900.0,0.33,276.0,2700.0,22.360076621659715,3.297462825484341,8903.149628807721,15.000837587435692,4.794414079442061,7.359239034224023,1.4969512539577194,4451,114,1474,2232,90.94951670658772,52.18960624410634,0.000823079502299705,False
0.31,0.7852800835356887,1.6,2031.0,33.21318,0.3,68900.0,0.33,276.0,2700.0,23.260403542626698,3.5429684246116797,9566.014746451536,15.64373499486704,5.128136313491741,7.616668547759657,1.5851678888800609,2365,82,784,1183,90.05003330127504,51.628603263695666,0.0008308513194027343,False
0.32,0.6654270966156457,1.6,2032.0,33.21318,0.2,68900.0,0.33,276.0,2700.0,17.225936284998344,2.6875206668844664,7256.305800588059,12.25390652981293,3.4599343107091087,4.972029755185414,0.7724136438246423,3494,98,1140,1758,80.57552627976328,46.3723759652114,0.0006501792413407937,False
0.33,0.9873378817494454,1.6,2033.0,33.21318,0.3,68900.0,0.33,276.0,2700.0,34.21407769593916,5.57005654303526,15039.152666195203,22.17595462452089,8.931740238861162,12.03812307141827,3.361683695825901,3353,102,1108,1685,101.05318934549803,57.44572550619483,0.0011360665945766562,False
0.34,1.0015276540646627,1.6,2034.0,33.21318,0.3,68900.0,0.33,276.0,2700.0,34.822930053161976,5.837580003933073,15761.466010619299,22.673248220336003,9.249934243397101,12.149681832825973,3.412354239464028,3313,102,1094,1666,99.09985056382034,56.431354227213426,0.0011271627866058212,False
0.3500000000000001,0.7176395036697841,1.6,2035.0,33.21318,0.3,68900.0,0.33,276.0,2700.0,19.080632222411378,3.249313448906883,8773.146312048584,13.686261186803222,4.136835496438539,5.394371035608156,0.8875220475316556,1949,72,648,971,75.10294154350811,42.8929928225058,0.0006621144714147332,False
0.36000000000000004,1.0091075252398234,1.6,2036.0,33.21318,0.3,68900.0,0.33,276.0,2700.0,34.76122781313966,6.159304908467883,16630.123252863283,22.94096535391195,9.422808262618208,11.820262459227713,3.263503354150325,3512,104,1166,1757,94.02816076733315,53.286205843960474,0.00106757345128614,False
0.37,0.9224391892716082,1.6,2037.0,33.21318,0.3,68900.0,0.33,276.0,2700.0,29.354863546184912,5.324562360922686,14376.318374491251,19.966020262455256,7.564833192650368,9.388843283729656,2.240270831727682,2782,92,928,1384,86.72324058419576,49.419294232037934,0.0008905531594513154,False
0.38,0.7509985761705618,1.6,2038.0,33.21318,0.3,68900.0,0.33,276.0,2700.0,20.09659889583576,3.703430142150276,9999.261383805746,14.637279869769564,4.609181276209964,5.459319026066197,0.9057511340596878,2003,72,664,1001,70.33277137567013,40.26573140311852,0.0006559875543835035,False
0.39,0.7106825086293856,1.6,2039.0,33.21318,0.3,68900.0,0.33,276.0,2700.0,18.00759543349161,3.387243686451984,9145.557953420357,13.491451966469757,4.0422985938487,4.516143467021852,0.6550549073967158,1841,68,610,920,65.76147665694978,37.612222437904975,0.0005954220572830495,False
0.4,0.9311008791860671,1.6,2040.0,33.21318,0.3,68900.0,0.33,276.0,2700.0,29.138628719211514,5.693684457289141,15372.948034680681,20.254847499637606,7.739022173946948,8.883781219573908,2.045337716657807,2775,92,924,1383,80.34225374194475,45.49380935371295,0.0008418831965241794,False
0.4100000000000001,0.9413853579420381,1.6,2041.0,33.21318,0.3,68900.0,0.33,276.0,2700.0,29.490675160935318,5.901240603139656,15933.349628477072,20.600235803606278,7.949106513828315,8.89043935732904,2.0478659106886585,2786,92,926,1391,80.0261320552251,45.381230463120055,0.0008358242123507969,False
0.42000000000000004,1.088716897612461,1.6,2042.0,33.21318,0.3,68900.0,0.33,276.0,2700.0,38.18208532454939,7.863068373809264,21230.284609285012,25.839951449696233,11.36346064906802,12.342133874853157,3.500392275258757,3551,106,1182,1772,86.3244844783208,48.86666203023016,0.0010298153183852918,False
0.43,1.0821444839788017,1.6,2043.0,33.21318,0.3,68900.0,0.33,276.0,2700.0,37.49503758526681,7.894914009426382,21316.267825451232,25.594583891909362,11.194436723019429,11.900453693357445,3.2995227135930465,3555,106,1182,1774,84.41061463416084,47.835958306209825,0.0009869158155617862,False
0.44,0.811222752709444,1.6,2044.0,33.21318,0.3,68900.0,0.33,276.0,2700.0,21.888670966028894,4.637098660124093,12520.166382335052,16.425007370664602,5.544074132379358,5.463663595364292,0.9069754722552652,2154,76,716,1072,65.92606563354305,37.593886514950825,0.0006307754471040309,False
0.45,0.9658871861646254,1.6,2045.0,33.21318,0.3,68900.0,0.33,276.0,2700.0,29.964474829191765,6.551155082862568,17688.118723728934,21.433802459329016,8.464031099006556,8.53067236986275,1.9128760161439882,2943,94,978,1462,74.8538475028062,42.37294401743277,0.0007943475989541669,False
0.46,0.9819645602984843,1.6,2046.0,33.21318,0.3,68900.0,0.33,276.0,2700.0,30.659992696030887,6.847938278400559,18489.43335168151,21.98896260370175,8.813084415227957,8.671030092329136,1.9651461368273981,2929,94,974,1454,74.07720277744475,41.88435321958171,0.0007976822466916572,False
0.4700000000000001,1.1246231255209895,1.6,2047.0,33.21318,0.3,68900.0,0.33,276.0,2700.0,39.16567781319214,8.986487903384388,24263.51733913785,27.199603516224222,12.315588868956414,11.966074296967918,3.3291009655720263,3785,108,1230,1912,81.2078747014673,46.45759037872789,0.0009556745562862914,False
0.4800000000000001,0.8233533650040248,1.6,2048.0,33.21318,0.2,68900.0,0.33,276.0,2700.0,21.729361932931788,4.98342352073976,13455.243505997352,16.796128724634432,5.745566754777263,4.933233208297356,0.7621432340375032,5709,110,1416,3207,69.12508062870556,39.625223440044046,0.0006200014038178301,False
0.49,0.9804539041379516,1.6,2049.0,33.21318,0.2,68900.0,0.33,276.0,2700.0,29.88988077449612,7.076617300350093,19106.86671094525,21.93652232895815,8.779906270239303,7.953358445537969,1.7032889698892104,7860,134,1948,4426,74.71104873164127,42.64627256616518,0.0007714629144797888,False
0.5,0.9496205750326084,1.6,2050.0,33.21318,0.3,68900.0,0.33,276.0,2700.0,27.93919905819658,6.723000376749631,18152.101017224006,20.878719369615315,8.119899444374376,7.060479688581264,1.3968990676247444,3056,88,882,1629,75.00716992951533,42.95478869466808,0.0007209856063376578,False
0.01,0.6205481602962863,1.6,2051.0,36.23256,0.05,68900.0,0.33,276.0,2700.0,21.89974245105414,0.10949661786016798,295.64086822245355,11.07748877111721,2.936579524279011,10.822253679936932,2.827082906418843,67164,454,22280,33738,2529.1903665835416,1436.6123795524754,0.01931591444977431,True
0.02,0.49349478854109863,1.6,2052.0,36.23256,0.1,68900.0,0.33,276.0,2700.0,15.598963609214765,0.15597288093132788,421.1267785145853,8.021528263580628,1.7275778029148332,7.577435345634138,1.5716049219835053,12223,186,4052,6139,849.5721650142873,490.34935129406324,0.006483648224348697,True
0.03,0.37457385609556504,1.6,2053.0,36.23256,0.1,68900.0,0.33,276.0,2700.0,10.484812717956483,0.15721564210158254,424.48223367427283,5.528758956518485,0.9253937656555108,4.956053761437999,0.7681781235539282,8498,148,2794,4301,452.49547618551486,258.78030042696315,0.00286320615615072,True
0.04,0.36634595797412756,1.6,2054.0,36.23256,0.1,68900.0,0.33,276.0,2700.0,9.988562874981223,0.19963721621283617,539.0204837746577,5.369435834067448,0.8805603140423148,4.619127040913775,0.6809230978294787,8418,146,2764,4266,2979.9684587047223,1541.8598488988766,0.0021332948832868807,True
0.05,0.6608228883870549,1.6,2055.0,36.23256,0.2,68900.0,0.33,276.0,2700.0,22.960117690570733,0.5737411428764712,1549.1010857664721,12.130885560600753,3.4037981849313126,10.82923212996998,2.8300570420548414,4813,120,1588,2425,463.53866955187925,266.4877813360411,0.0042767838733166075,True
0.06000000000000001,0.7537761628746861,1.6,2056.0,36.23256,0.2,68900.0,0.33,276.0,2700.0,27.74083777235971,0.8317727438286748,2245.786408337422,14.717726151195805,4.649949268540735,13.023111621163906,3.81817652471206,5603,132,1846,2828,443.18658852056996,252.89047027519592,0.004514650844328939,True
0.06999999999999999,0.7370878309091016,1.6,2057.0,36.23256,0.2,68900.0,0.33,276.0,2700.0,26.53571586346021,0.9280316777009885,2505.685529792669,14.237305021024634,4.408353416538683,12.298410842435578,3.480321738837694,5327,130,1754,2690,384.45818066143,219.60726350145273,0.0036864679758522247,True
0.08,0.47701747297183134,1.6,2058.0,36.23256,0.2,68900.0,0.33,276.0,2700.0,13.626928313425683,0.5440048022446013,1468.8129660604236,7.654925898797512,1.5984342313285038,5.972002414628171,1.0544294290839025,3026,88,988,1538,218.4118046376255,125.88816121513234,0.0015874606044900836,False
0.09,0.6008477055412451,1.6,2059.0,36.23256,0.2,68900.0,0.33,276.0,2700.0,18.992054447272615,0.8531156360976218,2303.4122174635786,10.57706551032076,2.72329325438867,8.414988936951856,1.8701776182910483,4060,108,1328,2062,250.8372302434981,144.06590906470117,0.0019728303484699335,False
0.09999999999999999,0.699230178073668,1.6,2060.0,36.23256,0.3,68900.0,0.33,276.0,2700.0,23.709825111389605,1.1833968604670884,3195.1715232611386,13.173414083439182,3.88961430960108,10.536411027950424,2.7062174491339914,2486,84,814,1259,259.0855851420253,149.58211792014242,0.0023176936606741196,False
0.11,0.5440003556545709,1.6,2061.0,36.23256,0.2,68900.0,0.33,276.0,2700.0,15.917737019032137,0.8726878961654811,2356.2573196467993,9.187734383515837,2.1618897663263827,6.7300026355163,1.2892018701609016,3589,98,1174,1822,183.47627371558772,105.87771899419933,0.0014110520218241118,False
0.12,0.7117338225423195,1.6,2062.0,36.23256,0.3,68900.0,0.33,276.0,2700.0,23.869671026958965,1.4285611468806034,3857.115096577629,13.520812753686297,4.056497776275129,10.348858273272668,2.6279366293945254,2465,84,804,1253,217.2648691978837,125.43319022836208,0.001980257210956698,False
0.13,0.5322606677517473,1.6,2063.0,36.23256,0.3,68900.0,0.33,276.0,2700.0,14.988314010074259,0.9696390246148686,2618.025366460145,8.910938471166387,2.055656769603864,6.077375538907871,1.0860177449889954,1695,66,552,861,157.60488429583887,90.98301852490047,0.001174440043090232,False
0.14,0.7142936567056297,1.6,2064.0,36.23256,0.3,68900.0,0.33,276.0,2700.0,23.5104037176022,1.6399812400711857,4427.949348192202,13.59241921565532,4.091200429880275,9.917984501946878,2.4512191898090894,2404,82,788,1216,189.36085627255434,109.30124034341237,0.001693158128174998,False
0.15000000000000002,0.5697599727906136,1.6,2065.0,36.23256,0.3,68900.0,0.33,276.0,2700.0,16.24129031380784,1.211028190065011,3269.7761131755296,9.807227971251038,2.406505445723752,6.434062342556803,1.1954772556587407,1703,66,558,860,143.93230260496375,83.0926013833533,0.0011300427785688283,False
0.16,0.8436835210761191,1.6,2066.0,36.23256,0.3,68900.0,0.33,276.0,2700.0,30.173347152175268,2.4052891298346193,6494.280650553472,17.42639812067403,6.093423812043912,12.746949031501238,3.6881346822092924,3018,96,988,1530,193.56877298520027,111.38838634555607,0.0020233714596922135,False
0.17,0.8546646579672714,1.6,2067.0,36.23256,0.3,68900.0,0.33,276.0,2700.0,30.544836082055458,2.586021303836593,6982.257520358801,17.771152770738524,6.286675601006397,12.773683311316933,3.7006542971698044,3083,96,1010,1562,186.27491371642049,107.15722508412011,0.0019464678702490828,False
0.18000000000000002,0.8742874162238865,1.6,2068.0,36.23256,0.3,68900.0,0.33,276.0,2700.0,31.431928155800765,2.816659021784919,7604.979358819281,18.394759103414806,6.64149724910485,13.03716905238596,3.824838227319931,3099,98,1016,1569,178.61807006025447,102.52730944200212,0.0019225489069776612,False
0.19,0.5653269123668418,1.6,2069.0,36.23256,0.3,68900.0,0.33,276.0,2700.0,15.242855109811163,1.4337057794247452,3871.005604446812,9.699429156831581,2.3632685333272545,5.543425952979582,0.9295627539025093,1541,62,508,773,115.45982727281951,66.63873049532911,0.0008978324395034869,False
0.2,0.7673672188392493,1.6,2070.0,36.23256,0.3,68900.0,0.33,276.0,2700.0,24.8631367806511,2.469558517245963,6667.8079965641,15.11415480103591,4.852667392344361,9.74898197961519,2.3831088750983977,2513,86,828,1265,143.09206373182565,82.30649271340623,0.0013239055304220162,False
0.21000000000000002,0.5801190280926893,1.6,2071.0,36.23256,0.3,68900.0,0.33,276.0,2700.0,15.503340363703867,1.6084545451456416,4342.827271893232,10.061054889976944,2.509411437988646,5.442285473726923,0.9009568928430043,1726,66,568,868,107.93382502215286,62.2832486211749,0.0008503400680678631,False
0.22,0.6475327981677228,1.6,2072.0,36.23256,0.3,68900.0,0.33,276.0,2700.0,18.373736522103115,1.9988098983810607,5396.786725628864,11.778772874127974,3.2449223424213947,6.594963647975142,1.246112444040334,1953,72,642,984,117.28600817276579,67.64142819369901,0.0009457626643220381,False
0.23,0.8883460560308519,1.6,2073.0,36.23256,0.3,68900.0,0.33,276.0,2700.0,30.912416373847172,3.529445377781604,9529.502520010332,18.84748950868906,6.903279108986087,12.064926865158114,3.373833731204483,3046,96,1000,1540,142.04759966918635,81.40987667087416,0.0015187815041357992,False
0.24000000000000005,0.6040167590776937,1.6,2074.0,36.23256,0.2,68900.0,0.33,276.0,2700.0,15.981548998150098,1.8888329618825301,5099.848997082831,10.65690623280504,2.756938984354129,5.324642765345057,0.8681060224715991,3208,94,1062,1609,97.77640426646994,56.38760848974866,0.0007979462989693291,False
0.25,0.8064999800724281,1.6,2075.0,36.23256,0.3,68900.0,0.33,276.0,2700.0,25.767775401224647,3.1882470016781874,8608.266904531107,16.28152009286537,5.466841606523537,9.486255308359276,2.2785946048453494,2553,86,840,1287,120.87295315845726,69.42262609459031,0.001143940885517527,False
0.26,0.6360689439253076,1.6,2076.0,36.23256,0.3,68900.0,0.33,276.0,2700.0,17.036503371548523,2.1779343499816446,5880.422744950441,11.478611205171134,3.111615867221011,5.557892166377389,0.9336815172393664,1748,68,580,872,96.4117711562473,55.46547947647657,0.0007957205229531588,False
0.27,0.6200734271374029,1.6,2077.0,36.23256,0.3,68900.0,0.33,276.0,2700.0,16.124663399346733,2.1356055801114002,5766.135066300781,11.065315090382361,2.931323562891247,5.059348308964372,0.7957179827798466,1744,66,568,886,91.04605704680135,52.44468423380015,0.000743078239144589,False
0.28,0.613698874883464,1.6,2078.0,36.23256,0.3,68900.0,0.33,276.0,2700.0,15.656434211105655,2.145924628267055,5793.996496321049,10.90239978835041,2.861306932204086,4.754034422755245,0.7153823039370306,1641,64,544,819,88.38294202411508,50.813648352480584,0.0007110540153592095,False
0.29000000000000004,0.6652066574858471,1.6,2079.0,36.23256,0.3,68900.0,0.33,276.0,2700.0,17.789087256249182,2.528337450003866,6826.511115010438,12.24800441905726,3.457233720767292,5.541082837191922,0.9288962707634263,1798,68,594,901,91.31845542644253,52.440161845674176,0.0007650078075930206,False
0.3,0.8628490402947233,1.6,2080.0,36.23256,0.3,68900.0,0.33,276.0,2700.0,27.669463859484726,4.093870911158093,11053.451460126851,18.03007397319559,6.433179916541627,9.639389886289134,2.3393090053835337,2819,90,936,1409,108.08456859419573,61.924145675264825,0.0010654415506307468,False
0.31,0.6192777661258906,1.6,2081.0,36.23256,0.2,68900.0,0.33,276.0,2700.0,15.356131456545977,2.3178062512692295,6258.076878426919,11.044924492368384,2.9225274361506206,4.311206964177593,0.6047211848813911,3203,92,1058,1600,80.12687939769246,46.130792625248354,0.0006619860441471634,False
0.32,0.9425367598400256,1.6,2082.0,36.23256,0.3,68900.0,0.33,276.0,2700.0,31.767613718239893,5.014189056203166,13538.310451748548,20.639069319680974,7.972848017726647,11.128544398558919,2.958658961523481,3088,98,1018,1555,110.12093278685771,62.848635635624845,0.0011720084950314995,False
0.33,0.89907809979013,1.6,2083.0,36.23256,0.3,68900.0,0.33,276.0,2700.0,28.987051586771226,4.707597235022478,12710.51253456069,19.196436876890584,7.10742106151431,9.790614709880643,2.399823826491832,2721,90,902,1362,103.55531142133535,59.22986553921895,0.0010367669650649856,False
0.34,1.0155419385678415,1.6,2084.0,36.23256,0.3,68900.0,0.33,276.0,2700.0,35.69539702983156,5.985899389966734,16161.928352910183,23.169358664277777,9.571154146391885,12.526038365553784,3.585254756425151,3498,106,1162,1749,108.95637188586575,61.81211607364689,0.0012617980314396596,False
0.3500000000000001,0.7371864718830168,1.6,2085.0,36.23256,0.3,68900.0,0.33,276.0,2700.0,20.016413972510634,3.4130752551742556,9215.30318897049,14.240124118286953,4.409757937209122,5.7762898542236805,0.9966826820348662,2164,76,712,1090,83.64976836349688,47.95811301044553,0.0007453195085296842,False
0.36000000000000004,0.7315730820702643,1.6,2086.0,36.23256,0.3,68900.0,0.33,276.0,2700.0,19.550541514040212,3.421381374629981,9237.72971150095,14.08008596275957,4.330272118281084,5.470455551280642,0.9088907436511033,1969,72,654,982,79.26980497414826,45.40786122302457,0.0007193496638770795,False
0.37,0.9843720099691255,1.6,2087.0,36.23256,0.3,68900.0,0.33,276.0,2700.0,32.992207286692256,5.9974709529165455,16193.171572874673,22.072652320597662,8.866122446173298,10.919554966094594,2.8686514932567526,3257,100,1080,1631,99.56472811042157,56.71890164187079,0.001070698916992541,False
0.38,0.933664963372228,1.6,2088.0,36.23256,0.3,68900.0,0.33,276.0,2700.0,29.758913557881414,5.539269927938237,14956.028805433241,20.34070953852955,7.791067351555928,9.418204019351865,2.251797423617691,2770,92,922,1381,94.47775004256725,53.90994186476488,0.0009653362979959886,False
0.39,0.8818134763032013,1.6,2089.0,36.23256,0.2,68900.0,0.33,276.0,2700.0,26.620311294074682,5.066723279265704,13680.152854017402,18.636503010480716,6.7808461080304605,7.983808283593966,1.714122828764756,6894,126,1734,3869,92.52458263544939,53.015496142698275,0.0008840351259185463,False
0.4,0.763607551178771,1.6,2090.0,36.23256,0.2,68900.0,0.33,276.0,2700.0,20.320814345600592,3.9301215825668985,10611.328272930627,15.004027018763257,4.796050326557282,5.316787326837336,0.8659287439903833,5345,106,1322,3012,80.78053359142994,46.40453167957073,0.0007125510045500322,False
0.4100000000000001,1.0166141500034995,1.6,2091.0,36.23256,0.3,68900.0,0.33,276.0,2700.0,33.930051364077315,6.811312724783806,18390.544356916278,23.20751858676241,9.596017052879409,10.722532777314903,2.7847043280956028,3348,102,1116,1668,93.19439886076074,52.99064812722766,0.001018759150111198,False
0.42000000000000004,0.8126921173866668,1.6,2092.0,36.23256,0.3,68900.0,0.33,276.0,2700.0,22.355359249024872,4.539455897949117,12256.530924462617,16.469763943366935,5.568241333252169,5.885595305657937,1.0287854353030523,2569,82,810,1314,75.24327092756762,43.26983621464635,0.0007285702379904494,False
0.43,1.0746153613133,1.6,2093.0,36.23256,0.3,68900.0,0.33,276.0,2700.0,37.016905157787406,7.7921155375183195,21038.71195129946,25.31483376746894,11.00278599173183,11.702071390318466,3.2106704542135107,3528,106,1174,1759,90.73282456396844,51.237987918921704,0.0010647667664747055,False
0.44,0.7580971613057228,1.6,2094.0,36.23256,0.3,68900.0,0.33,276.0,2700.0,19.31265895037068,4.070376016679278,10990.01524503405,14.843259179733568,4.713815585187645,4.469399770637111,0.6434395685083674,1971,70,652,985,110.85240341630396,63.56776107858633,0.000631661294361179,False
0.45,1.0951036702331116,1.6,2095.0,36.23256,0.3,68900.0,0.33,276.0,2700.0,37.79432303956378,8.312870930196274,22444.75151152994,26.079428567245092,11.529258740818747,11.714894472318687,3.2163878106224733,3561,106,1174,1786,90.13503812747769,51.47887386082474,0.0010455636782678518,False
0.46,0.9761299336596927,1.6,2096.0,36.23256,0.3,68900.0,0.33,276.0,2700.0,30.322999748343005,6.7704299004323465,18280.160731167336,21.786738892717654,8.685377394190862,8.53626085562535,1.9149474937585156,2911,94,968,1445,80.47775820764721,45.51503253308126,0.0008628874585300102,False
0.4700000000000001,0.8116621633836507,1.6,2097.0,36.23256,0.2,68900.0,0.33,276.0,2700.0,21.34005931301725,4.797467555843287,12953.162400776875,16.438386050255986,5.551294395131571,4.901673262761264,0.7538268392882843,5879,110,1466,3302,76.08735149376575,43.77108787507682,0.000675734242187119,False
0.4800000000000001,1.1727053841762793,1.6,2098.0,36.23256,0.3,68900.0,0.33,276.0,2700.0,42.064760503129456,9.863919177587205,26632.581779485452,29.071069744674034,13.668166585976216,12.993690758455422,3.8042474083890117,4314,114,1360,2210,92.34567981184826,52.69023968099893,0.0011069829064696529,False
0.49,0.9817021287260743,1.6,2099.0,36.23256,0.2,68900.0,0.33,276.0,2700.0,29.96116127570266,7.094081023145695,19154.01876249338,21.97984854942573,8.80731501314185,7.981312726276933,1.7132339899961542,7894,134,1948,4454,82.53248128603103,47.11285979590663,0.0008425638696612264,False
0.5,0.8528878385455534,1.6,2100.0,36.23256,0.2,68900.0,0.33,276.0,2700.0,22.827667153966633,5.445117400692509,14701.816981869775,17.715163708881832,6.255149224591925,5.112503445084801,0.8100318238994157,6036,114,1492,3400,76.02095665615344,43.629180468165366,0.0006841348508138284,False
0.01,0.33665334288837484,1.6,2101.0,39.25194,0.05,68900.0,0.33,276.0,2700.0,9.433363661046036,0.0471647239101277,127.3447545573448,4.808624101202719,0.7295085342497158,4.6247395598433165,0.6823438103395881,31602,278,10476,15882,44728.8744171072,23360.28913841439,0.00808742212656627,True
0.02,0.6829101723175887,1.6,2102.0,39.25194,0.1,68900.0,0.33,276.0,2700.0,24.91248386272796,0.24910808346646143,672.5918253594459,12.725893668589157,3.6782849875388037,12.186590194138804,3.4291769040723423,19354,246,6416,9724,1337.769348393769,762.2837537459804,0.012402774155808854,True
0.03,0.5043890521386656,1.6,2103.0,39.25194,0.1,68900.0,0.33,276.0,2700.0,15.864738444212566,0.23791452799542487,642.3692255876472,8.267660995592127,1.8163044556824814,7.597077448620439,1.5783899276870565,12561,188,4134,6354,680.2656327210424,387.9816782083126,0.004842606699285614,True
0.04,0.6257270682625711,1.6,2104.0,39.25194,0.1,68900.0,0.33,276.0,2700.0,21.41025391449263,0.4280710370033021,1155.7917999089157,11.21066052031353,2.994293370318835,10.199593394179098,2.5662223333155327,16919,226,5572,8555,685.0926794317303,391.0465826583346,0.005255285118611549,True
0.05,0.4321919970908809,1.6,2105.0,39.25194,0.1,68900.0,0.33,276.0,2700.0,12.36993110250757,0.3089864781748905,834.2634910722044,6.692139240873223,1.2770658599437477,5.677791861634347,0.9680793817688571,9961,164,3276,5041,359.915871193318,206.19415213580646,0.002328301250321282,True
0.06000000000000001,0.6969644148663591,1.6,2106.0,39.25194,0.2,68900.0,0.33,276.0,2700.0,24.61282178400607,0.7379322641780658,1992.4171132807776,13.11088310817565,3.8598373372091084,11.50193867583042,3.1219050730310425,4843,124,1594,2446,444.9806346508153,254.279684824692,0.004238856557340552,True
0.06999999999999999,0.4659455804930012,1.6,2107.0,39.25194,0.2,68900.0,0.33,276.0,2700.0,13.362966865159873,0.4669854627604751,1260.8607494532828,7.412421341318657,1.5150250496918694,5.950545523841216,1.0480395869313943,2997,88,984,1515,269.21252141525093,155.42200802634989,0.0018872350709590224,False
0.08,0.6588858645990999,1.6,2108.0,39.25194,0.2,68900.0,0.33,276.0,2700.0,22.109986356425114,0.8833271239645802,2384.9832347043666,12.079288969275284,3.3803503581655683,10.03069738714983,2.497023234200988,4631,118,1528,2333,320.1943061512301,184.75140891311864,0.002842491838598662,True
0.09,0.3932795052513666,1.6,2109.0,39.25194,0.1,68900.0,0.33,276.0,2700.0,10.102035417075236,0.4530647797387409,1223.2749052946003,5.897301891288237,1.0322460002908416,4.204733525786999,0.5791812205521008,8173,146,2694,4126,171.323490814373,98.86896720617693,0.0011955837274849606,False
0.09999999999999999,0.690541692890099,1.6,2110.0,39.25194,0.3,68900.0,0.33,276.0,2700.0,23.25349113683189,1.160580161739204,3133.566436695851,12.934328823670915,3.7761973145852044,10.319162313160975,2.615617152846,2478,84,810,1257,274.01330264228466,158.04073288008215,0.0024514199700785663,False
0.11,0.5282168605205497,1.6,2111.0,39.25194,0.2,68900.0,0.33,276.0,2700.0,15.218696290136172,0.8342406560762041,2252.449771405751,8.81639648162901,2.0198139454615545,6.402299808507163,1.1855732893853503,3466,96,1136,1756,194.82098339948428,112.42338506588722,0.001466512723222476,False
0.12,0.6247326189774242,1.6,2112.0,39.25194,0.3,68900.0,0.33,276.0,2700.0,19.46050838451074,1.1640113883337089,3142.830748501014,11.18503670831517,2.9831576798288597,8.275471676195568,1.8191462914951508,2086,76,684,1054,211.12739929745769,121.89181060591869,0.0017095469659297628,False
0.13,0.7261227164191517,1.6,2113.0,39.25194,0.3,68900.0,0.33,276.0,2700.0,24.383946874727396,1.5803551608173227,4266.958934206771,13.925453409202717,4.253952242470217,10.458493465524679,2.6735970816528942,2542,86,832,1288,221.24683691843717,127.69150094286603,0.00204506392446691,False
0.14,0.7475500659102325,1.6,2114.0,39.25194,0.3,68900.0,0.33,276.0,2700.0,25.283893167234123,1.7641255015454202,4763.138854172635,14.537671671342803,4.558876302235196,10.74622149589132,2.7947508006897754,2618,86,858,1325,214.422832891091,123.74585274928393,0.0019954675346587326,False
0.15000000000000002,0.7031096174705991,1.6,2115.0,39.25194,0.3,68900.0,0.33,276.0,2700.0,22.685676435808684,1.6943571492148835,4574.764302880185,13.280779190702535,3.940927907119185,9.404897245106149,2.2465707579043013,2303,80,758,1160,189.7265333127192,109.39409921504055,0.0016526487386849633,False
0.16,0.8295366355538065,1.6,2116.0,39.25194,0.2,68900.0,0.33,276.0,2700.0,29.35088169535677,2.33949189328914,6316.628111880678,16.98672139122281,5.8500105107585,12.364160304133957,3.5105186174693594,5986,140,1974,3019,201.17594842279803,115.96912164269986,0.0021143798828964014,False
0.17,0.8393964608770378,1.6,2117.0,39.25194,0.3,68900.0,0.33,276.0,2700.0,29.653020282359435,2.5102169608624614,6777.5857943286455,17.292627680938214,6.019002700231733,12.360392601421221,3.508785739369271,3070,96,1006,1555,199.56949609163988,114.82948656229392,0.0020368934822481513,False
0.18000000000000002,0.86331795253156,1.6,2118.0,39.25194,0.3,68900.0,0.33,276.0,2700.0,30.781953584079453,2.758161310329843,7447.035537890576,18.044959475238294,6.4416379286399685,12.73699410884116,3.6834766183101255,3136,98,1032,1582,189.89433098870222,109.22336546765989,0.002026539202897836,False
0.19,0.49834401873195044,1.6,2119.0,39.25194,0.3,68900.0,0.33,276.0,2700.0,12.425290797206184,1.1660371697272727,3148.300358263636,8.130717945943827,1.7667405440760058,4.294572851262357,0.6007033743487331,1387,58,454,700,113.12430945493577,65.30680070368358,0.0008235248006135815,False
0.2,0.7180227410780403,1.6,2120.0,39.25194,0.3,68900.0,0.33,276.0,2700.0,22.27691541670208,2.210936380851066,5969.528228297878,13.697027919997534,4.142082646694063,8.579887496704547,1.931146265842997,2207,80,730,1106,147.60468456861184,84.9555256763822,0.0012898264703139922,False
0.21000000000000002,0.6260952075419999,1.6,2121.0,39.25194,0.3,68900.0,0.33,276.0,2700.0,17.578879242298758,1.8263861273981081,4931.242543974892,11.220152608456779,2.9984222019054556,6.358726633841979,1.1720360745073475,1969,72,644,997,124.47482646244272,71.73334534323612,0.0010197370305053456,False
0.22,0.6740478757217664,1.6,2122.0,39.25194,0.3,68900.0,0.33,276.0,2700.0,19.64094338514946,2.138202653316159,5773.147163953629,12.485679929761917,3.5665702238991623,7.1552634553875425,1.4283675705830032,2113,76,698,1060,127.04884468537391,73.2149301853409,0.0010803093851048636,False
0.23,0.6386657811782801,1.6,2123.0,39.25194,0.3,68900.0,0.33,276.0,2700.0,17.75335309345233,2.0161531005362,5443.61337144774,11.54631564864637,3.141511824444576,6.207037444805959,1.1253587239083762,1917,72,630,966,117.08252941502755,67.43021285511794,0.0009668139996039569,False
0.24000000000000005,0.8521708281446045,1.6,2124.0,39.25194,0.3,68900.0,0.33,276.0,2700.0,28.55609161810568,3.397778076277197,9174.000805948432,17.69259258310829,6.242455360596148,10.863499034997389,2.844677284318951,2894,92,954,1457,144.081755379566,82.4505819405507,0.0014444653664387388,False
0.25,0.6881063034791801,1.6,2125.0,39.25194,0.3,68900.0,0.33,276.0,2700.0,19.683931559678044,2.427766521484863,6554.96960800913,12.867653467475236,3.7447784076115966,6.816278092202808,1.3170118861267337,2118,76,698,1065,114.61098698143961,66.05164805600052,0.0009918347397110468,False
0.26,0.5796058319462656,1.6,2126.0,39.25194,0.3,68900.0,0.33,276.0,2700.0,14.545073082472847,1.8540484124018062,5005.930713484877,10.048416598929432,2.504251386634363,4.496656483543415,0.650202974232557,1668,64,552,834,94.35045802944626,54.41806788663531,0.0007617144053289446,False
0.27,0.762154616577275,1.6,2127.0,39.25194,0.3,68900.0,0.33,276.0,2700.0,22.95301895408149,3.057433580000598,8255.070666001615,14.961562986383955,4.7742813116947485,7.991455967697535,1.7168477316941506,2333,80,766,1178,117.12673461757721,67.27778056853958,0.0010659072361036536,False
0.28,0.7654630912559788,1.6,2128.0,39.25194,0.3,68900.0,0.33,276.0,2700.0,22.90031421775345,3.1600678291977484,8532.183138833921,15.05833490057606,4.823941271855252,7.84197931717739,1.6638734426575033,2361,82,780,1185,114.50159862837768,65.75440087296592,0.001038223717089472,False
0.29000000000000004,0.9580569741551757,1.6,2129.0,39.25194,0.3,68900.0,0.33,276.0,2700.0,33.49018752819038,4.8049969894353355,12973.491871475406,21.165773583029633,8.297250248537676,12.32441394516075,3.4922532591023403,3416,102,1134,1709,130.5685601274901,74.52640765153109,0.0014695226290414856,False
0.3,0.7340379898393739,1.6,2130.0,39.25194,0.3,68900.0,0.33,276.0,2700.0,20.881054632840343,3.0756095271614363,8304.145723335878,14.150263140099346,4.365064690329132,6.730791492740996,1.2894551631676956,2233,78,736,1123,103.80725528446871,59.61830863894923,0.000919705828945219,False
0.31,0.7949144597121677,1.6,2131.0,39.25194,0.3,68900.0,0.33,276.0,2700.0,23.76167689551565,3.6206657943095295,9775.79764463573,15.931903105229818,5.280240228262107,7.829773790285831,1.6595744339525775,2496,84,820,1260,106.9766606484492,61.330532309570486,0.0009949045267829764,False
0.32,0.6814589089731145,1.6,2132.0,39.25194,0.3,68900.0,0.33,276.0,2700.0,17.962031390084253,2.8052958836982596,7574.298885985301,12.686421824981078,3.6598450129535296,5.275609565103174,0.85454912925527,1862,70,614,935,92.73355113717196,53.302853002224666,0.0007848646150750445,False
0.33,0.6494079034377673,1.6,2133.0,39.25194,0.3,68900.0,0.33,276.0,2700.0,16.32126095607914,2.617741780958354,7067.902808587556,11.828183649365801,3.2670550929066984,4.493077306713339,0.6493133119483443,1776,66,582,897,82.5085597091661,47.493388490644044,0.0007231226292284732,False
0.34,0.9257562074833299,1.6,2134.0,39.25194,0.3,68900.0,0.33,276.0,2700.0,30.27671997446356,5.064724290554343,13674.755584496726,20.076404673879562,7.631243842591286,10.200315300583998,2.566519552036943,2984,96,988,1496,110.8786354979345,63.014643664549496,0.0011433608288656822,False
0.3500000000000001,0.7167017693812263,1.6,2135.0,39.25194,0.3,68900.0,0.33,276.0,2700.0,19.0362223815668,3.241541726759083,8752.162662249524,13.6599318955682,4.1240137667081305,5.376290485998602,0.8824720399490475,1952,72,648,974,89.2055803033531,50.93854302124779,0.0007769920478119854,False
0.36000000000000004,0.9051131452813496,1.6,2136.0,39.25194,0.2,68900.0,0.33,276.0,2700.0,28.608086373482063,5.0517394493295145,13639.696513189689,19.393935142750426,7.223867926482237,9.214151230731638,2.1721284771527225,7755,136,2070,4262,108.5574497988705,62.124819826484476,0.001065097043273155,False
0.37,0.8071784115327707,1.6,2137.0,39.25194,0.2,68900.0,0.33,276.0,2700.0,23.098841597976367,4.167198300504107,11251.435411361088,16.30209771771575,5.47789448157678,6.7967438802606175,1.3106961810726734,5960,118,1580,3282,99.20277144095044,56.83341228340145,0.0008866417459210907,False
0.38,0.7172194329530509,1.6,2138.0,39.25194,0.3,68900.0,0.33,276.0,2700.0,18.493572679571976,3.398855161060157,9176.908934862424,13.674463893209104,4.131088776896435,4.819108786362872,0.7322336158362783,1931,72,640,965,81.42269218585321,46.51594377075717,0.00072418169219971,False
0.39,1.0372046470189944,1.6,2139.0,39.25194,0.3,68900.0,0.33,276.0,2700.0,35.71607283991296,6.8403967807041735,18469.071307901268,23.94593796955125,10.081455322635744,11.770134870361712,3.2410585419315705,3416,104,1138,1703,105.30450397112322,59.741068595782494,0.0012089910783274595,False
0.4,0.7770954863816864,1.6,2140.0,39.25194,0.2,68900.0,0.33,276.0,2700.0,20.97869091066818,4.0616968955804715,10966.581618067274,15.400763058330014,5.001094106572108,5.577927852338167,0.9393972109916362,5744,110,1458,3203,89.133503184286,51.226642302583436,0.0007903447042835234,False
0.4100000000000001,1.0590730937871966,1.6,2141.0,39.25194,0.3,68900.0,0.33,276.0,2700.0,36.56121000831346,7.350700246852216,19846.89066650098,24.74185538650736,10.613796627824806,11.819354621806099,3.2630963809725904,3574,106,1190,1783,102.80993847542352,57.9456686280174,0.0011858705879722565,False
0.42000000000000004,1.0150603244129166,1.6,2142.0,39.25194,0.2,68900.0,0.33,276.0,2700.0,33.58413780972211,6.897499395695503,18623.24836837786,23.15222745753874,9.559999580848354,10.431910352183369,2.662500185152851,8672,144,2138,4893,101.56872201175085,57.898098353553785,0.0010925227848358676,False
0.43,0.8593349078944101,1.6,2143.0,39.25194,0.3,68900.0,0.33,276.0,2700.0,24.55117964593261,5.111984552469536,13802.358291667748,17.918694607155246,6.370015641221185,6.632485038777364,1.2580310887516486,2467,82,806,1242,84.82401665907757,48.24956311437588,0.0008379841364347478,False
0.44,0.7463321736301203,1.6,2144.0,39.25194,0.2,68900.0,0.33,276.0,2700.0,18.761372569403246,3.9490930128664496,10662.551134739415,14.502564983271661,4.541192366001283,4.258807586131585,0.5920993531348335,5187,102,1312,2897,80.72548074713073,46.359752066773495,0.0006905261971627507,False
0.45,0.9573286748925378,1.6,2145.0,39.25194,0.3,68900.0,0.33,276.0,2700.0,29.47550871371241,6.4411377068797115,17391.07180857522,21.140922160540836,8.28184428168941,8.334586553171576,1.8407065748096976,3064,94,1014,1527,87.67205294099465,49.93888259867421,0.000927671144655761,False
0.46,1.0448404619950384,1.6,2146.0,39.25194,0.3,68900.0,0.33,276.0,2700.0,34.400121579887475,7.708167921687578,20812.053388556462,24.222483112008266,10.265356965720837,10.17763846787921,2.557189044033259,3549,102,1106,1834,94.15584868186701,53.759173778741726,0.001036162182196016,False
0.4700000000000001,0.8878662837164917,1.6,2147.0,39.25194,0.3,68900.0,0.33,276.0,2700.0,25.227049613090912,5.710910276360596,15419.457746173608,18.831957532961358,6.89424033146189,6.3950920801295545,1.183330055101294,2731,84,830,1422,82.63277772006894,47.3384028799985,0.0008124589069499639,False
0.4800000000000001,0.8723042743499521,1.6,2148.0,39.25194,0.2,68900.0,0.33,276.0,2700.0,24.20916614031909,5.578576530512713,15062.156632384325,18.331295757328476,6.605080776810466,5.877870382990615,1.026504246297753,6788,120,1668,3838,86.3310019662785,49.485677850599764,0.000789825920068011,False
0.49,1.1843499902223062,1.6,2149.0,39.25194,0.3,68900.0,0.33,276.0,2700.0,42.57193307104392,10.183720113004298,27496.044305111605,29.533043031663155,14.009374181963906,13.038890039380767,3.825654068959608,4356,114,1354,2249,97.90931279740568,55.6468149808414,0.0011930148548450685,False
0.5,1.1140108698691138,1.6,2150.0,39.25194,0.3,68900.0,0.33,276.0,2700.0,37.70472848665597,9.16438273386484,24743.83338143507,26.794378769004886,12.029092400239877,10.910349717651087,2.8647096663750364,3996,106,1200,2098,95.15872496506665,53.671260162014626,0.0010589776350280163,False
0.01,0.6499421568201136,1.6,2151.0,42.271319999999996,0.08,68900.0,0.33,276.0,2700.0,23.42193319278256,0.11710757156881142,316.19044323579084,11.842277900522976,3.2733781046596877,11.579655292259584,3.1562705330908765,29234,298,9736,14624,2670.34549762631,1535.452311645914,0.024665256077859805,True
0.02,0.6056976459856632,1.6,2152.0,42.271319999999996,0.1,68900.0,0.33,276.0,2700.0,20.89822121933804,0.20896545703252078,564.2067339878062,10.69935672245499,2.7748877058098755,10.19886449688305,2.5659222487773548,16570,224,5488,8332,1207.137649329972,696.3558029532026,0.010777269506145794,True
0.03,0.6836311191526072,1.6,2153.0,42.271319999999996,0.1,68900.0,0.33,276.0,2700.0,24.68531481938925,0.37022317362307133,999.6025687822926,12.745521850493894,3.6874667549549502,11.939792968895357,3.317243581331879,19584,246,6460,9888,1070.7172221899743,610.0619416519579,0.008877902820959465,True
0.04,0.6694562213906432,1.6,2154.0,42.271319999999996,0.1,68900.0,0.33,276.0,2700.0,23.66896917733205,0.47324534226008846,1277.7624241022388,12.361998821527614,3.509524450773284,11.306970355804435,3.0362791085131953,18816,240,6202,9507,829.9937506721737,473.7012961546571,0.006388795120059806,True
0.05,0.6275824513681256,1.6,2155.0,42.271319999999996,0.1,68900.0,0.33,276.0,2700.0,21.257186370968345,0.5311678598864088,1434.1532216933037,11.258534318251401,3.015137839191258,9.998652052716944,2.4839699793048493,17012,226,5598,8609,598.790133196973,342.15326575210736,0.0045349195297050195,True
0.06000000000000001,0.7513103945224919,1.6,2156.0,42.271319999999996,0.2,68900.0,0.33,276.0,2700.0,27.601706350523333,0.8275988011735819,2234.516763168671,14.646301294739837,4.613746855155133,12.955405055783496,3.7861480539815515,5744,132,1892,2900,515.6433662756806,294.5130476686868,0.0052314576355352435,True
0.06999999999999999,0.41578355708678627,1.6,2157.0,42.271319999999996,0.2,68900.0,0.33,276.0,2700.0,11.331045188003422,0.39586820405999973,1068.8441509619993,6.352335682358228,1.170055370392198,4.978709505645194,0.7741871663321984,2557,80,838,1294,265.3412090753212,153.11032040164457,0.0017496953770643625,False
0.08,0.4056092296104065,1.6,2158.0,42.271319999999996,0.04,68900.0,0.33,276.0,2700.0,10.750718366761296,0.4289564043777112,1158.1822918198202,6.145033529384798,1.1064814127644458,4.605684837376498,0.6775250083867346,72638,370,17746,41285,210.4734911886198,121.42780896823069,0.0014960313217986805,False
0.09,0.6080842975165976,1.6,2159.0,42.271319999999996,0.2,68900.0,0.33,276.0,2700.0,19.341060960417675,0.8688209291891499,2345.816508810705,10.759753159600537,2.8004953860636124,8.581307800817138,1.9316744568744624,4201,110,1378,2128,284.26093542919125,164.02640190329,0.00235203788230547,True
0.09999999999999999,0.7534541954825508,1.6,2160.0,42.271319999999996,0.3,68900.0,0.33,276.0,2700.0,26.64349949636035,1.3300805797156234,3591.2175652321835,14.708391185820501,4.645212143480802,11.935108310539848,3.3151315637651786,2722,88,888,1384,318.6762815820218,183.69151287791536,0.004063462620459182,True
0.11,0.4166479929649663,1.6,2161.0,42.271319999999996,0.2,68900.0,0.33,276.0,2700.0,10.634483779576895,0.5821089679954448,1571.694213587701,6.370068495089314,1.1755542203531717,4.264415284487581,0.5934452523577269,2513,78,820,1277,171.52604691730156,98.99978152108821,0.0011527089578416796,False
0.12,0.5362612961448145,1.6,2162.0,42.271319999999996,0.2,68900.0,0.33,276.0,2700.0,15.367008959774532,0.9184014228495362,2479.6838416937476,9.004875384172202,2.0914938922966826,6.36213357560233,1.1730924694471465,3481,96,1138,1768,193.64222350615245,111.72706059043212,0.001486538457936742,False
0.13,0.6942457052787074,1.6,2163.0,42.271319999999996,0.3,68900.0,0.33,276.0,2700.0,22.70923426645808,1.4714988412798182,3973.046871455509,13.036021921379104,3.8242944586003875,9.673212345078975,2.3527956173205693,2313,80,760,1167,228.53868108218268,131.6885487085603,0.0020316093199481047,False
0.14,0.698959377341863,1.6,2164.0,42.271319999999996,0.3,68900.0,0.33,276.0,2700.0,22.71138759913945,1.5840501117787955,4276.935301802748,13.165933683161459,3.8860479523174383,9.54545391597799,2.3019978405386428,2302,80,756,1162,215.44838889040773,124.31883231258703,0.001900360545960687,False
0.15000000000000002,0.8022090578887797,1.6,2165.0,42.271319999999996,0.3,68900.0,0.33,276.0,2700.0,28.05380061722637,2.096966462821403,5661.809449617788,16.151639325807142,5.397257690372517,11.902161291419226,3.300291227551114,2888,92,942,1469,229.86193814214826,132.39827984782238,0.002287083349202648,False
0.16,0.7680409649191267,1.6,2166.0,42.271319999999996,0.3,68900.0,0.33,276.0,2700.0,25.89258294660172,2.062827993388735,5569.635582149584,15.133927634705453,4.862857155186262,10.758655311896268,2.8000291617975273,2715,90,890,1374,206.85696114385127,119.17952627716915,0.001963347093314822,False
0.17,0.7818669238893303,1.6,2167.0,42.271319999999996,0.3,68900.0,0.33,276.0,2700.0,26.397974912183013,2.233538104397497,6030.552881873242,15.542205623729824,5.074915099742764,10.855769288453189,2.841376995345267,2745,90,902,1386,198.61706198017936,114.54838768136892,0.0019088515888976282,False
0.18000000000000002,0.6567047471184558,1.6,2168.0,42.271319999999996,0.3,68900.0,0.33,276.0,2700.0,19.669337386510893,1.758025852548824,4746.669801881824,12.021303316106604,3.35406726833361,7.6480340704042895,1.5960414157847862,2063,74,672,1049,160.55067950951317,92.55942511094807,0.0013506806098203827,False
0.19,0.5187916760972144,1.6,2169.0,42.271319999999996,0.2,68900.0,0.33,276.0,2700.0,13.261485075016255,1.2454756261192301,3362.784190521921,8.597636124571856,1.937750464618346,4.6638489504443985,0.692274838499116,3004,88,990,1513,227.6215332156648,129.2047855292914,0.000933584863375376,False
0.2,0.665624053075648,1.6,2170.0,42.271319999999996,0.3,68900.0,0.33,276.0,2700.0,19.664605991570625,1.9497054383379175,5264.204683512377,12.259180940802958,3.462348316158812,7.405425050767667,1.5126428778208945,2048,74,668,1040,152.52163731557124,87.91576373100581,0.0012482880595876202,False
0.21000000000000002,0.7426228507088374,1.6,2171.0,42.271319999999996,0.3,68900.0,0.33,276.0,2700.0,23.315296711268157,2.4287099616398895,6557.516896427702,14.395870548620453,4.487595658238787,8.919426162647705,2.0588856965988973,2365,82,780,1189,158.4846553913877,91.2452497128645,0.0013940006895782988,False
0.22,0.8013435345439652,1.6,2172.0,42.271319999999996,0.3,68900.0,0.33,276.0,2700.0,26.216734211984004,2.861539644267958,7726.157039523487,16.125497116978117,5.383289384183005,10.091237095005887,2.521749739915047,2794,90,914,1417,161.3175144727306,92.70815151469519,0.0015145472289304813,False
0.23,0.5546357229011224,1.6,2173.0,42.271319999999996,0.2,68900.0,0.33,276.0,2700.0,14.02942657833456,1.5879015512976566,4287.3341885036725,9.441483234424384,2.260951532257741,4.587943343910176,0.6730499809600843,3140,90,1042,1571,173.05627644228076,99.1587029357346,0.0008624388778386535,False
0.24000000000000005,0.9159874697525023,1.6,2174.0,42.271319999999996,0.3,68900.0,0.33,276.0,2700.0,32.29019477109581,3.8458704546360134,10383.850227517236,19.752110616357417,7.436708634975213,12.538084154738396,3.5908381803391998,3248,100,1066,1643,162.5160592026956,93.09090463612536,0.0017950826050966982,False
0.25,0.9413651999408221,1.6,2175.0,42.271319999999996,0.3,68900.0,0.33,276.0,2700.0,33.55646450405703,4.161833139532112,11236.949476736701,20.5995562282448,7.948691261099519,12.956908275812232,3.7868581215674073,3251,100,1070,1640,161.3512794581794,91.9829880085798,0.0018120405305985846,False
0.26,0.8572878592339381,1.6,2176.0,42.271319999999996,0.3,68900.0,0.33,276.0,2700.0,28.341637291783485,3.647601759612191,9848.524750952914,17.85395707322406,6.333401479834918,10.487680218559426,2.685799720222727,2869,92,942,1450,143.49566272945734,82.24516628831452,0.0014394082220624558,False
0.27,0.6232343078403813,1.6,2177.0,42.271319999999996,0.3,68900.0,0.33,276.0,2700.0,16.265537797365162,2.154623623843891,5817.483784378506,11.146476904954557,2.9664279090967005,5.119060892410605,0.8118042852528093,1795,68,592,901,106.14531881309381,61.18363616811544,0.0008717698932082703,False
0.28,0.8696528069682792,1.6,2178.0,42.271319999999996,0.3,68900.0,0.33,276.0,2700.0,28.543642873487254,3.9501338410004823,10665.361370701303,18.246599471359698,6.556588267806598,10.297043402127557,2.6064544268061156,2972,94,978,1499,134.73883843134092,77.02023613515084,0.0013567877407479772,False
0.29000000000000004,0.8727040296481618,1.6,2179.0,42.271319999999996,0.3,68900.0,0.33,276.0,2700.0,28.468895944517726,4.076909709802809,11007.656216467585,18.344080538419746,6.612411364670706,10.12481540609798,2.535501654867897,2991,94,984,1509,131.73765835255182,75.43880647406266,0.0013147939159221876,False
0.3,0.9087347414581528,1.6,2180.0,42.271319999999996,0.3,68900.0,0.33,276.0,2700.0,30.28913026889111,4.486820872569047,12114.416355936428,19.512892195914596,7.294320235567618,10.776238072976515,2.8074993629985707,3086,96,1022,1547,131.44538133892263,75.19949595693184,0.0013695340314957493,False
0.31,0.8745601742274093,1.6,2181.0,42.271319999999996,0.3,68900.0,0.33,276.0,2700.0,28.084329949361795,4.290677017655413,11584.827947669615,18.40349547775036,6.646515758289028,9.680834471611433,2.355838740633615,2706,90,896,1356,125.15868260442011,71.53443064653543,0.0012314694341302873,False
0.32,0.8475899290270339,1.6,2182.0,42.271319999999996,0.3,68900.0,0.33,276.0,2700.0,26.350469130341686,4.147445922139412,11198.103989776413,17.54869316504233,6.1617371745346405,8.801775965299356,2.0142912523952283,2656,88,882,1327,118.33974888834871,67.6942194955056,0.0011466016277852824,False
0.33,0.9492858081879868,1.6,2183.0,42.271319999999996,0.3,68900.0,0.33,276.0,2700.0,31.91249610745223,5.190295580934916,14013.798068524273,20.867365598801435,8.112911841882546,11.045130508650796,2.9226162609476303,3005,96,994,1508,125.23860180255075,71.49996675614835,0.0013333911525703925,False
0.34,0.7825080158606548,1.6,2184.0,42.271319999999996,0.3,68900.0,0.33,276.0,2700.0,22.470492334400106,3.737665591743556,10091.697097707602,15.561253499486963,5.084885188153071,6.909238834913143,1.3472195964095146,2401,82,792,1207,105.0222569818995,60.1692275556567,0.0009693473546071604,False
0.3500000000000001,0.8588921976498055,1.6,2185.0,42.271319999999996,0.3,68900.0,0.33,276.0,2700.0,26.274956361801173,4.508320173300096,12172.46446791026,17.90468505248848,6.362085952817068,8.370271309312692,1.853765779516972,2580,86,858,1287,110.97230446124479,63.355823490697176,0.0010731779694665288,False
0.36000000000000004,0.9092058829474559,1.6,2186.0,42.271319999999996,0.3,68900.0,0.33,276.0,2700.0,28.83996949866844,5.093478411863065,13752.391712030274,19.52839181434589,7.303517219695031,9.31157768432255,2.2100388078319666,2820,92,942,1401,110.78487284154743,63.16585929232114,0.0011388042447223008,False
0.37,1.0682415636951827,1.6,2187.0,42.271319999999996,0.3,68900.0,0.33,276.0,2700.0,38.22523840598975,6.965581709986583,18807.070616963774,25.079124161537955,10.842186089541379,13.146114244451795,3.876604379554796,3645,108,1210,1824,394.09984137408924,213.145914430958,0.001833675363148559,True
0.38,0.7316648581562143,1.6,2188.0,42.271319999999996,0.2,68900.0,0.33,276.0,2700.0,19.172076977738957,3.5277709777118686,9524.981639822045,14.082696137670876,4.331564453234829,5.089380840068081,0.8037934755229608,4974,104,1274,2769,98.35004205726706,56.572262151550106,0.0008202451102516674,False
0.39,0.7096288873179561,1.6,2189.0,42.271319999999996,0.3,68900.0,0.33,276.0,2700.0,17.95912807065986,3.3777925506998097,9120.039886889486,13.462054608658123,4.0280992018257304,4.4970734620017385,0.6503066511259208,1843,68,610,922,83.5190660114325,47.76910116624104,0.0007561873367236072,False
0.4,1.0900070175339882,1.6,2190.0,42.271319999999996,0.3,68900.0,0.33,276.0,2700.0,38.807920766755416,7.6275428667979135,20594.365740354366,25.8882428943602,11.396828431584698,12.919677872395216,3.7692855647867844,3625,108,1206,1810,114.05763407290564,64.3978706355082,0.0013956168966335282,False
0.4100000000000001,0.7601172190599667,1.6,2191.0,42.271319999999996,0.2,68900.0,0.33,276.0,2700.0,19.962280447330823,3.947919686850771,10659.383154497082,14.902106575159497,4.743859246296318,5.060173872171326,0.795939559445547,5183,104,1282,2924,93.06747300285045,53.4439450061647,0.0008074623134603496,False
0.42000000000000004,0.7336132384365439,1.6,2192.0,42.271319999999996,0.3,68900.0,0.33,276.0,2700.0,18.526887067267687,3.7354767397801076,10085.787197406291,14.138159362213127,4.359056916918777,4.38872770505456,0.6235801771386695,1902,70,636,942,77.51410952641223,44.31172126740035,0.0007411164374866193,False
0.43,1.099815579704355,1.6,2193.0,42.271319999999996,0.3,68900.0,0.33,276.0,2700.0,38.62842193882961,8.138591645442395,21974.197442694465,26.2567625300519,11.652560218975262,12.37165940877771,3.5139685735328676,3969,110,1310,1992,110.67247790193392,63.10769030498545,0.0013008629144306482,False
0.44,1.0410155315857628,1.6,2194.0,42.271319999999996,0.3,68900.0,0.33,276.0,2700.0,34.66506038903921,7.447904333186366,20109.34169960319,24.083773020669614,10.172973048901206,10.581287368369598,2.7250687157148397,3435,102,1112,1737,104.88611680536745,59.82607189520216,0.00115390271564368,False
0.45,0.9501757247120439,1.6,2195.0,42.271319999999996,0.3,68900.0,0.33,276.0,2700.0,29.06966982014329,6.349823955826662,17144.52468073199,20.897553733426918,8.131495486326312,8.172116086716372,1.7816715304996498,2672,90,892,1328,93.78688575429632,53.41010291495113,0.000984733177895293,False
0.46,0.8525360435633683,1.6,2196.0,42.271319999999996,0.3,68900.0,0.33,276.0,2700.0,23.58657399272488,5.221051976640179,14096.840336928482,17.70408776574303,6.248919067212349,5.88248622698185,1.0278670905721707,2729,82,814,1436,93.59657295281657,53.49156982265611,0.0008463836614840636,False
0.4700000000000001,0.8266347166188932,1.6,2197.0,42.271319999999996,0.3,68900.0,0.33,276.0,2700.0,22.08073199954722,4.971525637177829,13423.11922038014,16.897153200429692,5.800846433307296,5.183578799117527,0.8293207961294664,2464,78,770,1263,87.10137537501345,50.097456939281905,0.0007910639608253432,False
0.4800000000000001,1.1098882305456714,1.6,2198.0,42.271319999999996,0.3,68900.0,0.33,276.0,2700.0,37.95587089510438,8.877785671661185,23970.0213134852,26.637720796600043,11.918951909590454,11.31815009850434,3.0411662379292697,3965,108,1228,2049,103.40651997506167,59.12196785049339,0.0011739533463206492,False
0.49,0.987561993933014,1.6,2199.0,42.271319999999996,0.3,68900.0,0.33,276.0,2700.0,30.296838704762106,7.176321993265264,19376.069381816214,22.18376951054635,8.93671101615681,8.113069194215754,1.7603890228915455,3199,94,976,1663,96.87168445070968,55.18071651942576,0.0009786915223471185,False
0.5,0.9381670387631135,1.6,2200.0,42.271319999999996,0.3,68900.0,0.33,276.0,2700.0,27.30942522151274,6.565556917578801,17727.003677462762,20.491867760469844,7.882982831142096,6.817557461042895,1.3174259135632944,3088,88,878,1655,95.38517640319994,54.6257584873324,0.0009024126300595975,False
0.01,0.33360921569383883,1.6,2201.0,45.2907,0.05,68900.0,0.33,276.0,2700.0,9.32164297227858,0.04660612046629074,125.836525258985,4.752381220513755,0.7149561351771315,4.5692617517648255,0.6683500147108408,30791,274,10196,15491,1482.5645120908296,843.2194875076639,0.008782013395669648,True
0.02,0.6141001940504951,1.6,2202.0,45.2907,0.1,68900.0,0.33,276.0,2700.0,21.320536659736103,0.21318861143654108,575.6092508786609,10.91262623331582,2.8656843261046028,10.407910426420283,2.6524957146680617,17023,226,5634,8566,1362.3229519088675,775.4018834597028,0.011827177517262026,True
0.03,0.6686198787757214,1.6,2203.0,45.2907,0.1,68900.0,0.33,276.0,2700.0,23.88464550303396,0.35821313387774484,967.175461469911,12.339528088017536,3.499194982194451,11.545117415016422,3.140981848316706,19464,244,6434,9807,1116.6866524682011,635.9123099961706,0.009135733411264802,True
0.04,0.644092838116732,1.6,2204.0,45.2907,0.1,68900.0,0.33,276.0,2700.0,22.347182533152296,0.44680960937664715,1206.3859453169473,11.688356472467767,3.2045594339445755,10.658826060684529,2.757749824567928,17931,232,5904,9069,807.3104080468439,460.8639023547298,0.006385555288312833,True
0.05,0.5388005351516725,1.6,2205.0,45.2907,0.1,68900.0,0.33,276.0,2700.0,16.981097914209606,0.42426564846743914,1145.5172508620856,9.064706766720585,2.1144353519241204,7.916391147489021,1.6901697034566812,13233,196,4348,6705,543.5913747330377,310.72818662262995,0.0039026357953823973,True
0.06000000000000001,0.37089141204886866,1.6,2206.0,45.2907,0.1,68900.0,0.33,276.0,2700.0,9.79724730818285,0.29346502990336787,792.3555807390933,5.457242618219542,0.9051662021920073,4.340004689963308,0.6117011722886394,8033,142,2624,4091,278.5168020036723,160.111269283142,0.001862827569955405,True
0.06999999999999999,0.681140583308989,1.6,2207.0,45.2907,0.2,68900.0,0.33,276.0,2700.0,23.51507535661874,0.8223092599615349,2220.2350018961442,12.677770998230155,3.6558079762583477,10.837304358388586,2.8334987162968126,4867,122,1602,2458,448.18632254885966,256.023597905898,0.0039952003231252375,True
0.08,0.7239118754076928,1.6,2208.0,45.2907,0.2,68900.0,0.33,276.0,2700.0,25.546550648142368,1.0207896956332394,2756.1321782097466,13.86294239124541,4.22323440256354,11.683608256896958,3.202444706930301,5215,128,1714,2638,414.70930372947987,237.3174616006819,0.003886843281973818,True
0.09,0.5623007435390643,1.6,2209.0,45.2907,0.2,68900.0,0.33,276.0,2700.0,17.177365423144675,0.7714546300118652,2082.927501032036,9.626125411304859,2.3340273959618765,7.551240011839816,1.5625727659500113,3665,100,1206,1850,285.72192310814734,164.9192764076734,0.002225828958138472,True
0.09999999999999999,0.5406652340393523,1.6,2210.0,45.2907,0.2,68900.0,0.33,276.0,2700.0,15.979008801737946,0.7968560449845032,2151.511321458159,9.108747343295317,2.1313793481767136,6.870261458442629,1.3345233031922104,3461,96,1132,1757,248.62716123393278,143.52138293387299,0.0019100425903293876,False
0.11,0.6578732873071644,1.6,2211.0,45.2907,0.3,68900.0,0.33,276.0,2700.0,21.332163837454846,1.1704813711787307,3160.299702182573,12.052354433557102,3.36813278327659,9.279809403897744,2.1976514120978594,2183,78,716,1103,280.0000130488922,161.65741811565132,0.0023496457433970766,True
0.12,0.6886742067586735,1.6,2212.0,45.2907,0.3,68900.0,0.33,276.0,2700.0,22.66396773187014,1.3562189491752745,3661.791162773241,12.883188024762442,3.7520904008945726,9.7807797071077,2.395871451719298,2277,80,748,1149,262.38374632424143,151.02805820901824,0.0023297524572153585,False
0.13,0.5688204967492341,1.6,2213.0,45.2907,0.2,68900.0,0.33,276.0,2700.0,16.615669673855034,1.0754171427606203,2903.626285453675,9.784341469958179,2.3973025424088963,6.831328203896856,1.321885399648276,3562,98,1166,1807,202.21190920362167,116.61678595606939,0.0016037379189296577,False
0.14,0.6851436480674986,1.6,2214.0,45.2907,0.3,68900.0,0.33,276.0,2700.0,22.00161953389856,1.5343663472119333,4142.78913747222,12.78674375012931,3.7067758926995746,9.21487578376925,2.1724095454876413,2287,80,752,1153,228.3678104197791,131.8033856835953,0.0019601809451517483,False
0.15000000000000002,0.5968793840526527,1.6,2215.0,45.2907,0.3,68900.0,0.33,276.0,2700.0,17.479484714206524,1.3038927700949121,3520.510479256263,10.477444057364679,2.6815178538958304,7.002040656841846,1.3776250838009183,1939,72,634,982,189.84680841360776,109.60512554109604,0.0015017722629704212,False
0.16,0.8484520450869639,1.6,2216.0,45.2907,0.3,68900.0,0.33,276.0,2700.0,30.45284445782597,2.4276489142866766,6554.652068574027,17.57573445989998,6.176877839767985,12.877109997925992,3.7492289254813085,3052,96,1000,1546,245.5081664908976,141.31896272409676,0.002558233493348291,False
0.17,0.6190932040468166,1.6,2217.0,45.2907,0.3,68900.0,0.33,276.0,2700.0,18.08941902434948,1.527310853931649,4123.739305615452,11.040196948543848,2.9204893981989195,7.0492220758056305,1.3931785442672706,1969,72,644,997,179.21211267003426,103.44658755784691,0.0014064624156590797,False
0.18000000000000002,0.7127775126319484,1.6,2218.0,45.2907,0.2,68900.0,0.33,276.0,2700.0,22.473039742895164,2.0103590646234055,5427.969474483195,13.549988101805367,4.070624537179649,8.923051641089797,2.0602654725562433,4674,118,1540,2358,183.31633697006308,105.71003151300144,0.0016252770494012427,False
0.19,0.8397691587258052,1.6,2219.0,45.2907,0.3,68900.0,0.33,276.0,2700.0,29.141951968159354,2.754119980967827,7436.1239486131335,17.30423875220264,6.0254497889701595,11.837713215956715,3.2713298080023323,3009,94,986,1524,202.8594745595369,116.66883617221855,0.0020889397560877624,False
0.2,0.624754325353837,1.6,2220.0,45.2907,0.2,68900.0,0.33,276.0,2700.0,17.722869263406235,1.7555317655214775,4739.935766907989,11.185595747628716,2.983400472513178,6.537273515777519,1.2278687069917005,3803,102,1246,1928,147.3358481293927,84.99070476767766,0.0012281662263909341,False
0.21000000000000002,0.7426483818021037,1.6,2221.0,45.2907,0.3,68900.0,0.33,276.0,2700.0,23.316628343006656,2.428849782972434,6557.894414025572,14.39660373945754,4.487963209911961,8.920024603549116,2.0591134269395273,2377,82,782,1198,169.81047371448133,97.76429619692684,0.0014933231623711423,False
0.22,0.8840165688702004,1.6,2222.0,45.2907,0.3,68900.0,0.33,276.0,2700.0,30.923699385731847,3.379305813380224,9124.125696126604,18.707537701466606,6.821982274892266,12.216161684265241,3.4426764615120415,3037,96,998,1534,184.34733626140402,105.43312604714278,0.001973850311911215,False
0.23,0.7877032545610416,1.6,2223.0,45.2907,0.3,68900.0,0.33,276.0,2700.0,25.23119302090903,2.8761046921937203,7765.482668923045,15.715993441344477,5.166131276346838,9.515199579564552,2.2900265841531176,2520,86,834,1263,161.39344552763203,92.81329563307673,0.0014938172559959613,False
0.24000000000000005,0.8401207666460025,1.6,2224.0,45.2907,0.3,68900.0,0.33,276.0,2700.0,27.87398268192666,3.3159250039357167,8952.997510626436,17.31519598572664,6.031536022602425,10.55878669620002,2.715611018666708,2865,92,944,1443,162.57227119051853,93.21495585221253,0.0016185533073399222,False
0.25,0.6226026835161788,1.6,2225.0,45.2907,0.2,68900.0,0.33,276.0,2700.0,16.620673278708153,2.0448592363636253,5521.119938181789,11.130238635730986,2.959392651925041,5.490434642977167,0.9145334155614155,3337,96,1106,1672,121.04837047202875,69.7734314187509,0.001002786433508277,False
0.26,0.8421673492176387,1.6,2226.0,45.2907,0.3,68900.0,0.33,276.0,2700.0,27.490599824706027,3.5369668888921226,9549.810600008732,17.379035757172165,6.067038309659699,10.111564067533862,2.5300714207675763,2903,92,956,1463,151.6083585331105,86.9793963033734,0.0014854675087372328,False
0.27,0.9117352075664042,1.6,2227.0,45.2907,0.3,68900.0,0.33,276.0,2700.0,31.238256872956466,4.175940699048719,11275.039887431542,19.61169693445419,7.3530161808350565,11.626559938502275,3.1770754817863374,3178,98,1048,1600,155.76752025207105,88.86354206358119,0.0016667559756789057,False
0.28,0.7727230689011368,1.6,2228.0,45.2907,0.3,68900.0,0.33,276.0,2700.0,23.275857326174187,3.212643864376652,8674.138433816961,15.271651294313912,4.934037981303764,8.004206031860274,1.7213941169271116,2411,84,796,1211,132.9401878226809,76.29923419049847,0.001210317460027546,False
0.29000000000000004,0.7662459685655258,1.6,2229.0,45.2907,0.3,68900.0,0.33,276.0,2700.0,22.71920207440599,3.2432040986365993,8756.651066318818,15.081274082733227,4.835739078846137,7.637927991672765,1.5925349802095377,2317,82,768,1159,128.2898803309545,73.63541315963656,0.0011626848852626752,False
0.3,0.8313428934183924,1.6,2230.0,45.2907,0.3,68900.0,0.33,276.0,2700.0,25.932024054086774,3.8332549403484015,10349.788338940683,17.04257869501309,5.880743343869708,8.889445359073683,2.047488403521306,2676,88,888,1338,132.70640525037047,75.90462657468305,0.0012677409967991485,False
0.31,0.8318462168803165,1.6,2231.0,45.2907,0.3,68900.0,0.33,276.0,2700.0,25.72644631510852,3.9252050543464287,10598.053646735358,17.058158240910746,5.8893251940870295,8.668288074197775,1.9641201397406007,2568,86,856,1278,128.50542881194102,73.57860123012205,0.0012271490621782685,False
0.32,0.6728824903792459,1.6,2232.0,45.2907,0.2,68900.0,0.33,276.0,2700.0,17.56664110237382,2.742033437664592,7403.490281694398,12.454238855655635,3.552037919315949,5.112402246718183,0.8100044816513572,3848,102,1236,1956,107.4761163908036,61.58499931804927,0.000895606954188652,False
0.33,0.9991679070731656,1.6,2233.0,45.2907,0.3,68900.0,0.33,276.0,2700.0,34.94444836806733,5.690567703936404,15364.53280062829,22.590197919841362,9.196529130490475,12.354250448225965,3.5059614265540713,3407,104,1128,1709,139.0791894792718,79.04812596627623,0.0015879413415303572,False
0.34,0.8924630596758678,1.6,2234.0,45.2907,0.3,68900.0,0.33,276.0,2700.0,28.37042440297022,4.7406540434004745,12799.765917181281,18.981009716482042,6.98114899743265,9.389414686488177,2.240494954032176,2697,90,896,1347,124.8877470718621,71.28861473206211,0.0012489742520832927,False
0.3500000000000001,0.9551259778204009,1.6,2235.0,45.2907,0.3,68900.0,0.33,276.0,2700.0,31.75075304565616,5.466584592974722,14759.778401031748,21.06584166595154,8.23535994652015,10.68491137970462,2.7687753535454283,2993,96,990,1502,126.77214590932381,72.27308971416194,0.0013487491661780637,False
0.36000000000000004,0.6627331724415766,1.6,2236.0,45.2907,0.2,68900.0,0.33,276.0,2700.0,16.376942897778022,2.850133623702787,7695.360783997524,12.181862240345366,3.427020297554203,4.195080657432657,0.576886673851416,4133,96,1122,2254,104.51744407730892,60.17395986496166,0.0008108161322384502,False
0.37,0.9398118618221147,1.6,2237.0,45.2907,0.3,68900.0,0.33,276.0,2700.0,30.355712810193317,5.50971947476424,14876.242581863447,20.547220127937145,7.916733840861155,9.808492682256173,2.4070143660969148,2809,92,934,1402,119.66410197292365,68.15782916692525,0.0012478366213549113,False
0.38,0.7428092884607068,1.6,2238.0,45.2907,0.3,68900.0,0.33,276.0,2700.0,19.702700398676324,3.6285894276899815,9797.19145476295,14.401224963906579,4.490280091099078,5.3014754347697455,0.8616906634090964,2009,72,668,1001,98.40589013884009,56.12588918593825,0.0008754410428230552,False
0.39,0.9073705062263147,1.6,2239.0,45.2907,0.3,68900.0,0.33,276.0,2700.0,28.032887234376755,5.342175587624602,14423.874086586427,19.46804303346003,7.267730658280394,8.564844200916724,1.9255550706557916,2551,88,848,1273,112.43914286117614,64.05094215618016,0.001128379284651761,False
0.4,0.9616157752894456,1.6,2240.0,45.2907,0.3,68900.0,0.33,276.0,2700.0,30.896965825094803,6.045351878465799,16322.450071857656,21.28740065005674,8.372791356445193,9.609565175038064,2.327439477979394,3082,96,1032,1528,113.41385390243103,64.61022113916492,0.001201460097784407,False
0.4100000000000001,1.0945212512572238,1.6,2241.0,45.2907,0.3,68900.0,0.33,276.0,2700.0,38.82732204055976,7.815253213462713,21101.183676349323,26.057547823219963,11.514075959034907,12.769774217339794,3.698822745572194,3636,108,1210,1815,120.68378412450915,68.38905088669905,0.001461917638244371,False
0.42000000000000004,0.7365247915700417,1.6,2242.0,45.2907,0.3,68900.0,0.33,276.0,2700.0,18.66227149389046,3.7639074693708894,10162.5501673014,14.22121839093486,4.400341782806265,4.4410531029556015,0.6364343134353758,1915,70,638,952,88.02283269418535,50.379081199271226,0.0007976405736409068,False
0.43,0.9762569278851475,1.6,2243.0,45.2907,0.2,68900.0,0.33,276.0,2700.0,31.032467570883195,6.505461456333912,17564.745932101563,21.79113130718928,8.688144463123072,9.241336263693917,2.1826830067891594,8283,140,2054,4664,112.70260569322544,64.2671523504269,0.0011695378454991228,False
0.44,1.079814797592012,1.6,2244.0,45.2907,0.3,68900.0,0.33,276.0,2700.0,37.084197212268435,7.980114434296794,21546.308972601342,25.507870453012064,11.134910403391991,11.576326759256371,3.154795969095198,3513,106,1166,1754,110.48775877074348,62.6277508214753,0.001304396735845935,False
0.45,0.7873091468654559,1.6,2245.0,45.2907,0.2,68900.0,0.33,276.0,2700.0,20.52500232228121,4.427273768807692,11953.639175780767,15.704231184435203,5.159939800314017,4.820771137846007,0.7326660315063256,5486,108,1376,3072,98.18613965079233,56.07725546751727,0.0008269096986019694,False
0.46,0.8707671311554279,1.6,2246.0,45.2907,0.3,68900.0,0.33,276.0,2700.0,24.531973744099325,5.438493919456303,14683.93358253202,18.2821729989872,6.576940712253913,6.249800745112125,1.1384467927976099,2805,84,850,1466,97.60721391084999,56.2268381354803,0.0009312557449764108,False
0.4700000000000001,0.8582679047732289,1.6,2247.0,45.2907,0.3,68900.0,0.33,276.0,2700.0,23.682637475982457,5.347973424140108,14439.52824517829,17.884937690696045,6.350914350059696,5.797699785286412,1.0029409259195887,2801,82,814,1490,98.62267968064691,56.40069669408042,0.0009005353384358797,False
0.4800000000000001,0.98342556174089,1.6,2248.0,45.2907,0.3,68900.0,0.33,276.0,2700.0,30.28550648399768,7.036898212995579,18999.625175088066,22.039733743807407,8.845247403131966,8.245772740190272,1.8083491901363864,3074,94,980,1562,104.55747102508313,60.12433726173479,0.0010579327294716993,False
0.49,1.1024471693340936,1.6,2249.0,45.2907,0.3,68900.0,0.33,276.0,2700.0,37.226575685082636,8.874107553443704,23960.090394298,26.35604594987759,11.721787841400042,10.870529735205047,2.8476802879563383,4015,106,1212,2101,108.54383039581528,62.24644933430826,0.0012246601978020066,False
0.5,0.9226258932976164,1.6,2250.0,45.2907,0.3,68900.0,0.33,276.0,2700.0,26.465437680173004,6.3545600322441045,17157.312087059083,19.972226092954465,7.5685615083298705,6.493211587218539,1.214001476085766,3041,86,858,1632,98.6831453990358,56.34218998760096,0.0009452292837442471,False
0.01,0.3722111917186292,1.6,2251.0,48.31008,0.05,68900.0,0.33,276.0,2700.0,10.772848253938946,0.05386214687459174,145.42779656139768,5.482834728715678,0.9123854432114238,5.2900135252232685,0.858523296336832,34873,298,11554,17536,1781.3086220606467,1016.3306350587908,0.010919028189547193,True
0.02,0.45929910829350895,1.6,2252.0,48.31008,0.1,68900.0,0.33,276.0,2700.0,14.109746500904954,0.14108070984823043,380.91791659022215,7.268325397597697,1.4662380770970904,6.841421103307257,1.32515736724886,11255,176,3732,5651,1148.845252705246,656.5616851544606,0.007670273237225647,True
0.03,0.5560311921305676,1.6,2253.0,48.31008,0.1,68900.0,0.33,276.0,2700.0,18.240456512710992,0.2735502990228984,738.5858073618257,9.474988657955043,2.2741502037940786,8.765467854755949,2.00059990477118,14314,206,4714,7237,989.8148996889131,564.725809399564,0.007033158112405834,True
0.04,0.711500864930811,1.6,2254.0,48.31008,0.1,68900.0,0.33,276.0,2700.0,25.93131242047485,0.5184922071229447,1399.9289592319508,13.514304386021992,4.0533487581437475,12.417008034452858,3.5348565510208028,20639,254,6814,10412,982.764570326015,560.0787405699598,0.008155269914049995,True
0.05,0.354123982609294,1.6,2255.0,48.31008,0.1,68900.0,0.33,276.0,2700.0,9.355582045632215,0.2336277517530053,630.7949297331143,5.135913132280404,0.8163660796007549,4.219668913351811,0.5827383278477496,7754,140,2542,3935,348.6153579590514,200.0603627776777,0.0022174201662121507,True
0.06000000000000001,0.5366487500915749,1.6,2256.0,48.31008,0.1,68900.0,0.33,276.0,2700.0,16.66079464864255,0.49937145011715905,1348.3029153163295,9.01399437696305,2.0949846332774182,7.646800271679501,1.5956131831602591,13072,194,4286,6637,468.0390526377069,267.9051304039772,0.0032803882521738187,True
0.06999999999999999,0.630644860426669,1.6,2257.0,48.31008,0.2,68900.0,0.33,276.0,2700.0,20.923853747058043,0.7316165036269104,1975.3645597926582,11.337741835677262,3.049737299431084,9.586111911380781,2.318120795804173,4275,112,1404,2163,441.56952492155204,252.32178435611954,0.0037166202856370734,True
0.08,0.46149613110711823,1.6,2258.0,48.31008,0.2,68900.0,0.33,276.0,2700.0,12.979952325471016,0.5181257627264152,1398.939559361321,7.315834150075847,1.4822589205081655,5.66411817539517,0.9641331577817503,2765,84,908,1397,286.48708269573865,165.194073597165,0.0020252199138469664,True
0.09,0.5391004915453763,1.6,2259.0,48.31008,0.2,68900.0,0.33,276.0,2700.0,16.121162849747456,0.7239255142089913,1954.5988883642765,9.071785257765319,2.1171554302386477,7.049377591982138,1.3932299160296564,3627,98,1184,1845,292.38191899999015,168.79985707600767,0.0022392309804802335,True
0.09999999999999999,0.5647355776358973,1.6,2260.0,48.31008,0.2,68900.0,0.33,276.0,2700.0,17.0711927332521,0.851465241560211,2298.9561522125696,9.68508699489731,2.3575371649387895,7.386105738354791,1.5060719233785784,3731,100,1226,1886,276.50422093524685,159.56124069173853,0.002165109860974941,True
0.11,0.48648333238004393,1.6,2261.0,48.31008,0.2,68900.0,0.33,276.0,2700.0,13.430673823740891,0.7358994204244647,1986.9284351460547,7.864696960448948,1.671885738963744,5.565976863291943,0.9359863185392794,2914,86,952,1480,219.91871883893614,126.95497916989366,0.0016147336387295906,False
0.12,0.6820897575135264,1.6,2262.0,48.31008,0.3,68900.0,0.33,276.0,2700.0,22.32459652607026,1.3358566768272806,3606.8130274336577,12.703573306321786,3.667853633112526,9.621023219748473,2.3319969562852454,2244,80,736,1134,279.46910295335726,161.28085319478333,0.002443469002278523,True
0.13,0.6993808071665674,1.6,2263.0,48.31008,0.3,68900.0,0.33,276.0,2700.0,22.975564226282945,1.4888102886684424,4019.7877794047945,13.177575748442043,3.8915989224416307,9.797988477840901,2.4027886337731883,2317,80,762,1168,263.6253928346372,152.1261040227209,0.0023491559929932288,False
0.14,0.8133971232299021,1.6,2264.0,48.31008,0.3,68900.0,0.33,276.0,2700.0,28.95937654277355,2.021409337832829,5457.805212148638,16.491257552772336,5.579860188895383,12.468118990001216,3.558450851062554,3035,96,998,1532,282.80780275543844,162.94489511976002,0.0028875316926094525,True
0.15000000000000002,0.6792026390093839,1.6,2265.0,48.31008,0.3,68900.0,0.33,276.0,2700.0,21.46456587780092,1.6027738573644912,4327.489414884126,12.625160318956876,3.631290155747049,8.839405558844042,2.0285162983825575,2223,80,732,1119,227.35386761411468,131.20036524124453,0.0019209618590586158,False
0.16,0.5011660831872681,1.6,2266.0,48.31008,0.3,68900.0,0.33,276.0,2700.0,13.086963585578655,1.0383784445068889,2803.6218001685997,8.194534166752991,1.789775953860029,4.892429418825664,0.7513975093531402,1446,60,470,735,164.34433730695218,94.88268728520991,0.0011933922792819452,False
0.17,0.709853438542171,1.6,2267.0,48.31008,0.2,68900.0,0.33,276.0,2700.0,22.557881095115473,1.9071301299467576,5149.251350856245,13.468317530358355,4.031122825818206,9.089563564757118,2.123992695871448,4698,118,1544,2376,205.38705257504705,118.46048150724008,0.0018175038196108517,False
0.18000000000000002,0.6657223398275949,1.6,2268.0,48.31008,0.3,68900.0,0.33,276.0,2700.0,20.10956289247485,1.797646148085297,4853.644599830302,12.261813383254113,3.463553360600254,7.847749509220739,1.6659072125149572,2134,76,696,1084,190.6316437290646,109.97986836125146,0.0015745457380488233,False
0.19,0.5407773368315187,1.6,2269.0,48.31008,0.3,68900.0,0.33,276.0,2700.0,14.184021998536481,1.33311663385365,3599.414911404855,9.111397778919846,2.1324006127447017,5.072624219616635,0.7992839788910517,1561,62,510,790,149.33232993877093,86.2136828124523,0.0011279205581292166,False
0.2,0.5041022463899724,1.6,2270.0,48.31008,0.3,68900.0,0.33,276.0,2700.0,12.480427261694965,1.2312875653503481,3324.47642644594,8.261142998842509,1.81393417772958,4.219284262852456,0.582646612379232,1389,58,456,699,135.78625143732805,78.39340577462143,0.0009839078318352543,False
0.21000000000000002,0.804545362382995,1.6,2271.0,48.31008,0.3,68900.0,0.33,276.0,2700.0,26.641334119943682,2.7779438895508255,7500.448501787228,16.222298911482802,5.435075352363787,10.41903520846088,2.657131462812962,2748,90,900,1392,191.51585480963558,110.12507304104147,0.0018362866859248858,False
0.22,0.8985744811947516,1.6,2272.0,48.31008,0.3,68900.0,0.33,276.0,2700.0,31.788124773908596,3.4743926060796637,9380.860036415092,19.179997222316143,7.097757518863451,12.608127551592453,3.6233649127837877,3040,98,1000,1534,198.97147866824935,114.16592359565696,0.0021763191354782965,False
0.23,0.846238240923452,1.6,2273.0,48.31008,0.3,68900.0,0.33,276.0,2700.0,28.473509794124084,3.248971121113453,8772.222027006323,17.5063334644354,6.138045448473784,10.967176329688684,2.889074327360331,2904,92,958,1461,183.3051146072717,104.95832131333248,0.0018406280659872597,False
0.24000000000000005,0.8846475263590249,1.6,2274.0,48.31008,0.3,68900.0,0.33,276.0,2700.0,30.430820108555043,3.6227454951311215,9781.412836854028,18.727904242595315,6.833792360587206,11.702915865959728,3.2110468654560846,3016,96,990,1525,179.74510761878,103.2033728027145,0.0019137242989239595,False
0.25,0.9143901776116332,1.6,2275.0,48.31008,0.3,68900.0,0.33,276.0,2700.0,31.925467595829918,3.957958526003744,10686.488020210109,19.699313242151533,7.405200918873354,12.226154353678385,3.44724239286961,3194,98,1052,1610,179.05754379419477,102.2179590867581,0.0019533844553412927,False
0.26,0.6326376590648155,1.6,2276.0,48.31008,0.2,68900.0,0.33,276.0,2700.0,16.880524864985183,2.1576571441284105,5825.674289146708,11.389411064606964,3.0723826025305794,5.491113800378219,0.9147254584021689,3263,96,1084,1631,126.61746400091644,72.64052899409137,0.0010557032096020786,False
0.27,0.840296067441699,1.6,2277.0,48.31008,0.3,68900.0,0.33,276.0,2700.0,27.140957754068697,3.6228053179988695,9781.574358596949,17.3206600829922,6.03457186915538,9.820297671076496,2.4117665511565107,2695,88,894,1348,156.0388023095408,89.45551819708565,0.0015126104605436845,False
0.28,0.6736248880963964,1.6,2278.0,48.31008,0.3,68900.0,0.33,276.0,2700.0,18.37845353633245,2.5270073337988093,6822.919801256785,12.474264148576726,3.561291350320135,5.904189387755725,1.0342840165213256,2039,74,674,1022,125.81309221163427,72.39344758233949,0.0010761988657455137,False
0.29000000000000004,0.6380157247851376,1.6,2279.0,48.31008,0.3,68900.0,0.33,276.0,2700.0,16.549962493676578,2.3486643594308365,6341.393770463259,11.529351549847465,3.134011582525693,5.020610943829112,0.7853472230948566,1772,68,584,890,117.05817033879467,67.34302259216032,0.0009654233976981027,False
0.3,0.8287964671350914,1.6,2280.0,48.31008,0.3,68900.0,0.33,276.0,2700.0,25.79377800187009,3.8125180325158996,10293.798687792929,16.963855867979316,5.837445939065574,8.829922133890776,2.024927906549675,2675,88,886,1340,140.90786257842072,80.59395720725851,0.0013464110355672445,False
0.31,0.818453548914509,1.6,2281.0,48.31008,0.2,68900.0,0.33,276.0,2700.0,25.006033274741224,3.8135410330894337,10296.56078934147,16.64577957968329,5.663637400966217,8.360253695057935,1.8500963678767834,5034,122,1662,2529,135.1602655258743,77.26354984469225,0.0012815833441448524,False
0.32,0.8102168088397694,1.6,2282.0,48.31008,0.3,68900.0,0.33,276.0,2700.0,24.342450865892364,3.8261629998275497,10330.640099534385,16.39439779944542,5.527566894792705,7.948053066446942,1.7014038949651553,2480,84,818,1247,130.52811674681723,74.66863433326188,0.0012234409573958604,False
0.33,0.698635305704325,1.6,2283.0,48.31008,0.3,68900.0,0.33,276.0,2700.0,18.570579579949857,2.9888793538970257,8069.974255521969,13.156984189118186,3.8817826968388998,5.413595390831672,0.892903342941874,1920,70,634,963,285.7632077501056,164.58530088342366,0.0009769827618224848,True
0.34,1.039085736604078,1.6,2284.0,48.31008,0.3,68900.0,0.33,276.0,2700.0,37.183352979433906,6.238851901399304,16844.90013377812,24.013929070288665,10.126563711890283,13.169423909145241,3.8877118104909787,3522,106,1168,1764,149.14082852635056,84.86816879175734,0.001765875860762868,False
0.3500000000000001,0.6734016300098635,1.6,2285.0,48.31008,0.2,68900.0,0.33,276.0,2700.0,17.033727652757822,2.8911051492175273,7805.983902887324,12.468240571515846,3.5585070424048744,4.565487081241976,0.6674018931873471,4377,100,1210,2370,110.84154778689995,63.838586145964285,0.0009005557264895604,False
0.36000000000000004,0.8213269282261721,1.6,2286.0,48.31008,0.3,68900.0,0.33,276.0,2700.0,24.04604601935676,4.230572185586961,11422.544901084795,16.7338750495672,5.711593555800883,7.312170969789559,1.4810213702139219,2551,84,848,1273,117.19550332069544,66.99996488047975,0.0011278797732430527,False
0.37,0.8647800857607426,1.6,2287.0,48.31008,0.2,68900.0,0.33,276.0,2700.0,26.141821633649762,4.7301496071036055,12771.403939179734,18.091410010504237,6.468056015396887,8.050411623145525,1.7379064082932816,6633,126,1742,3668,126.63302186923279,72.57723922630565,0.0011970935840844138,False
0.38,0.7246135797503224,1.6,2288.0,48.31008,0.2,68900.0,0.33,276.0,2700.0,18.839566749011244,3.4645940342536194,9354.403892484772,13.88276961176071,4.232969045140796,4.956797137250534,0.7683750108871763,4612,102,1232,2530,112.53525909928199,64.82247884450098,0.0009254438050912059,False
0.39,0.9943648063355903,1.6,2289.0,48.31008,0.3,68900.0,0.33,276.0,2700.0,33.08727741911896,6.327781673649334,17085.010518853203,22.42158714627002,9.088431293537676,10.665690272848941,2.7606496198883415,3257,100,1080,1631,126.63358659260149,71.86134232918366,0.0013765905103542047,False
0.4,0.9354151507398132,1.6,2290.0,48.31008,0.3,68900.0,0.33,276.0,2700.0,29.384385852331096,5.742835883913056,15505.656886565252,20.399411960307546,7.826718763327679,8.98497389202355,2.083882879414623,2800,92,932,1396,117.99605484635606,67.10764484293968,0.0012327297715387668,False
0.4100000000000001,0.9336649994123041,1.6,2291.0,48.31008,0.3,68900.0,0.33,276.0,2700.0,29.051178893789277,5.811143868374763,15690.08844461186,20.34071074654354,7.7910680846361,8.710468147245738,1.9799242162613373,2658,90,888,1320,115.12682820238764,65.42423209286041,0.0011951081209116078,False
0.42000000000000004,0.796294585797851,1.6,2292.0,48.31008,0.3,68900.0,0.33,276.0,2700.0,21.535668156518323,4.367320768522743,11791.766075011405,15.973374264289262,5.302256875540694,5.562293892229061,0.9349361070179514,2150,76,716,1070,101.30618553120227,57.814291106582345,0.000938275540447635,False
0.43,1.0675279141222491,1.6,2293.0,48.31008,0.3,68900.0,0.33,276.0,2700.0,36.56942467229038,7.695907233136454,20778.949529468427,25.052796224832072,10.824297778515565,11.51662844745831,3.1283905453791103,3488,106,1162,1737,120.29491702574963,68.38446406594063,0.001396766131348051,False
0.44,1.0492964100072104,1.6,2294.0,48.31008,0.3,68900.0,0.33,276.0,2700.0,35.17502218824609,7.5600959290118785,20412.259008332072,24.384540578665856,10.373651965715357,10.790481609580233,2.8135560367034786,3395,102,1110,1708,118.69903112982503,67.34951844064797,0.0013323415051624302,False
0.45,0.7701731527673513,1.6,2295.0,48.31008,0.2,68900.0,0.33,276.0,2700.0,19.703498326395298,4.242435369733364,11454.575498280085,15.196577422785232,4.895192302041491,4.506920903610066,0.6527569323081268,5556,108,1408,3100,100.09954472508403,57.60498709948867,0.0008687467378776912,False
0.46,0.9597570890172283,1.6,2296.0,48.31008,0.3,68900.0,0.33,276.0,2700.0,29.386484829681,6.555031469140086,17698.584966678234,21.223837705843927,8.33328384232025,8.162647123837072,1.7782523731801643,3161,94,1016,1603,110.70661777780774,63.60334750424402,0.001131799240516948,False
0.4700000000000001,1.1327661241457552,1.6,2297.0,48.31008,0.3,68900.0,0.33,276.0,2700.0,39.69520222990107,9.110926141310982,24599.50058153965,27.51245985573526,12.538347866486955,12.182742374165812,3.4274217251759733,3751,108,1228,1887,117.62991175038017,66.53682273490392,0.0014104300400055298,False
0.4800000000000001,1.159629665932652,1.6,2298.0,48.31008,0.3,68900.0,0.33,276.0,2700.0,41.19312723483985,9.654727193197614,26067.763421633557,28.556382236209974,13.291411105633497,12.636744998629876,3.636683912435883,4308,114,1348,2216,120.90635417096746,69.10249731951117,0.001441225106391539,False
0.49,1.1109629060228066,1.6,2299.0,48.31008,0.3,68900.0,0.33,276.0,2700.0,37.766645514945594,9.006424661759992,24317.346586751977,26.678516697418406,11.94760073347508,11.088128817527188,2.9411760717150877,3940,106,1210,2045,115.24760128569653,65.70515818110438,0.001318859038489876,False
0.5,1.077765701724162,1.6,2300.0,48.31008,0.3,68900.0,0.33,276.0,2700.0,35.43486846063426,8.596917727359216,23211.67786386988,25.431713648049335,11.082720375766117,10.003154812584928,2.485802648406901,3995,104,1150,2128,114.61613923709783,65.30165644456544,0.0012489539177950424,False
0.01,0.36898974812350355,1.6,2301.0,51.32946,0.05,68900.0,0.33,276.0,2700.0,10.64887654775935,0.05324228834369332,143.75417852797196,5.420444057084581,0.8948233644243127,5.228432490674769,0.8415810760806193,34914,298,11578,17541,2023.3761519656596,1152.9503065000624,0.011442874047362914,True
0.02,0.5276217544418228,1.6,2302.0,51.32946,0.1,68900.0,0.33,276.0,2700.0,17.143788838051496,0.17142113321969427,462.8370596931745,8.802517920028034,2.0145713843724655,8.341270918023461,1.8431502511527713,13382,198,4434,6725,1327.2054267383405,756.3526699750507,0.010289372650667289,True
0.03,0.4034301964663166,1.6,2303.0,51.32946,0.1,68900.0,0.33,276.0,2700.0,11.60748552894763,0.17405573426645016,469.9504825194154,6.100973946044246,1.0931392063479926,5.506511582903383,0.9190834720815424,9412,158,3098,4759,716.3085889649951,408.7206391315745,0.004464447321773739,True
0.04,0.6005813473610979,1.6,2304.0,51.32946,0.1,68900.0,0.33,276.0,2700.0,20.154944941407685,0.40296485754160166,1088.0051153623244,10.57036641584253,2.7204768586869283,9.584578525565155,2.3175120011453267,15928,218,5250,8047,849.0215984789357,484.3109114803239,0.006390819230984475,True
0.05,0.42334754587911594,1.6,2305.0,51.32946,0.1,68900.0,0.33,276.0,2700.0,12.013043257732097,0.3000642820555028,810.1735615498575,6.508138185895102,1.2186927041120157,5.504905071836995,0.9186284220565128,9520,160,3124,4828,443.15558091003305,253.63909609324645,0.002964193588637246,True
0.06000000000000001,0.7221921161189525,1.6,2306.0,51.32946,0.2,68900.0,0.33,276.0,2700.0,25.981816170560126,0.7790020957746852,2103.3056585916497,13.814401540073979,4.199435228559477,12.167414630486148,3.420433132784792,5307,128,1748,2679,673.9053759492152,386.391894215608,0.008141902781494017,True
0.06999999999999999,0.5136261723255245,1.6,2307.0,51.32946,0.2,68900.0,0.33,276.0,2700.0,15.41162187696145,0.5386883881735306,1454.4586480685325,8.47869088638501,1.8936468374941753,6.932930990576439,1.3549584493206446,3427,96,1128,1729,379.9133287199232,219.33539781121044,0.002813094279875877,True
0.08,0.5169383953304009,1.6,2308.0,51.32946,0.2,68900.0,0.33,276.0,2700.0,15.346578305195061,0.6127908019153899,1654.5351651715528,8.554883783132208,1.9218562603262876,6.791694522062853,1.3090654584108976,3459,96,1138,1746,339.6167268583866,196.0777247007526,0.0025070075692137338,True
0.09,0.7043154029215972,1.6,2309.0,51.32946,0.2,68900.0,0.33,276.0,2700.0,24.23233872944143,1.0889284287952223,2940.1067577471003,13.314226860275797,3.956961839130128,10.918111869165633,2.868033410334905,4996,124,1644,2524,407.42952582878905,233.3175317381442,0.0037054505860016538,True
0.09999999999999999,0.5163181691526793,1.6,2310.0,51.32946,0.2,68900.0,0.33,276.0,2700.0,14.903895755512934,0.7431003926732517,2006.3710602177796,8.540595396109032,1.916554728972148,6.363300359403903,1.1734543362988963,3481,96,1142,1762,272.2655948400156,157.16939667120283,0.002031991321577129,False
0.11,0.6070457694457403,1.6,2311.0,51.32946,0.2,68900.0,0.33,276.0,2700.0,18.8348820981783,1.0331308755185213,2789.453363900008,10.733454646964821,2.789334738589589,8.10142745121348,1.7562038630710675,4020,106,1314,2043,285.0539004093255,164.38023407993228,0.0023288845947820173,True
0.12,0.44453597187498195,1.6,2312.0,51.32946,0.2,68900.0,0.33,276.0,2700.0,11.538358338031438,0.6886823855449508,1859.442440971367,6.952231542961018,1.3612748050519905,4.58612679507042,0.6725924195070397,2592,80,844,1320,197.8207755332985,114.20378692625438,0.0014055601296726367,False
0.13,0.7836197110164219,1.6,2313.0,51.32946,0.3,68900.0,0.33,276.0,2700.0,27.533799116547854,1.785095556535654,4819.7580026462665,15.594308240744693,5.10220292880648,11.93949087580316,3.3171073722708257,2835,92,934,1428,311.7382185927551,179.89615243830326,0.003082152513309489,True
0.14,0.7052243228464132,1.6,2314.0,51.32946,0.3,68900.0,0.33,276.0,2700.0,23.03640416832244,1.6068012716216036,4338.363433378329,13.339463835545407,3.969074872829122,9.696940332777034,2.3622736012075185,2325,80,764,1173,263.99301138618745,152.26972365124485,0.002374019019995417,False
0.15000000000000002,0.4639156302574475,1.6,2315.0,51.32946,0.2,68900.0,0.33,276.0,2700.0,11.762446395253383,0.8751148961734276,2362.810219668255,7.368294126618069,1.5000230087881947,4.394152268635314,0.6249081126147671,2600,80,856,1310,167.7992281823546,96.68145250500773,0.00121246587605017,False
0.16,0.8166759540810133,1.6,2316.0,51.32946,0.3,68900.0,0.33,276.0,2700.0,28.611922506953647,2.2803751582168896,6157.012927185602,16.591383862662795,5.6340963077226744,12.020538644290852,3.353721149505785,2997,94,982,1518,264.4555999118149,152.1894993942144,0.0026875965063982354,False
0.17,0.6274300454457393,1.6,2317.0,51.32946,0.2,68900.0,0.33,276.0,2700.0,18.48260258267296,1.560731456389145,4213.974932250691,11.254598580296829,3.013422271806068,7.228004002376132,1.4526908154169231,3921,104,1286,1986,192.89840826210624,111.33587059058009,0.0016227911698919691,False
0.18000000000000002,0.5362971244484779,1.6,2318.0,51.32946,0.3,68900.0,0.33,276.0,2700.0,14.182878945178027,1.2642445928288668,3413.4604006379404,9.0057184694125,2.091816536809458,5.177160475765527,0.8275719439805911,1572,62,514,795,166.43521113778817,96.09065718677394,0.001244635853894098,False
0.19,0.5491154804787945,1.6,2319.0,51.32946,0.3,68900.0,0.33,276.0,2700.0,14.54025222853372,1.3669585057033882,3690.787965399148,9.309421132546877,2.2091971157025245,5.230831095986844,0.8422386099991364,1502,62,492,758,161.6856661995238,93.34665483263393,0.001226181744437493,False
0.2,0.8215205641369419,1.6,2320.0,51.32946,0.3,68900.0,0.33,276.0,2700.0,27.842261239536885,2.7674709631345444,7472.17160046327,16.739819231882443,5.714834410425184,11.102442007654442,2.94736344729064,3012,94,986,1527,214.98323556160463,123.63353198821366,0.002142314575511729,False
0.21000000000000002,0.5806988866028138,1.6,2321.0,51.32946,0.3,68900.0,0.33,276.0,2700.0,15.528855792827002,1.6111336652035715,4350.060896049643,10.075342815096356,2.515249568366572,5.453512977730647,0.9041159031630004,1724,66,568,866,153.3294031101865,88.47891234937286,0.0012062068782702198,False
0.22,0.8557357820653171,1.6,2322.0,51.32946,0.2,68900.0,0.33,276.0,2700.0,29.274880432265746,3.197935728498947,8634.426466947158,17.804943118117265,6.305728805243023,11.469937314148481,3.1077930767440756,5535,134,1832,2781,201.79908265383733,115.9360210044936,0.0020902426369522275,False
0.23,0.6281016402830361,1.6,2323.0,51.32946,0.3,68900.0,0.33,276.0,2700.0,17.265680654126136,1.9600707700136881,5292.1910790369575,11.271946259749528,3.020986626779996,5.993734394376608,1.060915856766308,1944,72,638,981,150.2149322554384,86.67336736420157,0.0012359237260789195,False
0.24000000000000005,0.9162175798924166,1.6,2324.0,51.32946,0.3,68900.0,0.33,276.0,2700.0,32.304029607211696,3.847530634969921,10388.332714418786,19.759722030247428,7.4412546716189825,12.544307576964268,3.5937240366490615,3235,100,1060,1639,197.6182864545119,112.91367986474955,0.0021816410859691504,False
0.25,0.6603235759701932,1.6,2325.0,51.32946,0.3,68900.0,0.33,276.0,2700.0,18.35834131382041,2.2620677407526575,6107.5829000321755,12.117576331907498,3.397744406135669,6.240764981912912,1.1356766653830115,1972,72,646,997,145.55025895298056,83.82518870246088,0.0012281871118220709,False
0.26,0.9320864466170179,1.6,2326.0,51.32946,0.3,68900.0,0.33,276.0,2700.0,32.72061300386029,4.216868602182172,11385.545225891865,20.2878310895889,7.7590009437324525,12.432781914271388,3.54213234155028,3178,100,1046,1603,187.68684609889954,107.01059943626356,0.0020611588156141682,False
0.27,0.7337330328970423,1.6,2327.0,51.32946,0.2,68900.0,0.33,276.0,2700.0,21.505902471546896,2.8620728548584258,7727.59670811775,14.141572583543994,4.360750794530915,7.364329888002903,1.4986779396724894,4471,114,1486,2236,147.8437410119233,84.98067805883292,0.001322566931017425,False
0.28,0.845473645457745,1.6,2328.0,51.32946,0.3,68900.0,0.33,276.0,2700.0,27.185381987843158,3.7599773170102027,10151.938755927547,17.48239262322554,6.124669338751285,9.702989364617618,2.364692021741082,2695,88,894,1348,161.25002988357517,92.38794982789895,0.0015640116729489933,False
0.29000000000000004,0.811092327779295,1.6,2329.0,51.32946,0.3,68900.0,0.33,276.0,2700.0,25.07186599347999,3.5843403669023983,9677.718990636475,16.421037273740108,5.541932160845667,8.65082871973988,1.9575917939432683,2438,84,806,1223,151.21068879467558,86.72371449790742,0.0014230651370069362,False
0.3,0.7099878777358499,1.6,2330.0,51.32946,0.3,68900.0,0.33,276.0,2700.0,19.70599744293355,2.8993509486754165,7828.247561423625,13.472067758543018,4.032933747650936,6.233929684390533,1.1335827989755192,2057,74,678,1034,132.44305965807524,76.10353134402445,0.0011549655725482254,False
0.31,0.9411188017479468,1.6,2331.0,51.32946,0.3,68900.0,0.33,276.0,2700.0,31.94127149732752,4.888502957590372,13198.957985494006,20.5912503698453,7.943616590976292,11.350021127482218,3.05511363338592,3075,98,1016,1545,159.92042811403647,91.2003980238331,0.0017143886724981861,False
0.32,0.6884102909755626,1.6,2332.0,51.32946,0.3,68900.0,0.33,276.0,2700.0,18.285217015703928,2.857005583797409,7713.915076253004,12.875967803398833,3.748691277041739,5.409249212305095,0.8916856932443298,1873,70,620,937,122.35654085503137,70.08866978296348,0.0010397017918924,False
0.33,0.9850760799792481,1.6,2333.0,51.32946,0.3,68900.0,0.33,276.0,2700.0,34.07523799382567,5.547147992186529,14977.299578903629,22.097155302494972,8.881671763892466,11.978082691330695,3.3345237717059373,3359,102,1110,1688,156.0771177670433,88.72798964172841,0.0017473627945223625,False
0.34,0.8117810898543214,1.6,2334.0,51.32946,0.3,68900.0,0.33,276.0,2700.0,23.98185870047661,3.9945978739765624,10785.414259736719,16.442007823446044,5.553249569726877,7.539850877030567,1.558651695750315,2387,82,790,1196,132.0380527124383,75.67807776672332,0.0012387267786642864,False
0.3500000000000001,0.7778685253397546,1.6,2335.0,51.32946,0.3,68900.0,0.33,276.0,2700.0,22.025587445592887,3.764680612963281,10164.637655000859,15.423639871209529,5.013008337766919,6.601947574383358,1.2483277248036377,2243,80,748,1115,124.63431667699098,71.3580403922237,0.00113617113579489,False
0.36000000000000004,0.6962468938202236,1.6,2336.0,51.32946,0.3,68900.0,0.33,276.0,2700.0,17.892208852706645,3.1228814955899407,8431.78003809284,13.09110772147344,3.8504370980473293,4.801101131233205,0.7275556024573886,1893,70,626,948,107.00055285136696,61.3948823253453,0.0009542568971991361,False
0.37,1.017886088428011,1.6,2337.0,51.32946,0.3,68900.0,0.33,276.0,2700.0,35.04089989173123,6.376479084848755,17216.49352909164,23.252824245480987,9.625564396201764,11.788075646250242,3.2490853113530083,3429,104,1142,1710,143.54106138567286,81.37463554055213,0.0016246777714205363,False
0.38,0.8438877911177196,1.6,2338.0,51.32946,0.2,68900.0,0.33,276.0,2700.0,24.800473226828384,4.597166265038874,12412.34891560496,17.432783549684963,6.096984155271044,7.367689677143421,1.49981789023217,6733,122,1700,3773,130.03721367299346,74.45382144051669,0.0012031648465663965,False
0.39,0.7235221851434763,1.6,2339.0,51.32946,0.3,68900.0,0.33,276.0,2700.0,18.602713404289812,3.503291690757495,9458.887565045237,13.851936723990113,4.217834293404991,4.750776680299699,0.7145426026474957,1867,70,626,922,103.7612275226071,59.399711378392375,0.000930540879666336,False
0.4,0.7209961238179983,1.6,2340.0,51.32946,0.3,68900.0,0.33,276.0,2700.0,18.302513159576797,3.5264613453621982,9521.445632477935,13.780688030302484,4.182933474807299,4.521825129274314,0.6564721294451004,1896,70,634,939,102.75135141054542,58.884770588881786,0.0009104676845751584,False
0.4100000000000001,1.0374044379544685,1.6,2341.0,51.32946,0.3,68900.0,0.33,276.0,2700.0,35.20709244653564,7.073106146687765,19097.386596056967,23.953155098055735,10.08624022492521,11.253937348479905,3.013134078237444,3402,104,1126,1703,132.70910008612938,75.07041736391082,0.0014862619374878038,False
0.42000000000000004,0.8751649074660999,1.6,2342.0,51.32946,0.2,68900.0,0.33,276.0,2700.0,25.60212734351797,5.221277197792667,14097.448434040201,18.422871608662998,6.657650821944159,7.179255734854973,1.436373624151492,7085,124,1770,3982,121.71427821591666,69.86516489425885,0.0011633900738217816,False
0.43,0.735820509632352,1.6,2343.0,51.32946,0.2,68900.0,0.33,276.0,2700.0,18.450835310486035,3.8004105203485223,10261.108404941011,14.201107526380605,4.39033311815256,4.2497277841054295,0.5899225978040374,5042,102,1274,2815,107.5047478695949,61.670766032157346,0.0009066943514728433,False
0.44,1.0824555577008248,1.6,2344.0,51.32946,0.3,68900.0,0.33,276.0,2700.0,37.25159913666994,8.016942857665123,21645.745715695833,25.606172714114443,11.202400327920307,11.645426422555495,3.1854574702551837,3564,106,1178,1785,126.25878701403461,71.434232459911,0.0014832027394237107,False
0.45,0.8353604611825378,1.6,2345.0,51.32946,0.3,68900.0,0.33,276.0,2700.0,22.907318963878403,4.96329501316706,13400.89653555106,17.167113286130785,5.949463085916943,5.740205677747618,0.9861680727498827,2707,82,816,1417,113.96408750237177,65.64333010507417,0.0010192514009801901,False
0.46,1.118831504774187,1.6,2346.0,51.32946,0.3,68900.0,0.33,276.0,2700.0,39.05594428948977,8.779007144896102,23703.319291219475,26.978101945034027,12.158700914347701,12.077842344455746,3.379693769451599,3698,108,1224,1848,126.37437245348877,71.52086995305767,0.001502225001352993,False
0.4700000000000001,0.9369868584698162,1.6,2347.0,51.32946,0.3,68900.0,0.33,276.0,2700.0,27.88729057820081,6.336066903161422,17107.38063853584,20.452193668672393,7.858822147371169,7.435096909528415,1.5227552442097467,2679,88,872,1349,108.33673378552555,61.4758285494513,0.0011410630782033436,False
0.4800000000000001,0.8405438715835734,1.6,2348.0,51.32946,0.2,68900.0,0.33,276.0,2700.0,22.586493928612644,5.189135199703165,14010.665039198546,17.328385415303913,6.038864957616745,5.258108513308731,0.8497297579135799,6189,114,1552,3467,105.4664970489843,60.60272740753462,0.000984476057865853,False
0.49,0.922301279786711,1.6,2349.0,51.32946,0.3,68900.0,0.33,276.0,2700.0,26.65586193745042,6.284282685273896,16967.56325023952,19.9614368698356,7.562080005132679,6.694425067614819,1.2777973198587826,3029,88,882,1608,113.16100847912499,64.72582667328481,0.001090481676091593,False
0.5,1.0024574430870097,1.6,2350.0,51.32946,0.3,68900.0,0.33,276.0,2700.0,30.92981302920819,7.470653869502899,20170.765447657825,22.706010188158146,9.27103080986884,8.223802841050045,1.8003769403659415,3236,94,972,1694,116.82021040882584,66.57207155635463,0.0011934619935674686,False
0.01,0.34196600962964185,1.6,2351.0,54.348839999999996,0.05,68900.0,0.33,276.0,2700.0,9.629456475711516,0.048145187983455545,129.99200755532996,4.907338117927673,0.7553170548719873,4.722118357783843,0.7071718668885317,31424,278,10410,15803,5161.904145049662,2910.8816346337,0.05096377455234748,True
0.02,0.47394926679732263,1.6,2352.0,54.348839999999996,0.1,68900.0,0.33,276.0,2700.0,14.740562227111827,0.1473888671103003,397.9499411978108,7.587415247127496,1.575050969213546,7.153146979984331,1.4276621021032456,11984,182,3964,6032,1312.0362286340721,749.2459032735925,0.009092668929022382,True
0.03,0.4056148014740136,1.6,2353.0,54.348839999999996,0.1,68900.0,0.33,276.0,2700.0,11.694183171958,0.17535619891160548,473.46173706133476,6.145146344234614,1.106515652367278,5.549036827723387,0.9311594534556724,9418,158,3100,4762,748.6604987846008,426.77875485642403,0.004760859337059941,True
0.04,0.579838766280063,1.6,2354.0,54.348839999999996,0.1,68900.0,0.33,276.0,2700.0,19.14336915854977,0.3827333418844437,1033.3800230879979,10.05415216595907,2.506592675839327,9.0892169925907,2.1238593339548832,15058,212,4950,7627,864.2667093552722,492.9790753466437,0.0063624551439283245,True
0.05,0.4648818712436634,1.6,2355.0,54.348839999999996,0.1,68900.0,0.33,276.0,2700.0,13.723144177270518,0.34281680504382206,925.6053736183195,7.389285431951554,1.507152696012539,6.333858745318964,1.164335890968717,11225,176,3694,5678,541.3878719072534,309.5601696783524,0.003547071818744582,True
0.06000000000000001,0.4829372530819154,1.6,2356.0,54.348839999999996,0.1,68900.0,0.33,276.0,2700.0,14.285499316643921,0.4281125901571569,1155.9039934243237,7.785849196303147,1.6441367934891498,6.499650120340775,1.2160242033319928,11223,178,3688,5685,3205.4979738805014,1834.8336468280531,0.003117602706768776,True
0.06999999999999999,0.6526422576173285,1.6,2357.0,54.348839999999996,0.2,68900.0,0.33,276.0,2700.0,22.03690937785629,0.7705734507048494,2080.5483169030936,11.913619572271822,3.3054497222835155,10.123289805584468,2.534876271578666,4539,118,1498,2286,499.4495062467888,285.651799436274,0.004442389331947393,True
0.08,0.43626022877730525,1.6,2358.0,54.348839999999996,0.2,68900.0,0.33,276.0,2700.0,11.953894555643418,0.47708345193331175,1288.1253202199418,6.777435369044912,1.3044643940407543,5.176459186598506,0.8273809421074425,2654,82,870,1343,308.52347636440055,178.12108104188397,0.0021143836198484938,True
0.09,0.6411921117367883,1.6,2359.0,54.348839999999996,0.2,68900.0,0.33,276.0,2700.0,20.971355517492384,0.9421841842575139,2543.8972974952876,11.612344493872895,3.1707650060808,9.35901102361949,2.2285808218232863,4568,116,1506,2303,388.9005479551357,222.87146983578273,0.0033184386039973677,True
0.09999999999999999,0.4256737956059441,1.6,2360.0,54.348839999999996,0.2,68900.0,0.33,276.0,2700.0,11.163205579691487,0.5560658838821818,1501.377886481891,6.556343228988843,1.233888300908288,4.606862350702644,0.6778224170261061,2607,80,854,1320,241.08998584670343,139.19335669058202,0.001663200241761493,False
0.11,0.7507570180796448,1.6,2361.0,54.348839999999996,0.3,68900.0,0.33,276.0,2700.0,26.231254207873707,1.4399313415517672,3887.8146221897714,14.63029287110898,4.605646366740956,11.600961336764728,3.165715025189189,2693,88,880,1367,378.25860822272745,218.3587405666565,0.003583228814826092,True
0.12,0.6166568313280483,1.6,2362.0,54.348839999999996,0.3,68900.0,0.33,276.0,2700.0,19.07053034447063,1.1406127059313034,3079.654306014519,10.977869687422528,2.893667320052313,8.092660657048102,1.7530546141210095,2035,74,668,1027,289.401705460446,167.08505806289443,0.002319596001940959,True
0.13,0.6478136124882329,1.6,2363.0,54.348839999999996,0.3,68900.0,0.33,276.0,2700.0,20.361229909758936,1.3188785580943747,3560.9721068548115,11.786166967796829,3.248231028659801,8.575062941962107,1.9293524705654261,2066,76,680,1040,281.51830623598437,162.518479928765,0.0023128701389046277,True
0.14,0.6592150795827827,1.6,2364.0,54.348839999999996,0.3,68900.0,0.33,276.0,2700.0,20.695467138549045,1.442935679537307,3895.926334750729,12.088051632303356,3.384328483411775,8.607415506245689,1.941392803874468,2090,76,686,1055,264.52716410717437,152.63559318449308,0.002211774179485812,False
0.15000000000000002,0.816990254943047,1.6,2365.0,54.348839999999996,0.3,68900.0,0.33,276.0,2700.0,28.896790009745793,2.16019066726036,5832.514801602972,16.60099592211302,5.6393125044473,12.295794087632771,3.4791218371869403,2969,94,974,1502,299.72420966796494,172.86233916224822,0.003048890079291151,True
0.16,0.5483698971105356,1.6,2366.0,54.348839999999996,0.3,68900.0,0.33,276.0,2700.0,15.091363586767281,1.1987304446019804,3236.572200425347,9.291643066574672,2.202262794521188,5.79972052019261,1.0035323499192077,1666,66,542,847,198.8937335392029,114.83114935864756,0.0015146388604813151,False
0.17,0.6284184758292155,1.6,2367.0,54.348839999999996,0.3,68900.0,0.33,276.0,2700.0,18.52945076572903,1.5647135519489102,4224.7265902620575,11.280134238854155,3.024559277084513,7.2493165268748765,1.459845725135603,2024,74,662,1025,212.95830112286038,122.90413489127624,0.0017223522080417138,False
0.18000000000000002,0.7413411873537087,1.6,2368.0,54.348839999999996,0.3,68900.0,0.33,276.0,2700.0,23.96201522125232,2.1443668576754007,5789.790515723582,14.35908535106296,4.4691685760211755,9.602929870189358,2.3248017183457748,2382,82,784,1200,229.66863607544857,132.36126616060903,0.0020821703498753413,False
0.19,0.5284426616832786,1.6,2369.0,54.348839999999996,0.3,68900.0,0.33,276.0,2700.0,13.663456748554916,1.2836629351054025,3465.889924784587,8.821664755058167,2.0218052928052046,4.841791993496749,0.7381423576998021,1512,62,498,759,162.77804338120933,93.80073529866944,0.0012342086330847635,False
0.2,0.892916331207317,1.6,2370.0,54.348839999999996,0.3,68900.0,0.33,276.0,2700.0,31.995220469553924,3.182766886136249,8593.470592567872,18.99573598075152,6.989755886078425,12.999484488802405,3.8069889999421758,3128,98,1024,1586,246.32421112053174,141.1064733555388,0.002681273319050859,False
0.21000000000000002,0.6641601020081764,1.6,2371.0,54.348839999999996,0.2,68900.0,0.33,276.0,2700.0,19.377672758530807,2.0152594466024714,5441.200505826672,12.220000256537075,3.4444301610075763,7.157672501993732,1.429170714405105,4079,108,1344,2057,181.72960743180266,104.74845174899967,0.0015295196780293428,False
0.22,0.7468994815666958,1.6,2372.0,54.348839999999996,0.3,68900.0,0.33,276.0,2700.0,23.30459907457318,2.5412047791527663,6861.252903712469,14.518913435831468,4.549424423138033,8.785685638741711,2.008219643985267,2389,82,784,1207,195.91501828013045,112.71074015096065,0.0017300448941292073,False
0.23,0.6923472510219939,1.6,2373.0,54.348839999999996,0.3,68900.0,0.33,276.0,2700.0,20.318128570181145,2.3111022803600147,6239.9761569720395,12.983857073402097,3.799595697912404,7.334271496779047,1.4884934175523892,2169,76,712,1095,175.32331068359233,100.92988475350597,0.0014915024933959179,False
0.24000000000000005,0.860862878897265,1.6,2374.0,54.348839999999996,0.3,68900.0,0.33,276.0,2700.0,29.05264733821819,3.4573647626907005,9334.884859264892,17.96708505064217,6.397431849115728,11.085562287576021,2.9400670864250276,3005,94,994,1508,198.2765124113498,113.74724251844658,0.002036341848749615,False
0.25,0.5926915360060719,1.6,2375.0,54.348839999999996,0.3,68900.0,0.33,276.0,2700.0,15.293614884590138,1.878976937098872,5073.237730166955,10.372740797393785,2.637859304764977,4.920874087196353,0.758882367666105,1693,66,554,856,141.06503177679542,80.95788818034266,0.0011244106802556371,False
0.26,0.7610496881090701,1.6,2376.0,54.348839999999996,0.3,68900.0,0.33,276.0,2700.0,23.12120356371534,2.9689453749633303,8016.152512400992,14.929305432533152,4.757767678792311,8.191898131182189,1.7888223038289803,2310,80,760,1164,167.0237332385182,95.9426422681954,0.001523618513653454,False
0.27,0.9473707044574103,1.6,2377.0,54.348839999999996,0.3,68900.0,0.33,276.0,2700.0,33.37798246730513,4.46480365428579,12054.969866571633,20.80246812408752,8.07301082958572,12.575514343217609,3.6082071752999294,3153,100,1038,1590,191.96741519455307,109.9149430673739,0.0021621351304902297,False
0.28,0.7700609943060246,1.6,2378.0,54.348839999999996,0.3,68900.0,0.33,276.0,2700.0,23.137846280002773,3.1933223179126533,8621.970258364165,15.193279038757932,4.893488062274111,7.94456724124484,1.7001657443614575,2410,84,796,1210,159.0419544694075,91.28660326172259,0.0014453732969478645,False
0.29000000000000004,0.8412130499734121,1.6,2379.0,54.348839999999996,0.3,68900.0,0.33,276.0,2700.0,26.708766445749855,3.8216909324814594,10318.56551769994,17.349254865771172,6.050467720732491,9.359511579978683,2.2287767882510314,2671,88,886,1336,164.6617781335668,94.32857557236267,0.0015901015272073431,False
0.3,0.7408495836904877,1.6,2380.0,54.348839999999996,0.3,68900.0,0.33,276.0,2700.0,21.2191435866903,3.1263228702389285,8441.071749645107,14.344986720866597,4.4621130627795855,6.8741568658237036,1.335790192540657,2259,78,742,1140,144.12146203105166,82.77351997999439,0.0012893276199812287,False
0.31,0.9864402536631071,1.6,2381.0,54.348839999999996,0.3,68900.0,0.33,276.0,2700.0,34.69499775560926,5.315330527624043,14351.392424584916,22.144666609065666,8.911848523164318,12.550331146543591,3.5965179955402755,3384,104,1122,1695,174.782793055457,99.44106157038613,0.001996843520059847,False
0.32,0.7706310956262282,1.6,2382.0,54.348839999999996,0.3,68900.0,0.33,276.0,2700.0,22.292118465576905,3.4981098157770867,9444.896502598134,15.210048001439668,4.902154550328138,7.082070464137237,1.4040447345510514,2341,82,778,1168,139.8771063987026,80.22849398579332,0.0012875316256796023,False
0.33,0.9519198989047144,1.6,2383.0,54.348839999999996,0.3,68900.0,0.33,276.0,2700.0,32.06947447882202,5.21619701221093,14083.731932969511,20.95677810134515,8.167996097932228,11.112696377476873,2.951799085721298,3075,98,1012,1551,161.58987514622737,92.01387170189227,0.0017271834875860757,False
0.34,1.0006457375838718,1.6,2384.0,54.348839999999996,0.3,68900.0,0.33,276.0,2700.0,34.768356032389754,5.828302420401476,15736.416535083985,22.642193163571243,9.229952027538923,12.126162868818511,3.401649607137447,3312,102,1094,1665,162.0634439567914,92.28883868357404,0.0018411818854779122,False
0.3500000000000001,0.6831090311995744,1.6,2385.0,54.348839999999996,0.3,68900.0,0.33,276.0,2700.0,17.47446856601339,2.9682348090371655,8014.233984400347,12.73130640851181,3.6808161826952985,4.74316215750158,0.712581373658133,1753,68,584,871,116.60746641874921,66.87922453083111,0.001014976782720189,False
0.36000000000000004,0.8385156147204154,1.6,2386.0,54.348839999999996,0.3,68900.0,0.33,276.0,2700.0,24.953175498512003,4.393855491834902,11863.409827954236,17.265199574894666,6.003782637003354,7.687975923617337,1.6099271451684523,2595,86,862,1296,136.37101447073377,77.96144731106415,0.0013005936803328609,False
0.37,0.852355400366879,1.6,2387.0,54.348839999999996,0.3,68900.0,0.33,276.0,2700.0,25.471343358959725,4.606111126286028,12436.500040972276,17.69840158863159,6.245721457804368,7.772941770328135,1.6396103315183401,2605,86,864,1303,135.2944242978637,77.36129535143326,0.0012980985240992348,False
0.38,0.740522310482919,1.6,2388.0,54.348839999999996,0.2,68900.0,0.33,276.0,2700.0,19.5933006560947,3.607803476599474,9741.06938681858,14.335604267730577,4.457419868349103,5.257696388364124,0.8496163917496284,5208,106,1344,2892,127.81823934320565,73.39017863040431,0.001071782286935038,False
0.39,0.8167340575540977,1.6,2389.0,54.348839999999996,0.3,68900.0,0.33,276.0,2700.0,23.171519940379643,4.394208965295166,11864.364206296948,16.59316061643955,5.635060376365742,6.5783593239400915,1.240851411070576,2409,82,800,1201,122.41525326247246,69.70994483761251,0.0011755029747155257,False
0.4,0.8995739276746884,1.6,2390.0,54.348839999999996,0.3,68900.0,0.33,276.0,2700.0,27.37113409774827,5.340185532996491,14418.500939090527,19.212628446092815,7.116943204062443,8.158505651655457,1.776757671065952,2614,88,868,1306,129.67093802252222,74.38638231418442,0.0016104392148631377,False
0.4100000000000001,0.7411191228373712,1.6,2391.0,54.348839999999996,0.3,68900.0,0.33,276.0,2700.0,19.059263819508136,3.762801278147128,10159.563450997246,14.352716042826993,4.465980639898795,4.706547776681143,0.7031793617516673,1914,70,638,951,106.16784236377602,60.659248051195135,0.0009771481835666187,False
0.42000000000000004,1.0499553195505176,1.6,2392.0,54.348839999999996,0.3,68900.0,0.33,276.0,2700.0,35.72843335844886,7.347801460928157,19839.063944506022,24.408546677325972,10.389727080536401,11.319886681122888,3.0419256196082447,3406,104,1124,1708,137.42664037817485,77.9718891650388,0.0015656685699729045,False
0.43,0.7922354478273004,1.6,2393.0,54.348839999999996,0.3,68900.0,0.33,276.0,2700.0,21.142016808224707,4.379014542362335,11823.339264378305,15.851538614513812,5.237666159477603,5.290478193710895,0.8586516171152674,2167,76,720,1079,111.92301576500819,64.04390976751759,0.0010204634910103347,False
0.44,0.9832753976340687,1.6,2394.0,54.348839999999996,0.2,68900.0,0.33,276.0,2700.0,31.205054059145382,6.6867029406097265,18054.09793964626,22.034512929796424,8.841938218196274,9.170541129348958,2.1552352775865478,8245,140,2052,4637,132.94697809235737,75.86161457380072,0.0013883275403954213,False
0.45,0.868513200779139,1.6,2395.0,54.348839999999996,0.3,68900.0,0.33,276.0,2700.0,24.618645985371348,5.348343593002973,14440.527701108027,18.21025112257076,6.535815044619623,6.408394862800588,1.1874714516166502,2736,84,856,1408,117.22030733462083,67.35036767390436,0.001130432791937313,False
0.46,0.834890500620475,1.6,2396.0,54.348839999999996,0.3,68900.0,0.33,276.0,2700.0,22.68744911594863,5.01425325498164,13538.483788450429,17.15252472849139,5.9413986479487635,5.534924387457242,0.9271453929671232,2368,78,764,1194,119.15278788772969,68.33090966361858,0.0010536033326756327,False
0.4700000000000001,1.115923241985713,1.6,2397.0,54.348839999999996,0.3,68900.0,0.33,276.0,2700.0,38.60362291034381,8.854405001215035,23906.893503280593,26.867192863221213,12.08040283225314,11.736430047122596,3.2259978310381054,3791,108,1214,1928,133.72784323653124,76.21452577517718,0.001543683233493407,False
0.4800000000000001,0.9749401613923705,1.6,2398.0,54.348839999999996,0.3,68900.0,0.33,276.0,2700.0,29.799619085829544,6.920285237435223,18684.770141075103,21.745607315639802,8.659480608593135,8.054011770189742,1.739195371157912,3130,94,982,1605,124.34078230010857,71.26843558495176,0.0012554038364889044,False
0.49,1.18900831081057,1.6,2399.0,54.348839999999996,0.3,68900.0,0.33,276.0,2700.0,42.88609090935049,10.260688783389412,27703.85971515141,29.71880566046323,14.147381023578891,13.167285248887264,3.886692240189479,4334,114,1356,2230,136.16257114502906,77.23467035453525,0.0016647410836586572,False
0.5,0.8418680213027718,1.6,2400.0,54.348839999999996,0.3,68900.0,0.33,276.0,2700.0,22.27520313136185,5.307001395041311,14328.90376661154,17.369692143791788,6.061837677582432,4.905510987570061,0.7548362825411203,2756,78,762,1493,115.58580112216268,66.47145575606041,0.001005576817503932,False
0.01,0.33065947478813607,1.6,2401.0,57.36822,0.05,68900.0,0.33,276.0,2700.0,9.213830654021631,0.04606705887500572,124.38105896251545,4.698104386010906,0.7010179469449015,4.5157262680107255,0.6549508880698958,30938,274,10252,15554,1926.7227285942704,1096.0607523495912,0.010996632959150082,True
0.02,0.5675889294179874,1.6,2402.0,57.36822,0.1,68900.0,0.33,276.0,2700.0,19.02740921610596,0.19025733700023986,513.6948099006477,9.754372955718457,2.3852709251305946,9.273036260387501,2.1950135881303545,14781,210,4898,7428,1522.3616425731668,877.3424941715857,0.013046589482036446,True
0.03,0.5605588257916713,1.6,2403.0,57.36822,0.1,68900.0,0.33,276.0,2700.0,18.455135071954096,0.2767704774115453,747.2802890111724,9.584034815254341,2.317296147517267,8.871100256699755,2.0405256701057217,14581,208,4808,7363,1144.803579254668,653.2204590009177,0.00846801635502672,True
0.04,0.6329813544375256,1.6,2404.0,57.36822,0.1,68900.0,0.33,276.0,2700.0,21.77830503040681,0.43543205932158496,1175.6665601682794,11.398332480215307,3.076298623450977,10.379972550191502,2.640866564129392,17242,228,5680,8716,1026.7252908495684,585.9214086089861,0.007839552837796299,True
0.05,0.4352416765970291,1.6,2405.0,57.36822,0.1,68900.0,0.33,276.0,2700.0,12.493902227283805,0.31208575629429686,842.6315419946015,6.756040973407804,1.2975721203362318,5.737861253876001,0.9854863640419349,10115,166,3324,5123,531.8253647508566,304.34384498386004,0.003435723876347806,True
0.06000000000000001,0.47580498375513014,1.6,2406.0,57.36822,0.1,68900.0,0.33,276.0,2700.0,13.980993860149407,0.4189774264622459,1131.239051448064,7.628218863674883,1.5891689109510156,6.352774996474524,1.1701914844887698,11208,176,3686,5673,489.08220048498896,280.21001601199833,0.0032661110362982365,True
0.06999999999999999,0.6270429062892577,1.6,2407.0,57.36822,0.2,68900.0,0.33,276.0,2700.0,20.743914373863205,0.7253186255650902,1958.3602890257434,11.244603704735978,3.009067110830524,9.499310669127228,2.2837484852654337,4367,112,1432,2213,520.7561724090172,297.7023034120267,0.0043702707990581095,True
0.08,0.7578482018718748,1.6,2408.0,57.36822,0.2,68900.0,0.33,276.0,2700.0,27.424460245589458,1.0959060795311533,2958.9464147341137,14.836013706420083,4.710121117732577,12.588446539169375,3.614215038201423,5477,132,1802,2768,561.4223915550554,321.48264119284613,0.0053653001735386625,True
0.09,0.6342854727804786,1.6,2409.0,57.36822,0.2,68900.0,0.33,276.0,2700.0,20.62671081929565,0.9266751728386576,2502.0229666643754,11.432210920140314,3.091185484019716,9.194499899155335,2.1645103111810586,4283,112,1404,2171,415.51583608177583,238.15403033972902,0.0034424404761883684,True
0.09999999999999999,0.504599685559812,1.6,2410.0,57.36822,0.2,68900.0,0.33,276.0,2700.0,14.397055132071491,0.7177583615011817,1937.9475760531905,8.272449203601687,1.8180464056616068,6.124605928469805,1.100288044160425,3202,90,1044,1630,300.4063318385035,173.4337019777815,0.00220230676430115,True
0.11,0.5891467617585507,1.6,2411.0,57.36822,0.2,68900.0,0.33,276.0,2700.0,17.98637625953648,0.9864630543932212,2663.4502468616975,10.284459915578998,2.60124684149606,7.701916343957484,1.614783787102839,3924,104,1280,1998,309.7629378269554,178.6895787640646,0.0024964694949753292,True
0.12,0.5534248071053578,1.6,2412.0,57.36822,0.3,68900.0,0.33,276.0,2700.0,16.13039151616344,0.96420437623287,2603.3518158287493,9.41244862713951,2.2495362740248024,6.717942889023929,1.2853318977919324,1796,68,582,917,275.1650809790769,158.86179712328612,0.0021104974284606084,False
0.13,0.5028072335279632,1.6,2413.0,57.36822,0.2,68900.0,0.33,276.0,2700.0,13.726145099657684,0.8875980454377906,2396.5147226820345,8.231738055816276,1.8032549357295262,5.494407043841408,0.9156568902917356,2877,86,946,1452,232.43572315922066,134.12838985688447,0.001716120710271775,False
0.14,0.550986680795239,1.6,2414.0,57.36822,0.3,68900.0,0.33,276.0,2700.0,15.608375578508506,1.0868392703346281,2934.466029903496,9.354100508460448,2.2266586957807704,6.254275070048058,1.1398194254461422,1695,66,558,852,239.51967414490113,137.45122801917472,0.001819402444224229,False
0.15000000000000002,0.8290396182150117,1.6,2415.0,57.36822,0.2,68900.0,0.33,276.0,2700.0,29.5921048391191,2.2123392794633543,5973.316054551056,16.971365851481057,5.841571631939678,12.620738987638042,3.629232352476324,5986,140,1974,3019,312.1737128716268,180.01900437757388,0.0033021083599573163,True
0.16,0.7784554986040584,1.6,2416.0,57.36822,0.3,68900.0,0.33,276.0,2700.0,26.464889169178747,2.1086124911948976,5693.253726226223,15.441020408403663,5.022066702540862,11.023868760775084,2.913454211345964,2729,90,896,1379,285.64657917443895,164.76541182031997,0.0027446225586225874,True
0.17,0.7587259522250918,1.6,2417.0,57.36822,0.3,68900.0,0.33,276.0,2700.0,25.13556666359336,2.1262334032673613,5740.830188821876,14.861565834962423,4.723154646782321,10.274000828630935,2.59692124351496,2613,86,856,1323,260.78471124082216,150.37570976145344,0.002441679812920605,False
0.18000000000000002,0.49982962587191293,1.6,2418.0,57.36822,0.2,68900.0,0.33,276.0,2700.0,12.664992067481785,1.127634773836205,3044.613889357753,8.164287492115866,1.7788445254212055,4.500704575365919,0.6512097515850006,2837,84,934,1430,167.39247598166696,96.48506461484787,0.0012697258913421116,False
0.19,0.7600284185824895,1.6,2419.0,57.36822,0.3,68900.0,0.33,276.0,2700.0,24.71328915798887,2.3333970140016294,6300.171937804399,14.899517525313598,4.742536047072901,9.813771632675273,2.409139033071272,2432,82,800,1226,235.83901978399632,135.67410299592743,0.0021736555978878074,False
0.2,0.8940621865460787,1.6,2420.0,57.36822,0.3,68900.0,0.33,276.0,2700.0,32.06396183629861,3.1896410228107177,8612.030761588938,19.032986512695327,7.01154359027513,13.030975323603283,3.821902567464412,3120,98,1020,1584,259.4561964197282,148.68661083332094,0.0028368196870615517,False
0.21000000000000002,0.5564006700605915,1.6,2421.0,57.36822,0.3,68900.0,0.33,276.0,2700.0,14.474149273443484,1.5003894806683031,4051.0515978044186,9.483868072593717,2.27765264325865,4.990281200849767,0.777263162590347,1527,62,500,771,165.96124333600554,95.59118586248158,0.0012711177899809357,False
0.22,0.6458933136977694,1.6,2422.0,57.36822,0.3,68900.0,0.33,276.0,2700.0,18.296542488255607,1.9903185546578326,5373.860097576148,11.735643335921715,3.2256465915527452,6.560899152333892,1.2353280368949127,1928,72,634,971,184.82234076521829,106.61382923560994,0.0014920794246876875,False
0.23,0.7518814610334845,1.6,2423.0,57.36822,0.3,68900.0,0.33,276.0,2700.0,23.331934181872345,2.6576899257044966,7175.76279940214,14.662829537112316,4.622115586307278,8.66910464476003,1.9644256606027817,2299,80,756,1159,195.73807050505886,112.58110010039525,0.0017678996691935253,False
0.24000000000000005,0.6798879607832988,1.6,2424.0,57.36822,0.3,68900.0,0.33,276.0,2700.0,19.49760107190099,2.310759210732634,6239.049868978112,12.64375442318195,3.639948823810915,6.853846648719042,1.329189613078281,2085,76,686,1050,172.56800782334108,99.44033783118707,0.0014786845348641509,False
0.25,0.8898922771002071,1.6,2425.0,57.36822,0.3,68900.0,0.33,276.0,2700.0,30.475937314684764,3.776767240860698,10197.271550323885,18.897585677303873,6.932460216502217,11.57835163738089,3.155692975641519,2969,96,978,1496,208.20802693970865,119.44499872396666,0.002196386369767396,False
0.26,0.6652278164455974,1.6,2426.0,57.36822,0.3,68900.0,0.33,276.0,2700.0,18.3858837040633,2.3533537932085653,6354.055241663126,12.248570883113095,3.4574928817926924,6.137312820950205,1.1041390885841271,1965,72,644,993,157.70599842931637,90.81474263601346,0.0013400004437439453,False
0.27,0.942293485436229,1.6,2427.0,57.36822,0.3,68900.0,0.33,276.0,2700.0,33.06922259315643,4.423121071275715,11942.426892444431,20.630861588717355,7.967828058838569,12.438361004439077,3.5447069875628534,3192,100,1050,1611,203.89253947352663,116.12990877244636,0.002255305194846143,False
0.28,0.5819270709141312,1.6,2428.0,57.36822,0.2,68900.0,0.33,276.0,2700.0,14.28648540082938,1.9541317948283778,5276.1558460366205,10.105633629357962,2.527642543814488,4.180851771471417,0.57351074898611,3057,90,1012,1529,133.3953460295843,76.91764979491133,0.0010554337634720665,False
0.29000000000000004,0.8798106739457974,1.6,2429.0,57.36822,0.3,68900.0,0.33,276.0,2700.0,28.873002456178593,4.1355051539936305,11165.863915782802,18.57203216481004,6.743585453873843,10.300970291368554,2.6080802998802124,2892,94,954,1455,179.62945214450573,102.69857406494546,0.0018094048577543393,False
0.3,0.7072348137951793,1.6,2430.0,57.36822,0.2,68900.0,0.33,276.0,2700.0,19.57334088685682,2.8794524652639066,7774.521656212548,13.395360673963603,3.9959499171555177,6.177980212893216,1.116497451891611,4122,108,1354,2073,162.0257889379959,91.95235897762716,0.001283924915487709,False
0.31,0.6179331802132926,1.6,2431.0,57.36822,0.2,68900.0,0.33,276.0,2700.0,15.29776359284244,2.308759232395183,6233.649927466994,11.010502625397447,2.907699732942428,4.287260967444993,0.5989405005472452,3201,92,1058,1598,125.21672367847104,71.99122818941774,0.0010452752847294581,False
0.32,0.8346778233082239,1.6,2432.0,57.36822,0.3,68900.0,0.33,276.0,2700.0,25.648777325659342,4.035175233390275,10894.973130153741,17.145924604821335,5.937751396959614,8.502852720838007,1.9025761635693392,2542,86,846,1267,158.9911939166632,90.9453557822812,0.0015174333280928542,False
0.33,0.9401294393851134,1.6,2433.0,57.36822,0.3,68900.0,0.33,276.0,2700.0,31.369536504785593,5.100707246494921,13771.909565536287,20.557915230594762,7.923260875151022,10.81162127419083,2.8225536286561006,3007,96,996,1507,169.24785434251964,96.64692024099786,0.0017784824505102659,False
0.34,0.7321152783391535,1.6,2434.0,57.36822,0.3,68900.0,0.33,276.0,2700.0,19.969616862100168,3.3125167614525677,8943.795255921932,14.09550946590811,4.337910469304829,5.874107396192057,1.025393707852261,2145,76,708,1077,133.68216749992445,76.7267555800022,0.0011989876949559742,False
0.3500000000000001,0.9342501562513894,1.6,2435.0,57.36822,0.3,68900.0,0.33,276.0,2700.0,30.523360473136727,5.251790892783817,14179.835410516307,20.36032872094142,7.802976330017602,10.163031752195305,2.5511854372337845,2988,96,988,1500,157.23789822124752,89.40490847219678,0.0016493944675452384,False
0.36000000000000004,0.8340804841709011,1.6,2436.0,57.36822,0.3,68900.0,0.33,276.0,2700.0,24.71769077362809,4.351468241355797,11748.964251660653,17.127393154537735,5.927515000374229,7.590297619090354,1.576046759018432,2514,84,834,1257,143.03962311575768,81.42398773522231,0.001368372593055751,False
0.37,0.6991330527351495,1.6,2437.0,57.36822,0.3,68900.0,0.33,276.0,2700.0,17.840834203761077,3.194466932574277,8625.060717950548,13.170730952537546,3.8883349676006977,4.67010325122353,0.6938680350264206,1841,68,612,917,119.47934115589477,68.49618809752253,0.0010534957240182748,False
0.38,0.9579666739962447,1.6,2438.0,57.36822,0.3,68900.0,0.33,276.0,2700.0,31.170785587218305,5.807525613512958,15680.319156484986,21.162691588058898,8.29533911497309,10.008093999159406,2.487813501460133,3331,100,1106,1666,149.7961834722572,85.3244527148923,0.0015864401771344325,False
0.39,0.8916034899682956,1.6,2439.0,57.36822,0.1,68900.0,0.33,276.0,2700.0,27.15754077676954,5.171483028391201,13963.004176656243,18.95309747844188,6.964845494048527,8.20444329832766,1.7933624656573262,40975,254,7004,25629,158.1500421997383,87.479482949252,0.0014255775255858378,False
0.4,0.7448611643329892,1.6,2440.0,57.36822,0.2,68900.0,0.33,276.0,2700.0,19.42164295628575,3.750287304703985,10125.775722700759,14.460211706192181,4.5198901157774145,4.96143125009357,0.7696028110734296,5130,104,1298,2865,127.4340532299754,73.20087871887762,0.0010890684410854307,False
0.4100000000000001,1.0497520990676552,1.6,2441.0,57.36822,0.3,68900.0,0.33,276.0,2700.0,35.97582985045788,7.230697314491826,19522.88274912793,24.40114156718207,10.384767516347269,11.574688283275808,3.1540702018554434,3370,104,1118,1687,147.74342028528912,84.0065611808036,0.0017026330691966487,False
0.42000000000000004,0.890135574334096,1.6,2442.0,57.36822,0.3,68900.0,0.33,276.0,2700.0,26.409305008775604,5.390784507496772,14555.118170241283,18.905473759538904,6.937058906368813,7.5038312492367005,1.5462743988720415,2542,86,846,1265,127.40070439069044,72.47788069227751,0.0013050190338328787,False
0.43,0.9867067093028583,1.6,2443.0,57.36822,0.3,68900.0,0.33,276.0,2700.0,31.645177665599025,6.637194126697818,17920.424142084106,22.153952159784808,8.917750331526772,9.491225505814217,2.2805562048289545,2994,96,1004,1482,135.46938497073535,77.06757911745112,0.0014805374235041034,False
0.44,0.9275183283487882,1.6,2444.0,57.36822,0.2,68900.0,0.33,276.0,2700.0,28.02292724228365,5.986635040900138,16163.914610430373,20.13515736268144,7.666672647380436,7.88776987960221,1.6800376064802975,7650,132,1926,4285,136.6581055922689,78.33875218499412,0.0013517191611447112,False
0.45,1.1478105513476657,1.6,2445.0,57.36822,0.3,68900.0,0.33,276.0,2700.0,41.22907458323869,9.085690027523126,24531.36307431244,28.09485472998815,12.95663083299913,13.134219853250542,3.8709408054760033,3886,112,1286,1947,148.4099654191177,84.37010731818276,0.0018177291982311337,False
0.46,0.9368717314778969,1.6,2446.0,57.36822,0.3,68900.0,0.33,276.0,2700.0,28.100039074483846,6.2591489454447355,16899.702152700786,20.448325321383923,7.856467770514733,7.651713753099923,1.5973188250699977,2638,88,870,1319,121.72948925768566,69.02008873043081,0.001297607071100786,False
0.4700000000000001,1.0240339366343434,1.6,2447.0,57.36822,0.3,68900.0,0.33,276.0,2700.0,32.89942937461483,7.51391952031872,20287.582704860546,23.472380014082297,9.769193641137942,9.427049360532536,2.255274120819222,3172,98,1044,1586,133.79198206948172,76.45520027264884,0.0014400614751611683,False
0.4800000000000001,1.1159904431753238,1.6,2448.0,57.36822,0.3,68900.0,0.33,276.0,2700.0,38.34632042044204,8.971493557742226,24223.032605904013,26.869753238695356,12.082208425604557,11.476567181746685,3.110714867862331,3749,108,1202,1902,139.5802077005901,79.95670693835147,0.001602033589602022,False
0.49,0.8689695410431639,1.6,2449.0,57.36822,0.3,68900.0,0.33,276.0,2700.0,23.839375706639938,5.594243558725325,15104.457608558378,18.224802421096165,6.544128435397526,5.6145732855437736,0.9498848766722006,2629,80,800,1363,126.28284694868005,72.30760522922836,0.001107972130621637,False
0.5,1.1548944897584144,1.6,2450.0,57.36822,0.3,68900.0,0.33,276.0,2700.0,40.34432354325328,9.824281498014168,26525.560044638252,28.37105565709631,13.156630604212332,11.973267886156972,3.332349106198164,4556,112,1342,2409,142.63865352137475,81.25939329484521,0.001633392432052322,False
0.01,0.608898294269443,1.6,2451.0,60.3876,0.05,68900.0,0.33,276.0,2700.0,21.308462527552418,0.10654021824265802,287.65858925517665,10.780384844025336,2.8092621861294034,10.528077683527082,2.7027219678867453,65888,448,21866,33083,43969.96391907548,24709.377308291056,0.034044248363623776,True
0.02,0.3556128430933863,1.6,2452.0,60.3876,0.08,68900.0,0.33,276.0,2700.0,9.953533433319297,0.09951857917237432,268.70016376541065,5.1641596630824,0.8240337583726309,4.789373770236897,0.7245151792002567,12413,178,4082,6284,1050.6031622116998,599.5757179096129,0.006531349508728137,True
0.03,0.6910877014437491,1.6,2453.0,60.3876,0.1,68900.0,0.33,276.0,2700.0,25.087244462703026,0.37625211827277794,1015.8807193365004,12.94929773744839,3.783263654995208,12.137946725254636,3.4070115367224303,19852,248,6548,10024,1486.2919101775094,846.8471985701914,0.012930450495872136,True
0.04,0.6976628056418189,1.6,2454.0,60.3876,0.1,68900.0,0.33,276.0,2700.0,25.176902537934666,0.5034040094721384,1359.1908255747735,13.13014367748754,3.8690005820185243,12.046758860447126,3.365596572546386,19861,248,6536,10051,1210.12421917718,689.9491459590265,0.009830984396824154,True
0.05,0.547939594991881,1.6,2455.0,60.3876,0.1,68900.0,0.33,276.0,2700.0,17.402978067830773,0.43481265230796984,1173.9941612315185,9.281389084182113,2.198266787145903,8.12158898364866,1.7634541348379331,13891,200,4572,7027,736.4274868507682,421.16420193351183,0.005116011740281681,True
0.06000000000000001,0.5581827878182395,1.6,2456.0,60.3876,0.2,68900.0,0.33,276.0,2700.0,17.653822720328858,0.5291622922675427,1428.7381891223654,9.526744694739763,2.2945922067029265,8.127078025589094,1.7654299144353838,3830,102,1260,1934,591.0227692267955,338.5594182841512,0.004405818554470441,True
0.06999999999999999,0.6101764664311602,1.6,2457.0,60.3876,0.2,68900.0,0.33,276.0,2700.0,19.910010340646586,0.6961319844025082,1879.5563578867723,10.812815192733552,2.823062095340616,9.097195147913034,2.126930110938108,4199,110,1376,2129,515.9398898230402,297.86189670140084,0.004387666290287469,True
0.08,0.7297191462942838,1.6,2458.0,60.3876,0.2,68900.0,0.33,276.0,2700.0,25.863797826402465,1.0334795827636711,2790.394873461912,14.027404085832993,4.304217390939773,11.836393740569472,3.2707378081761025,5245,128,1724,2653,553.1802228701945,316.420084011686,0.00526209316946213,True
0.09,0.4472389418457561,1.6,2459.0,60.3876,0.1,68900.0,0.33,276.0,2700.0,12.204768771357811,0.5476877806814564,1478.7570078399324,7.009695253484365,1.3801440981242934,5.195073517873446,0.832456317442837,10247,164,3372,5183,295.1843842722148,170.31006369993102,0.0021747462546484507,True
0.09999999999999999,0.643607802169716,1.6,2460.0,60.3876,0.2,68900.0,0.33,276.0,2700.0,20.85405450595238,1.0406083301952243,2809.6424915271054,11.675631641714538,3.1988932471328018,9.178422864237842,2.1582849169375775,4552,116,1496,2302,392.86184239562886,225.5092308020831,0.00332505160301626,True
0.11,0.7134050429868534,1.6,2461.0,60.3876,0.3,68900.0,0.33,276.0,2700.0,24.209018364294945,1.3287083701549374,3587.512599418331,13.567543285478223,4.07913307370989,10.641475078816722,2.7504247035549527,2502,84,820,1266,398.8421215804042,230.19359539249552,0.0036437538518401596,True
0.12,0.8034311212232672,1.6,2462.0,60.3876,0.3,68900.0,0.33,276.0,2700.0,28.928657988769988,1.7321003645892659,4676.670984391018,16.188582503339056,5.417018586213379,12.740075485430932,3.684918221624113,2899,94,946,1474,411.6572768527555,237.4760564137761,0.0041387022901025385,True
0.13,0.750782992966414,1.6,2463.0,60.3876,0.3,68900.0,0.33,276.0,2700.0,25.714556844755787,1.666844808869169,4500.480983946756,14.631044116907825,4.606026396698408,11.083512727847962,2.939181587829239,2617,86,858,1324,357.39760435665374,206.31091755208195,0.003344743639040218,True
0.14,0.4896896452219972,1.6,2464.0,60.3876,0.2,68900.0,0.33,276.0,2700.0,12.98837734963144,0.9034393943132342,2439.286364645732,7.936262016701428,1.6972170787694436,5.052115332930012,0.7937776844562094,2779,84,914,1402,221.90418580054623,128.0753185996585,0.001628254528882665,False
0.15000000000000002,0.4600619638430813,1.6,2465.0,60.3876,0.2,68900.0,0.33,276.0,2700.0,11.610001627318082,0.8636815385782796,2331.9401541613547,7.284807752592362,1.471789045360943,4.325193874725721,0.6081075067826635,2603,80,858,1310,197.7742140439551,114.15284272822458,0.0014110688100618148,False
0.16,0.7714992405067067,1.6,2466.0,60.3876,0.3,68900.0,0.33,276.0,2700.0,26.08201974418176,2.077982937195097,5610.553930426762,15.235599309130667,4.915370165380636,10.846420435051094,2.8373872281855386,2711,90,890,1370,297.8366598787394,171.84042184078749,0.0028308980922343353,True
0.17,0.5920428602191277,1.6,2467.0,60.3876,0.3,68900.0,0.33,276.0,2700.0,16.837723975375845,1.4209167747688876,3836.4752918759964,10.35656223427365,2.631136006858206,6.481161741102195,1.2102192320893186,1841,70,604,929,226.32889671902527,130.2502741992277,0.0017585369943142765,False
0.18000000000000002,0.8767345914865956,1.6,2468.0,60.3876,0.3,68900.0,0.33,276.0,2700.0,31.577756021197395,2.8297835296706118,7640.415530110652,18.473208416148825,6.686608407460907,13.10454760504857,3.8568248777902956,3107,98,1018,1574,298.3916557605926,171.26728193808881,0.003222354950656585,True
0.19,0.8354214033654359,1.6,2469.0,60.3876,0.3,68900.0,0.33,276.0,2700.0,28.8922468864879,2.7303979982090283,7372.074595164377,17.1690054653791,5.950509344930969,11.7232414211088,3.220111346721941,2984,94,978,1511,270.06350527284314,155.38417680426855,0.002757236586895655,False
0.2,0.5012604406299199,1.6,2470.0,60.3876,0.3,68900.0,0.33,276.0,2700.0,12.365768455821431,1.2198216847629963,3293.51854886009,8.196671359026775,1.7905492699759658,4.169097096794657,0.5707275852129694,1379,58,448,701,166.16431112399195,95.763809953491,0.0012202314601404494,False
0.21000000000000002,0.8177081247699896,1.6,2471.0,60.3876,0.3,68900.0,0.33,276.0,2700.0,27.373183635277474,2.8547880886608707,7707.927839384351,16.622959380747076,5.651237741194295,10.750224254530398,2.7964496525334246,2874,92,948,1446,240.28353186946268,138.1887474641122,0.0023746809721939496,False
0.22,0.548125396446431,1.6,2472.0,60.3876,0.3,68900.0,0.33,276.0,2700.0,13.937466707478634,1.5108202187723678,4079.214590685393,9.28581611141088,2.199991693998604,4.651650596067755,0.6891714752262363,1414,60,470,703,160.08988757956723,92.4025916700068,0.0012599609866654482,False
0.23,0.8825879029589947,1.6,2473.0,60.3876,0.3,68900.0,0.33,276.0,2700.0,30.573640692612084,3.490486174439574,9424.31267098685,18.661459078393833,6.795288375081914,11.912181614218252,3.30480220064234,3032,96,996,1532,235.70445410396195,135.2181559569059,0.002499391570103412,False
0.24000000000000005,0.7898798043615236,1.6,2474.0,60.3876,0.3,68900.0,0.33,276.0,2700.0,25.108684062770433,2.9840891696369694,8057.040758019817,15.781023503647216,5.200408667724981,9.327660559123217,2.216319498088011,2509,86,828,1261,205.14383932921837,117.99263711408824,0.001921956949568478,False
0.25,0.7769469226947092,1.6,2475.0,60.3876,0.3,68900.0,0.33,276.0,2700.0,24.183159114606664,2.9901699658509404,8073.458907797539,15.396368281607423,4.998806438888886,8.786790832999241,2.008636473037946,2508,86,826,1263,196.70886744412195,113.03421722126126,0.001807389890986426,False
0.26,0.568805424290431,1.6,2476.0,60.3876,0.3,68900.0,0.33,276.0,2700.0,14.086764229381753,1.7944682614999656,4845.064306049907,9.78397447178265,2.3971550710909653,4.302789757599104,0.6026868095909996,1484,60,492,740,141.05645591031416,81.12645671784426,0.0011431170127796236,False
0.27,0.6581784357711181,1.6,2477.0,60.3876,0.3,68900.0,0.33,276.0,2700.0,17.856396049542195,2.3693894878877932,6397.351617297042,12.060468663883846,3.3718117786819652,5.795927385658349,1.002422290794172,2001,72,654,1014,159.8115118259712,92.01183586661442,0.0013386796569682606,False
0.28,0.7576511555686252,1.6,2478.0,60.3876,0.3,68900.0,0.33,276.0,2700.0,22.49917865041152,3.1039088497698786,8380.553894378672,14.830280166767503,4.707198300979186,7.668898483644016,1.603289451209307,2234,78,736,1124,175.7094913967033,100.95561553165366,0.0015741419296844232,False
0.29000000000000004,0.8782090170909578,1.6,2479.0,60.3876,0.3,68900.0,0.33,276.0,2700.0,28.781705529686967,4.122267099652338,11130.121169061313,18.520546867610093,6.713880670743685,10.261158662076873,2.5916135710913473,2890,94,954,1453,189.9806433421624,108.67465642071896,0.001898878463073664,False
0.3,0.6375523177382514,1.6,2480.0,60.3876,0.3,68900.0,0.33,276.0,2700.0,16.342542784790318,2.394832749953933,6466.048424875618,11.517264801694862,3.128671600522024,4.8252779830954555,0.7338388505680911,1739,68,572,875,139.3134005286887,79.93691290512665,0.0011721879574733242,False
0.31,0.7682295398154126,1.6,2481.0,60.3876,0.3,68900.0,0.33,276.0,2700.0,22.384704692214065,3.407235102797784,9199.534777554018,15.13946389967552,4.865711556006628,7.245240792538544,1.4584764532088443,2337,82,774,1170,161.43670990421367,92.60317885823986,0.00146507297051265,False
0.32,0.7574509043694572,1.6,2482.0,60.3876,0.3,68900.0,0.33,276.0,2700.0,21.626932595630677,3.391680076585596,9157.53620678111,14.824454372674248,4.704229102919804,6.802478222956429,1.312549026334208,2257,78,740,1141,153.92257049850997,88.44382692770785,0.0013962244475297515,False
0.33,0.694709255101535,1.6,2483.0,60.3876,0.3,68900.0,0.33,276.0,2700.0,18.386718874299437,2.958542337464703,7988.064311154698,13.048772888007596,3.8303402593979636,5.337945986291841,0.8717979219332608,1907,70,632,953,141.1177270323748,80.78991584727586,0.0012056791035267023,False
0.34,0.6453038091244352,1.6,2484.0,60.3876,0.2,68900.0,0.33,276.0,2700.0,15.960717171091988,2.6310038139811764,7103.710297749177,11.720151887856098,3.2187329427040035,4.24056528323589,0.587729128722827,3906,96,1140,2070,140.80260386567065,81.12871389251468,0.0010924740721851573,False
0.3500000000000001,0.7778174537275213,1.6,2485.0,60.3876,0.3,68900.0,0.33,276.0,2700.0,22.02301300801185,3.7642300863869673,10163.421233244811,15.422128027736731,5.012220666218138,6.60088498027512,1.2479905798311703,2243,80,748,1115,146.62071908863714,83.94623954061154,0.0013365492500709915,False
0.36000000000000004,0.951752058994447,1.6,2486.0,60.3876,0.3,68900.0,0.33,276.0,2700.0,31.300388503513485,5.5363538327351725,14948.155348384966,20.951075682683307,8.164479192732829,10.349312820830178,2.6281253599976564,2967,96,980,1491,165.48636707944843,94.08660787241361,0.001736753936823452,False
0.37,0.981756187969441,1.6,2487.0,60.3876,0.3,68900.0,0.33,276.0,2700.0,32.83467916391035,5.968328250201816,16114.486275544903,21.98172584538432,8.808503277866432,10.85295331852603,2.840175027664616,3254,100,1078,1631,165.71195856887064,94.40935341649318,0.0017758925767079072,False
0.38,0.7217781109360638,1.6,2488.0,60.3876,0.3,68900.0,0.33,276.0,2700.0,18.70656188390751,3.4393231098839068,9286.172396686548,13.802727189454377,4.1937184114928305,4.903834694453135,0.7543953016089238,1951,72,648,973,122.19513379655098,70.0388484757905,0.0011219770514024642,False
0.39,0.7358468350546418,1.6,2489.0,60.3876,0.2,68900.0,0.33,276.0,2700.0,19.181754639983954,3.616204731718009,9763.752775638624,14.201859028042932,4.390706978196936,4.979895611941021,0.7745022464789266,4974,104,1292,2752,137.88867759055407,79.2425695536347,0.0011581513685387805,False
0.4,0.7251442739988405,1.6,2490.0,60.3876,0.2,68900.0,0.33,276.0,2700.0,18.494981391510276,3.5649549917487673,9625.378477721672,13.897773023283724,4.240340531926461,4.597208368226552,0.6753855401776936,4965,102,1248,2781,132.03411163834096,76.02481420204928,0.0011103773519950998,False
0.4100000000000001,0.9042128857605427,1.6,2491.0,60.3876,0.2,68900.0,0.33,276.0,2700.0,27.402076166556483,5.47307780929204,14777.310085088508,19.364415850962196,7.206421640763941,8.037660315594287,1.7333438314719016,7820,130,1960,4392,149.27254589499304,85.44765286087237,0.0014598896947203717,False
0.42000000000000004,0.9032820142876743,1.6,2492.0,60.3876,0.3,68900.0,0.33,276.0,2700.0,27.12741538016062,5.541587685487589,14962.28675081649,19.333914220652137,7.188410056697674,7.793501159508484,1.6468223712100851,2621,88,870,1310,138.95243425419613,78.94552181914014,0.0013986244544226909,False
0.43,0.8555398678380262,1.6,2493.0,60.3876,0.3,68900.0,0.33,276.0,2700.0,24.35232479084241,5.069230758624869,13686.923048287146,17.79876053127678,6.3022411692148,6.553564259565629,1.233010410589931,2506,82,806,1273,135.09273707767494,77.405407194933,0.0012820871948233865,False
0.44,0.9032118733628037,1.6,2494.0,60.3876,0.2,68900.0,0.33,276.0,2700.0,26.68463679399947,5.692211142277174,15368.97008414837,19.33161681300199,7.187054038645036,7.35301998099748,1.494842896367862,7522,128,1912,4196,142.1604482155463,81.53858491140531,0.0013707560200300808,False
0.45,0.9189913063655821,1.6,2495.0,60.3876,0.3,68900.0,0.33,276.0,2700.0,27.330397844460002,5.958487761297922,16087.91695550439,19.851574014334588,7.496190077162581,7.478823830125414,1.5377023158646583,2683,88,884,1343,130.4534973586567,73.98466632610042,0.0013554183018620672,False
0.46,0.9456952502047498,1.6,2496.0,60.3876,0.3,68900.0,0.33,276.0,2700.0,28.59291377893485,6.372510127468612,17205.777344165253,20.745767292574048,8.038204755576784,7.847146486360803,1.665694628108172,2791,90,906,1410,141.27308937935845,80.56934506686892,0.0013691387967138076,False
0.4700000000000001,1.0135520876417896,1.6,2497.0,60.3876,0.3,68900.0,0.33,276.0,2700.0,32.27571819854376,7.3673473939420155,19891.83796364344,23.098616590439597,9.525120976189543,9.17710160810416,2.1577735822475272,3209,98,1046,1614,143.7147237720778,82.52112127095765,0.001494581497906675,False
0.4800000000000001,0.9612022958055162,1.6,2498.0,60.3876,0.3,68900.0,0.33,276.0,2700.0,29.02064028141042,6.733330324374634,18179.991875811513,21.273253060431195,8.363992378027291,7.747387220979224,1.6306620536526566,3361,94,1018,1754,139.47832142379812,79.56530748797701,0.0013691500735193804,False
0.49,0.8812684407941556,1.6,2499.0,60.3876,0.2,68900.0,0.33,276.0,2700.0,24.47620570160081,5.75026690749074,15525.720650225,18.618948159462306,6.770693336472996,5.857257542138505,1.0204264289822556,6583,120,1614,3726,129.31723344114434,74.01258163637092,0.0012122848984414266,False
0.5,1.0728756388570195,1.6,2500.0,60.3876,0.3,68900.0,0.33,276.0,2700.0,35.133682962088294,8.521621352722924,23008.377652351897,25.250395727618425,10.958801270130081,9.883287234469869,2.437179917407157,3493,100,1086,1800,146.3296929962402,83.0731567856175,0.0015380750501689602,False
0.01,0.40517627563013203,1.6,2501.0,63.40698,0.05,68900.0,0.33,276.0,2700.0,12.071433352942906,0.06035507236961198,162.95869539795234,6.136269792835312,1.1038227933561149,5.935163560107594,1.0434677209865029,39108,318,12960,19662,2654.0550141379704,1510.5588793423585,0.01638510063724248,True
0.02,0.6786595762363954,1.6,2502.0,63.40698,0.1,68900.0,0.33,276.0,2700.0,24.683701826707903,0.2468202631062584,666.4147103868977,12.61043435926536,3.6244379000705007,12.073267467442543,3.377617636964242,19471,246,6460,9775,2138.377784535936,1217.1901930861593,0.019801043054205505,True
0.03,0.5941333983379253,1.6,2503.0,63.40698,0.1,68900.0,0.33,276.0,2700.0,20.079230873262354,0.30113191443116955,813.0561689641578,10.408740031563514,2.6528413156905546,9.67049084169884,2.351709401259385,15994,218,5290,8053,1343.1801336102167,766.7648436945022,0.010362924063202432,True
0.04,0.34695867843355854,1.6,2504.0,63.40698,0.1,68900.0,0.33,276.0,2700.0,9.270687117443353,0.18527970106231392,500.2551928682476,5.00075284570251,0.7800507025527356,4.269934271740843,0.5947710014904216,7596,138,2484,3864,1003.9344100437737,564.043125965911,0.013205354408117943,True
0.05,0.45791624137687725,1.6,2505.0,63.40698,0.1,68900.0,0.33,276.0,2700.0,13.43029515183425,0.33549557940805685,905.8380644017535,7.238484284910168,1.4562075890477808,6.191810866924081,1.1207120096397238,10971,172,3604,5559,629.4878581831935,359.69961272549307,0.004057831635094206,True
0.06000000000000001,0.42196163211397153,1.6,2506.0,63.40698,0.1,68900.0,0.33,276.0,2700.0,11.764717266000211,0.3524891286378899,951.7206473223027,6.479483635889922,1.2096928477576518,5.285233630110289,0.8572037191197619,9361,158,3072,4747,451.8347723614352,259.110775135138,0.003081720233114375,True
0.06999999999999999,0.4395295020312846,1.6,2507.0,63.40698,0.2,68900.0,0.33,276.0,2700.0,12.277161114793333,0.42898226149753954,1158.2521060433567,6.846281669886265,1.326734147725077,5.4308794449070685,0.8977518862275373,2607,82,858,1314,422.35527512622326,243.8468985496428,0.002821882044434018,True
0.08,0.6286095392090728,1.6,2508.0,63.40698,0.2,68900.0,0.33,276.0,2700.0,20.582428798138366,0.8222248216331101,2220.007018409397,11.28507310807655,3.026714969461347,9.297355690061817,2.2044901478282366,4401,112,1440,2235,504.7428561313668,288.8178424966645,0.0042267135140555715,True
0.09,0.7291583455194531,1.6,2509.0,63.40698,0.2,68900.0,0.33,276.0,2700.0,25.570662108107356,1.1491529808351857,3102.7130482550015,14.011485255753989,4.2963552758750865,11.559176852353367,3.147202295039901,5235,128,1720,2649,515.1246223344115,295.171598385092,0.004884953861863495,True
0.09999999999999999,0.428675938929468,1.6,2510.0,63.40698,0.2,68900.0,0.33,276.0,2700.0,11.28048451774526,0.5619298307848711,1517.2105431191521,6.618755302579812,1.2536650112849905,4.6617292151654475,0.6917351805001194,2579,80,844,1307,290.4183479540748,167.60413806743983,0.0019595983140371876,True
0.11,0.5532029682592117,1.6,2511.0,63.40698,0.2,68900.0,0.33,276.0,2700.0,16.331093701927195,0.8954225137247098,2417.6407870567164,9.407133503430497,2.247448816855268,6.923960198496697,1.3520263031305584,3599,98,1176,1829,324.36920247466054,187.1865571081261,0.002526645880711931,True
0.12,0.6126665059574683,1.6,2512.0,63.40698,0.3,68900.0,0.33,276.0,2700.0,18.879048478927526,1.1291237939987164,3048.6342437965345,10.876111485753544,2.850065205361599,8.002936993173982,1.7209414113628827,2016,74,660,1020,337.4341441489845,194.81751962707315,0.002681509577901084,True
0.13,0.5598369520589246,1.6,2513.0,63.40698,0.3,68900.0,0.33,276.0,2700.0,16.209566809312612,1.0490204565653611,2832.355232726475,9.566614265925786,2.3103839730367386,6.642952543386826,1.2613635164713775,1660,66,544,838,286.51043716632,165.41608094436535,0.0022015794134604898,True
0.14,0.7348063204289164,1.6,2514.0,63.40698,0.2,68900.0,0.33,276.0,2700.0,24.597728000449575,1.7160939398705024,4633.4536376503565,14.172169119927842,4.375945184916991,10.425558880521733,2.6598512450464886,5007,124,1656,2517,331.09778464564437,191.07268785799474,0.0031132192199652435,True
0.15000000000000002,0.560623435384815,1.6,2515.0,63.40698,0.3,68900.0,0.33,276.0,2700.0,15.832467583217166,1.1803664852707096,3186.989510230916,9.585594638679714,2.317915418496569,6.2468729445374525,1.1375489332258595,1677,66,550,846,250.50503652536094,144.32776598201443,0.0019338300912401288,False
0.16,0.46064113346062907,1.6,2516.0,63.40698,0.2,68900.0,0.33,276.0,2700.0,11.455518010207664,0.9078627984772102,2451.2295558884675,7.297331133084582,1.476011810854777,4.158186877123081,0.5681490123775669,2613,80,862,1314,192.89592673602903,111.12525305420832,0.0014008699849773999,False
0.17,0.7975957245898866,1.6,2517.0,63.40698,0.3,68900.0,0.33,276.0,2700.0,27.271392902931495,2.3077786336111172,6231.0023107500165,16.012515788720904,5.323065912100085,11.258877114210591,3.0152872784889677,2837,92,928,1439,306.06874950156003,176.393461769001,0.0029718039280264034,True
0.18000000000000002,0.5208898195345779,1.6,2518.0,63.40698,0.3,68900.0,0.33,276.0,2700.0,13.533425522204205,1.2057937847612208,3255.6432188552963,8.646141255256614,1.9558404044459723,4.88728426694759,0.7500466196847515,1419,60,466,714,200.74558811933278,115.74547042598837,0.0014811808778928555,False
0.19,0.5062686831764058,1.6,2519.0,63.40698,0.3,68900.0,0.33,276.0,2700.0,12.746870853013608,1.1965872750289757,3230.7856425782343,8.310428985224192,1.8318847880113027,4.436441867789416,0.6352975129823271,1397,58,458,704,183.14938906223853,105.33154036841788,0.0013573548560359397,False
0.2,0.5991670109342324,1.6,2520.0,63.40698,0.3,68900.0,0.33,276.0,2700.0,16.54994311228364,1.6382391504092189,4423.245706104891,10.534824736862841,2.705551944290701,6.015118375420798,1.0673127938814821,1871,70,614,944,214.78128853496315,123.96148197144593,0.001618369934777853,False
0.21000000000000002,0.7432767828855377,1.6,2521.0,63.40698,0.3,68900.0,0.33,276.0,2700.0,23.34941434631323,2.4322923133196275,6567.189245962994,14.414655052501697,4.497015722512223,8.934759293811535,2.0647234091925952,2386,82,784,1204,237.94847283445944,136.99031002522045,0.0020934159594088167,False
0.22,0.8571556380165877,1.6,2522.0,63.40698,0.2,68900.0,0.33,276.0,2700.0,29.35670196957328,3.206936097602675,8658.727463527222,17.849779222713575,6.331041084101566,11.506922746859704,3.1241049864988906,5611,136,1858,2818,249.67142084604484,143.38997396342484,0.00259181619383011,False
0.23,0.6138029919282326,1.6,2523.0,63.40698,0.3,68900.0,0.33,276.0,2700.0,16.61454694291066,1.8851903932239082,5090.014061704553,10.905052517804291,2.8624421959457464,5.709494425106369,0.9772518027218382,1797,68,590,906,182.41595824191546,105.15289407180408,0.0014769863773761013,False
0.24000000000000005,0.9260685582065282,1.6,2524.0,63.40698,0.3,68900.0,0.33,276.0,2700.0,32.89879262722262,3.918902197370987,10581.035932901665,20.086813390910915,7.637516347631968,12.811979236311704,3.718614150260981,3203,100,1054,1616,246.6088161848258,141.02697537990252,0.0027501729969949163,False
0.25,0.5718042843998519,1.6,2525.0,63.40698,0.3,68900.0,0.33,276.0,2700.0,14.393583634968078,1.7664730308961172,4769.477183419516,9.857105936382975,2.42660544087772,4.536477698585102,0.6601324099816028,1488,60,492,744,155.56234522653506,89.64905818805985,0.0012489859833725114,False
0.26,0.7432971416759759,1.6,2526.0,63.40698,0.3,68900.0,0.33,276.0,2700.0,22.20907702045987,2.8503689243401205,7695.996095718325,14.415240040670428,4.4973091934084835,7.793836979789441,1.646940269068363,2317,80,764,1165,191.32848756400148,110.02115292114107,0.0017203471101559706,False
0.27,0.735529855053427,1.6,2527.0,63.40698,0.3,68900.0,0.33,276.0,2700.0,21.59618731683589,2.8742613089724367,7760.505534225579,14.192811480137696,4.386206706917553,7.403375836698196,1.5119453979451167,2230,78,736,1120,184.1682526531821,105.8294854230096,0.0016388516035005303,False
0.28,0.928890496989262,1.6,2528.0,63.40698,0.3,68900.0,0.33,276.0,2700.0,31.99550297589726,4.433394255337884,11970.164489412287,20.180962297364516,7.6943328995209415,11.814540678532744,3.2609386441830575,3104,98,1024,1562,215.5010911652039,123.06840396583313,0.002324230372617998,False
0.29000000000000004,0.9674839736970624,1.6,2529.0,63.40698,0.3,68900.0,0.33,276.0,2700.0,34.067231331005665,4.8886683408435525,13199.404520277592,21.488649803744455,8.498300108797135,12.57858152726121,3.6096317679535828,3385,104,1122,1696,213.5010154277246,121.61205780757042,0.0024207564305604974,False
0.3,0.8681202970141912,1.6,2530.0,63.40698,0.3,68900.0,0.33,276.0,2700.0,27.9650252006974,4.138205112339991,11173.153803317975,18.197726813464,6.528662628944052,9.7672983872334,2.3904575166040614,2796,90,930,1395,190.81322118597305,109.09566424532028,0.0018830065721289983,False
0.31,0.687123741034128,1.6,2531.0,63.40698,0.3,68900.0,0.33,276.0,2700.0,18.419275062699032,2.7925935102229555,7540.00247760198,12.840795371715636,3.732148331423362,5.5784796909833965,0.9395548212004066,1863,70,616,933,154.3232045769122,88.6072295958784,0.001317432620556562,False
0.32,0.9144309582600583,1.6,2532.0,63.40698,0.3,68900.0,0.33,276.0,2700.0,30.116836187672465,4.750064651312372,12825.174558543406,19.70066042029565,7.406004297109528,10.416175767376814,2.6559396457971562,3055,96,1012,1531,188.8442018960126,107.62378700582086,0.0019261516944405145,False
0.33,0.7954432750939291,1.6,2533.0,63.40698,0.3,68900.0,0.33,276.0,2700.0,23.34928027085874,3.7773649678969634,10198.885413321801,15.947787725757795,5.288669463391034,7.401492545100943,1.5113044954940702,2387,82,790,1196,163.8008526603604,93.50266389364239,0.0015268894491186882,False
0.34,0.7720745391856035,1.6,2534.0,63.40698,0.3,68900.0,0.33,276.0,2700.0,21.942224730776193,3.647860099127445,9849.222267644102,15.252541979878718,4.924140058684716,6.689682750897475,1.2762799595572711,2360,82,778,1187,157.19877024880267,90.07515425988593,0.0014288623439586744,False
0.3500000000000001,0.9024508029275583,1.6,2535.0,63.40698,0.3,68900.0,0.33,276.0,2700.0,28.695817819814565,4.931970928452438,13316.321506821583,19.306696533572865,7.172350800590099,9.3891212862417,2.2403798721376607,2678,90,890,1337,171.93861740756032,98.0220086959139,0.0017304200248366443,False
0.36000000000000004,0.8322894068929365,1.6,2536.0,63.40698,0.3,68900.0,0.33,276.0,2700.0,24.62287320333887,4.334401078703741,11702.882912500101,17.071881726678537,5.896888240326692,7.550991476660332,1.5624871616229505,2534,84,840,1268,157.6520857617288,89.75733475885892,0.0015075991451922526,False
0.37,0.8567842888496515,1.6,2537.0,63.40698,0.3,68900.0,0.33,276.0,2700.0,25.70945122915426,4.650161082271883,12555.434922134085,17.838047893739912,6.324414761773888,7.8714033354143496,1.674253679502005,2593,86,860,1297,156.69167102909935,89.3993846558329,0.001524824912799048,False
0.38,1.0349453946937088,1.6,2538.0,63.40698,0.3,68900.0,0.33,276.0,2700.0,35.839013430973736,6.694488903826488,18075.120040331516,23.864395900743975,10.027447542803156,11.97461753022976,3.3329586389766677,3435,104,1142,1716,176.48674823493118,100.30334757668997,0.0020111956893609333,False
0.39,0.7624336365492147,1.6,2539.0,63.40698,0.2,68900.0,0.33,276.0,2700.0,20.456866128420913,3.8648514719632177,10435.098974300688,14.969713616663581,4.778457023628205,5.487152511757332,0.913605551664987,5132,106,1312,2856,148.23545173543303,85.28320714754841,0.00126953303933455,False
0.4,0.9800036304140672,1.6,2540.0,63.40698,0.3,68900.0,0.33,276.0,2700.0,31.979115271479706,6.261781767742776,16906.810772905494,21.92090281416884,8.770032347360912,10.058212457310866,2.508250579618136,3252,100,1080,1626,160.72416902794146,91.23169276139868,0.0017293031613157077,False
0.4100000000000001,0.999340878515428,1.6,2541.0,63.40698,0.3,68900.0,0.33,276.0,2700.0,32.88556694937205,6.597193419769232,17812.422233376925,22.596280823600754,9.200437115679156,10.289286125771294,2.6032436959099243,3197,100,1062,1598,158.3014152419346,89.86573699709523,0.0017390059825430305,False
0.42000000000000004,0.8446583500200947,1.6,2542.0,63.40698,0.3,68900.0,0.33,276.0,2700.0,23.992164684828232,4.883185039467826,13184.59960656313,17.45688046236354,6.1104264249154765,6.535284222464693,1.227241385447651,2490,82,806,1261,143.45875757549842,82.2305116951619,0.001350116531110352,False
0.43,0.8733440269939831,1.6,2543.0,63.40698,0.3,68900.0,0.33,276.0,2700.0,25.291506752457323,5.271154880371943,14232.118177004246,18.364556986929255,6.624158079414459,6.926949765528068,1.3530031990425169,2588,86,848,1300,140.97178271140754,80.3557752874914,0.001375695167030825,False
0.44,0.8507128557511874,1.6,2544.0,63.40698,0.3,68900.0,0.33,276.0,2700.0,23.895431019363148,5.0785858718577686,13712.181854015975,17.646736196317462,6.216693484205977,6.248694823045685,1.1381076123482083,2591,82,814,1330,131.39750113254516,74.80698730107146,0.0013027736626387563,False
0.45,0.7994093309656887,1.6,2545.0,63.40698,0.2,68900.0,0.33,276.0,2700.0,21.113979319836318,4.5597935932575915,12311.442701795497,16.067144612270237,5.352155837924883,5.046834707566081,0.7923622446672915,5609,110,1412,3137,135.10121689914283,77.53909850787458,0.0012004082112842822,False
0.46,1.0322360575584888,1.6,2546.0,63.40698,0.3,68900.0,0.33,276.0,2700.0,33.634432260669804,7.532059378267512,20336.560321322282,23.76677830833887,9.962923129916895,9.867653952330933,2.430863751649383,3153,98,1052,1565,148.10481448283508,83.998247675486,0.001642794210944621,False
0.4700000000000001,0.8111997584092407,1.6,2547.0,63.40698,0.3,68900.0,0.33,276.0,2700.0,21.31736411927887,4.792134185314764,12938.762300349863,16.424307399814086,5.543696458876733,4.893056719464784,0.7515622735619685,2347,76,722,1220,139.61436529514805,80.441068573019,0.0011598265806513318,False
0.4800000000000001,0.9357851861950741,1.6,2548.0,63.40698,0.3,68900.0,0.33,276.0,2700.0,27.604425045105724,6.393438667661506,17262.284402686066,20.41183304900976,7.834269567034954,7.192591996095963,1.4408308993734478,2810,88,876,1450,141.7644537939835,81.02359416360504,0.0013875753798883793,False
0.49,0.8018452384700545,1.6,2549.0,63.40698,0.3,68900.0,0.33,276.0,2700.0,20.497706060236016,4.775534495356367,12893.94313746219,16.140648254845804,5.391383409824925,4.3570578053902125,0.6158489144685584,2422,74,700,1290,127.9436452484751,73.13553379338546,0.0011242242079221615,False
0.5,1.1841740455626502,1.6,2550.0,63.40698,0.3,68900.0,0.33,276.0,2700.0,42.286349419421526,10.309787967056234,27836.427511051832,29.526037470010355,14.004178617066067,12.760311949411172,3.694390650009833,4528,114,1354,2379,156.51643068702145,88.91664907566498,0.0018790615811784884,False
0.01,0.5759068593973188,1.6,2551.0,66.42636,0.08,68900.0,0.33,276.0,2700.0,19.671022826425087,0.09835301973702336,265.55315328996306,9.957519167484646,2.467250789025425,9.713503658940441,2.3688977692884015,24636,270,8202,12327,3838.170418827528,2213.712151502325,0.0311805293806712,True
0.02,0.6597875156229549,1.6,2552.0,66.42636,0.1,68900.0,0.33,276.0,2700.0,23.678908355710206,0.23677232839628115,639.2852866699591,12.103294557608011,3.391252482228571,11.575613798102195,3.15448015383229,19241,242,6384,9659,2175.5871643995215,1238.586963041707,0.019726032705899076,True
0.03,0.679012382592724,1.6,2553.0,66.42636,0.1,68900.0,0.33,276.0,2700.0,24.43775433978742,0.36650976642904726,989.5763693584275,12.620000388031535,3.628888628854422,11.817753951755886,3.262378862425375,19238,244,6352,9704,1657.5506018378626,943.7946757959274,0.013786125929375519,True
0.04,0.4629354613169655,1.6,2554.0,66.42636,0.1,68900.0,0.33,276.0,2700.0,13.846637276670323,0.2767987042468536,747.3565014665047,7.347024214770955,1.4928112617666751,6.499613061899368,1.2160125575198215,11161,176,3670,5650,12781.669234266705,6706.502494754601,0.005974165478817941,True
0.05,0.731673665984634,1.6,2555.0,66.42636,0.2,68900.0,0.33,276.0,2700.0,26.775206155393874,0.6691183544970445,1806.61955714202,14.082946649492657,4.331688492309285,12.692259505901218,3.6625701378122404,5317,130,1752,2683,932.4811084492953,532.478385656485,0.009445009213590002,True
0.06000000000000001,0.7321880214895656,1.6,2556.0,66.42636,0.2,68900.0,0.33,276.0,2700.0,26.533098230081766,0.7955405575603346,2147.9595054129036,14.097579304925592,4.3389358963525435,12.435518925156174,3.543395338792209,5320,130,1754,2683,808.0013897900807,461.15504719571703,0.00784306157960015,True
0.06999999999999999,0.7456184303144773,1.6,2557.0,66.42636,0.2,68900.0,0.33,276.0,2700.0,27.010114216400236,0.9446356200538888,2550.5161741455,14.482008104652989,4.530848594113663,12.528106111747247,3.586212974059774,5518,132,1818,2785,715.5231592144611,409.16281054974326,0.006917274117034831,True
0.08,0.6928999238203303,1.6,2558.0,66.42636,0.2,68900.0,0.33,276.0,2700.0,23.88108672269878,0.9541711386149441,2576.262074260349,12.999033814353323,3.8067757160669236,10.882052908345456,2.8526045774519795,4844,122,1594,2447,590.3789648646592,337.3582119042652,0.00526405043040053,True
0.09,0.3914124018851416,1.6,2559.0,66.42636,0.2,68900.0,0.33,276.0,2700.0,10.031896362966872,0.44990852230386463,1214.7530102204346,5.860120720075277,1.0212698522550676,4.171775642891595,0.571361329951203,2398,76,788,1210,313.19468786818885,180.81812793581818,0.0020114025613641347,True
0.09999999999999999,0.5859668106780574,1.6,2560.0,66.42636,0.2,68900.0,0.33,276.0,2700.0,18.058725836142614,0.9008418967047394,2432.2731211027963,10.20553350064333,2.568668320491711,7.853192335499283,1.6678264237869718,3906,104,1272,1992,387.8170205153994,223.83637244521694,0.0031359731546060482,True
0.11,0.6486317544487745,1.6,2561.0,66.42636,0.3,68900.0,0.33,276.0,2700.0,20.868445486346502,1.1449768618677727,3091.4375270429864,11.807720680039166,3.25788260226135,9.060724806307336,2.112905740393577,2212,78,730,1111,397.87204807490446,229.7114952331863,0.0033554732989550073,True
0.12,0.8067581354610296,1.6,2562.0,66.42636,0.3,68900.0,0.33,276.0,2700.0,29.120156716139324,1.743590288231426,4707.693778224851,16.289348886297837,5.471045779156708,12.830807829841486,3.727455490925282,2950,94,968,1492,453.9409199811089,261.9030383796476,0.004581325074058814,True
0.13,0.589485591389727,1.6,2563.0,66.42636,0.3,68900.0,0.33,276.0,2700.0,17.565237877247014,1.1371390759810986,3070.275505148966,10.29288465259849,2.6047329484499007,7.2723532246485245,1.467593872468802,1933,72,632,979,316.68280553369954,182.80294758638837,0.0024729990750760925,True
0.14,0.6921287887201047,1.6,2564.0,66.42636,0.3,68900.0,0.33,276.0,2700.0,22.35927438877598,1.5594021870533519,4210.38590504405,12.97786007884079,3.7967598696892026,9.38141430993519,2.2373576826358508,2283,80,752,1149,334.2207571273995,192.9427997989953,0.002929924346794811,True
0.15000000000000002,0.4860769381589166,1.6,2565.0,66.42636,0.2,68900.0,0.33,276.0,2700.0,12.653601322895543,0.9419515157465896,2543.269092515792,7.8556446716974655,1.6686914111075912,4.797956651198078,0.7267398953610016,2792,84,920,1406,223.0242899680927,128.71974618485356,0.001667690121941531,False
0.16,0.721415320044787,1.6,2566.0,66.42636,0.3,68900.0,0.33,276.0,2700.0,23.397221619097614,1.8631990871884085,5030.637535408703,13.792500549573491,4.188712762959624,9.604721069524123,2.325513675771216,2353,82,772,1189,307.8106047457551,177.32879717831912,0.002739984433331693,True
0.17,0.5046510996177138,1.6,2567.0,66.42636,0.3,68900.0,0.33,276.0,2700.0,13.04522285066141,1.0985541791681623,2966.0962837540383,8.273618139015452,1.8184717558935224,4.771604711645958,0.71991757672536,1432,60,468,724,213.46245639218668,123.24041408269798,0.0015635471123930495,False
0.18000000000000002,0.6061746852729349,1.6,2568.0,66.42636,0.3,68900.0,0.33,276.0,2700.0,17.278157764487798,1.542819686566745,4165.613153730212,10.711417197917944,2.7799945957479584,6.5667405665698535,1.2371749091812134,1849,70,610,928,243.13266906251042,140.35281592650483,0.0018969455379534796,False
0.19,0.7896888444296293,1.6,2569.0,66.42636,0.3,68900.0,0.33,276.0,2700.0,26.32324565662861,2.4863428813724053,6713.125779705494,15.775313316350692,5.197395669774575,10.547932340277919,2.7110527884021693,2727,90,898,1374,281.77503088144755,162.35431606055755,0.00271215966452936,True
0.2,0.525688550175078,1.6,2570.0,66.42636,0.3,68900.0,0.33,276.0,2700.0,13.364626233020871,1.3197074624829421,3563.2101487039436,8.757494783217021,1.9975978537633055,4.60713144980385,0.6778903912803633,1353,58,444,681,204.33104881993597,116.60565096580915,0.005521818851777375,False
0.21000000000000002,0.5351973092505449,1.6,2571.0,66.42636,0.2,68900.0,0.33,276.0,2700.0,13.578028097435567,1.406296757187346,3797.001244405834,8.979853133645731,2.0819261370995226,4.598174963789836,0.6756293799121766,3035,88,996,1535,178.27917885178363,102.80504456599516,0.0013989165797628864,False
0.22,0.5399962467197506,1.6,2572.0,66.42636,0.3,68900.0,0.33,276.0,2700.0,13.596656416923366,1.473331086811287,3977.993934390475,9.092937106319326,2.1252910007576853,4.5037193106040405,0.6519599139463983,1495,60,492,751,174.68122023487237,100.28990431761031,0.0013571943097333988,False
0.23,0.7171223835846304,1.6,2573.0,66.42636,0.3,68900.0,0.33,276.0,2700.0,21.550678980450876,2.4528455775410314,6622.683059360785,13.671738983031414,4.1297618110394305,7.878939997419462,1.6769162334983991,2259,80,744,1137,311.08567036801935,160.90336104914712,0.0019146159951032341,True
0.24000000000000005,0.680437670831461,1.6,2574.0,66.42636,0.3,68900.0,0.33,276.0,2700.0,19.5241317538876,2.31394289257103,6247.6458099417805,12.658677650622208,3.646903324039967,6.865454103265391,1.332960431468937,2073,76,682,1044,200.82689080513373,115.71762834342236,0.0017151639075997952,False
0.25,0.5709370934046261,1.6,2575.0,66.42636,0.3,68900.0,0.33,276.0,2700.0,14.35669052812362,1.7618613925405595,4757.025759859511,9.835935022100886,2.418066628349664,4.520755506022734,0.6562052358091044,1484,60,490,743,160.40470965974697,92.35141748073693,0.0013053476430059886,False
0.26,0.9551671900053933,1.6,2576.0,66.42636,0.3,68900.0,0.33,276.0,2700.0,34.12861999973563,4.399909511645967,11879.755681444112,21.067245293149618,8.236228144807034,13.061374706586015,3.836318633161067,3205,100,1052,1621,244.92808636804602,139.74205907117621,0.0028031723430291065,False
0.27,0.7388604755688495,1.6,2577.0,66.42636,0.3,68900.0,0.33,276.0,2700.0,21.76397006806919,2.896911980388936,7821.662347050127,14.288003384932951,4.433636022679375,7.475966683136241,1.5367240422904387,2222,78,732,1118,581.9756885824613,304.75056715454855,0.001725387085010447,True
0.28,0.7202025207945133,1.6,2578.0,66.42636,0.3,68900.0,0.33,276.0,2700.0,20.61882504769529,2.840659345389604,7669.780232551931,13.758337206808877,4.1720059490081365,6.860487840886412,1.3313466036185324,2189,78,722,1100,184.38812403975479,106.06417475309739,0.00161291868903098,False
0.29000000000000004,0.9249660138921827,1.6,2579.0,66.42636,0.3,68900.0,0.33,276.0,2700.0,31.49999037647057,4.516418402435969,12194.329686577115,20.05008335868129,7.615389996785376,11.449907017789279,3.0989715943494076,3030,98,1002,1521,732.0175894041071,401.2454844943229,0.0023187194469577385,True
0.3,0.9498738738738998,1.6,2580.0,66.42636,0.3,68900.0,0.33,276.0,2700.0,32.72778810151799,4.85261954746299,13102.072778150074,20.88731198763482,8.125189088014187,11.840476113883167,3.2725695405511965,3104,98,1020,1568,213.35248117957047,121.50487149872028,0.002349387997670883,False
0.31,0.9109401507666499,1.6,2581.0,66.42636,0.3,68900.0,0.33,276.0,2700.0,30.164884830788388,4.613163024276801,12455.540165547363,19.585493841585293,7.337434185358753,10.579390989203095,2.724271161081952,3088,96,1022,1549,201.21757574684185,114.91431526151385,0.002079476659282571,False
0.32,0.8510102307194911,1.6,2582.0,66.42636,0.3,68900.0,0.33,276.0,2700.0,26.53774499293869,4.177410060154973,11279.007162418426,17.65608494551851,6.2219425718098895,8.88166004742018,2.044532511654917,2669,88,884,1337,186.61920614267368,106.7397974685066,0.0018112946231192458,False
0.33,0.9441963633599402,1.6,2583.0,66.42636,0.3,68900.0,0.33,276.0,2700.0,31.61017908529805,5.140413272279477,13879.115835154587,20.69510165724726,8.007147175976156,10.91507742805079,2.8667339036966792,3017,96,1000,1511,196.36201332038928,112.1148872951354,0.0020759252050594214,False
0.34,0.9171446933292,1.6,2584.0,66.42636,0.3,68900.0,0.33,276.0,2700.0,29.77830092903252,4.979993052831028,13445.981242643775,19.79040188850412,7.459588395605992,9.987899040528397,2.4795953427749637,3070,96,1014,1543,186.43213903931496,106.12125928781833,0.0019076397969509996,False
0.3500000000000001,0.9164831908384705,1.6,2585.0,66.42636,0.3,68900.0,0.33,276.0,2700.0,29.496008158267248,5.072004237681657,13694.411441740474,19.768509368281745,7.446504237048536,9.727498789985503,2.374499999366879,2858,92,952,1424,180.6231917355288,103.13042867805291,0.001855225892317429,False
0.36000000000000004,0.7709328585788435,1.6,2586.0,66.42636,0.3,68900.0,0.33,276.0,2700.0,21.472105449290165,3.7672628829749755,10171.609784032435,15.218927364390408,4.906745718996311,6.253178084899757,1.1394828360213358,2251,80,750,1120,152.3340333147777,87.09972809679394,0.0014156133941976567,False
0.37,1.0643731224694302,1.6,2587.0,66.42636,0.3,68900.0,0.33,276.0,2700.0,37.97608939169984,6.91948914234295,18682.620684325964,24.936563115920208,10.745444837487923,13.039526275779629,3.825955695144973,3653,108,1214,1826,191.57283035738524,108.62516096123926,0.0022998726250381784,False
0.38,0.8960322440837287,1.6,2588.0,66.42636,0.3,68900.0,0.33,276.0,2700.0,27.631119802998416,5.13498911451118,13864.470609180185,19.097108115922456,7.049102814428504,8.53401168707596,1.9141136999173236,2570,88,854,1283,167.9586919519832,95.81823182244018,0.001663884687179373,False
0.39,1.0278441583203537,1.6,2589.0,66.42636,0.2,68900.0,0.33,276.0,2700.0,35.13380587613827,6.726854722768104,18162.50775147388,23.60892981331763,9.858888639139458,11.524876062820638,3.1320339163713538,9531,152,2410,5332,185.4881059030291,105.86405044713533,0.0020182050944589354,False
0.4,0.906782744669468,1.6,2590.0,66.42636,0.3,68900.0,0.33,276.0,2700.0,27.770875913293626,5.420133896105554,14634.361519484995,19.448734820284493,7.2562937657362925,8.322141093009133,1.8361598696307384,2601,88,864,1299,157.86418258789314,89.97932599242075,0.0016120774147493691,False
0.4100000000000001,0.9760347361668753,1.6,2591.0,66.42636,0.3,68900.0,0.33,276.0,2700.0,31.50005470042475,6.313163408735036,17045.5412035846,21.7834465139665,8.683303507986514,9.716608186458252,2.3701400992514774,3039,96,1016,1509,163.9194836517881,93.22420428876717,0.0017604789329559733,False
0.42000000000000004,1.1166201216121747,1.6,2592.0,66.42636,0.3,68900.0,0.33,276.0,2700.0,39.99514212468971,8.243810301838732,22258.287814964577,26.89374959649506,12.099135284294105,13.101392528194648,3.8553249824553735,3779,110,1256,1889,177.0779013161787,100.25852059466644,0.0021690354913878195,False
0.43,0.9447950818799298,1.6,2593.0,66.42636,0.3,68900.0,0.33,276.0,2700.0,29.220881348781266,6.115970418581999,16513.1201301714,20.715332872779523,8.019543772563631,8.505548476001742,1.9035733539816322,2649,90,886,1314,151.9879738352302,86.26045253441819,0.001600927115780169,False
0.44,1.052762025421688,1.6,2594.0,66.42636,0.3,68900.0,0.33,276.0,2700.0,35.389468500736456,7.607274117759753,20539.640117951334,24.510925826301307,10.458378319574368,10.878542674435149,2.851104201814615,3536,104,1180,1760,162.9171425475852,92.37603508708628,0.0018460544698183097,False
0.45,0.859934454069383,1.6,2595.0,66.42636,0.3,68900.0,0.33,276.0,2700.0,24.17051724657027,5.247514626772733,14168.28949228638,17.937675083417542,6.38076441541802,6.232842163152728,1.133249788645287,2743,84,856,1411,139.6809537956578,80.48095259258116,0.0013787498347043272,False
0.46,0.9302677503211763,1.6,2596.0,66.42636,0.3,68900.0,0.33,276.0,2700.0,27.733706561904842,6.174892467551571,16672.20966238924,20.22698455071145,7.722158883765685,7.506722011193393,1.5472664162141143,2672,88,874,1343,142.3559891647151,80.66206279318138,0.001488143136726417,False
0.4700000000000001,0.8069397486999251,1.6,2597.0,66.42636,0.2,68900.0,0.33,276.0,2700.0,21.108785157064737,4.743118129194177,12806.418948824277,16.294857474117634,5.474004640771345,4.813927682947103,0.7308865115771681,5693,110,1422,3196,138.90888084749446,79.86920754102326,0.0012286589426471854,False
0.4800000000000001,0.8373809668866811,1.6,2598.0,66.42636,0.1,68900.0,0.33,276.0,2700.0,22.427673957762295,5.151018406699086,13907.749698087531,17.229897238211997,5.98421274662607,5.197776719550298,0.8331943399269841,39011,224,5852,25103,143.55319437358406,81.58845372435206,0.0012768190456069254,False
0.49,0.9648681227471017,1.6,2599.0,66.42636,0.3,68900.0,0.33,276.0,2700.0,29.006440891470863,6.860174529008903,18522.471228324037,21.398832601862335,8.442206515489529,7.607608289608528,1.5820319864806258,3207,92,966,1674,150.8728876961223,86.70278676246917,0.0014889341856162014,False
0.5,0.9474751427929673,1.6,2600.0,66.42636,0.3,68900.0,0.33,276.0,2700.0,27.820730353547248,6.693383200587661,18072.134641586686,20.80600486896521,8.075183589415566,7.014725484582037,1.3818003888279051,3085,88,886,1648,147.02245013241722,83.70720486164592,0.0014369839374290723,False
0.01,0.42178724892088487,1.6,2601.0,69.44574,0.05,68900.0,0.33,276.0,2700.0,12.746482142421732,0.06373031631700492,172.07185405591326,6.4758815840410895,1.2085632487914306,6.270600558380642,1.1448329324744257,40392,328,13390,20301,2945.949814425977,1675.2427580802125,0.019147240156348905,True
0.02,0.40524883158940567,1.6,2602.0,69.44574,0.08,68900.0,0.33,276.0,2700.0,11.875740582470865,0.11874065066389129,320.59975679250647,6.137738122203207,1.1042680695645233,5.738002460267658,0.985527418900632,14696,198,4840,7430,1458.4351701127584,831.2256313103461,0.008977846282054511,True
0.03,0.528584253257214,1.6,2603.0,69.44574,0.1,68900.0,0.33,276.0,2700.0,16.96111159827137,0.2543601253063065,686.7723383270275,8.824968948551867,2.0230546001196386,8.136142649719503,1.7686944748133322,13458,198,4432,6804,1287.5418579267705,734.0895093454282,0.00926663958153156,True
0.04,0.5393578545723409,1.6,2604.0,69.44574,0.1,68900.0,0.33,276.0,2700.0,17.23148150963983,0.34449558890569515,930.1380900453769,9.07786041593032,2.1194909540775497,8.15362109370951,1.7749953651718546,13426,198,4416,6796,1022.6609380679263,583.6445272597475,0.007177625995553195,True
0.05,0.4841808105041436,1.6,2605.0,69.44574,0.1,68900.0,0.33,276.0,2700.0,14.547249463797073,0.3634194372071266,981.2324804592419,7.813463956375565,1.653836110287726,6.733785507421508,1.2904166730805993,11577,180,3798,5874,731.0772819978126,418.0527026807451,0.004786273879633846,True
0.06000000000000001,0.5830452865876455,1.6,2606.0,69.44574,0.2,68900.0,0.33,276.0,2700.0,18.829332064272627,0.5644275725860608,1523.9544459823642,10.133245249148022,2.538958256674206,8.696086815124605,1.9745306840881451,4048,108,1328,2050,660.2440849993391,381.1900677641117,0.005456066008160092,True
0.06999999999999999,0.4013934512096376,1.6,2607.0,69.44574,0.1,68900.0,0.33,276.0,2700.0,10.771488807848252,0.3762837307545689,1015.9660730373361,6.059899294026394,1.0807549235993394,4.711589513821858,0.7044711928447706,8816,152,2896,4466,393.86536929212247,226.57084313201918,0.0027413193144814507,True
0.08,0.42227559545945664,1.6,2608.0,69.44574,0.2,68900.0,0.33,276.0,2700.0,11.399083143514224,0.4548909954481431,1228.2056877099865,6.485970776166074,1.2117281864143057,4.91311236734815,0.7568371909661626,2568,80,842,1299,388.19735636522705,224.1147387581429,0.0025902809560476425,True
0.09,0.6330581295182556,1.6,2609.0,69.44574,0.2,68900.0,0.33,276.0,2700.0,20.56571668866459,0.9239304369602624,2494.6121797927085,11.400325762297417,3.077173807863582,9.165390926367174,2.1532433709033194,4257,112,1398,2154,502.19524355327695,287.8189235546756,0.0041544870528622425,True
0.09999999999999999,0.5570059863976602,1.6,2610.0,69.44574,0.2,68900.0,0.33,276.0,2700.0,16.71729062105554,0.8337701359503837,2251.1793670660363,9.49842264797931,2.2833977881382044,7.218867973076229,1.4496276521878206,3715,100,1218,1882,389.9692071647754,225.07170597982437,0.003053270035133052,True
0.11,0.7885761295698748,1.6,2611.0,69.44574,0.3,68900.0,0.33,276.0,2700.0,28.35023077804889,1.556475052911401,4202.482642860783,15.742058543038688,5.179860748655827,12.608172235010201,3.6233856957444255,2874,94,940,1458,496.8949101082264,286.80920763655735,0.0050235413281270016,True
0.12,0.5782930195429438,1.6,2612.0,69.44574,0.2,68900.0,0.33,276.0,2700.0,17.262726658629916,1.0321444847808594,2786.7901089083202,10.01611657925363,2.4910809073615536,7.2466100793762855,1.4589364225806942,3767,102,1236,1907,339.74765122299664,196.05101029436267,0.002712243114112434,True
0.13,0.5697011903444142,1.6,2613.0,69.44574,0.2,68900.0,0.33,276.0,2700.0,16.655699934571604,1.0780191097071545,2910.651596209317,9.805795326191328,2.405928994980799,6.849904608380276,1.3279098852736444,3559,98,1166,1804,310.5193159009362,179.07617202584615,0.002465060683739688,True
0.14,0.5881119634785996,1.6,2614.0,69.44574,0.3,68900.0,0.33,276.0,2700.0,17.287042780327535,1.204345974461961,3251.7341310472943,10.258748317960658,2.5906178055445226,7.028294462366878,1.3862718310825617,1955,72,638,992,307.0649589000065,177.27860929300053,0.0024045567693168446,True
0.15000000000000002,0.7460251276588297,1.6,2615.0,69.44574,0.3,68900.0,0.33,276.0,2700.0,24.9497704511363,1.8641642003646457,5033.2433409845435,14.493720029285978,4.536740769814151,10.456050421850321,2.6725765694495056,2581,86,844,1309,353.5081289746609,203.83870446082378,0.0032697381736921994,True
0.16,0.47127329517644667,1.6,2616.0,69.44574,0.2,68900.0,0.33,276.0,2700.0,11.875557704458224,0.9414659740172558,2541.958129846591,7.528728209738303,1.5548258238928525,4.346829494719921,0.6133598498755967,2571,80,844,1299,215.5698251186609,124.28568344789922,0.0015790207360951674,False
0.17,0.7406566158072123,1.6,2617.0,69.44574,0.3,68900.0,0.33,276.0,2700.0,24.16854599212271,2.0440366461923727,5518.898944719406,14.339454282936064,4.459345474862915,9.829091709186645,2.4153088286705424,2405,82,792,1211,312.05336281329585,179.6602183136321,0.002823158814059174,True
0.18000000000000002,0.5149495087219613,1.6,2618.0,69.44574,0.3,68900.0,0.33,276.0,2700.0,13.286214846255076,1.1835448239257997,3195.5710245996593,8.509099250779602,1.9048871131322853,4.777115595475474,0.7213422892064856,1384,60,452,700,214.3288716338091,123.51456180329515,0.001598866803458367,False
0.19,0.7530077787015891,1.6,2619.0,69.44574,0.3,68900.0,0.33,276.0,2700.0,24.33868382545725,2.297809507411126,6204.08567001004,14.69545230613605,4.638648959087342,9.6432315193212,2.340839451676216,2436,82,800,1230,284.7821701259136,164.15706546729385,0.0025849552400681913,True
0.2,0.6533409896571614,1.6,2620.0,69.44574,0.2,68900.0,0.33,276.0,2700.0,19.072207945745905,1.8904656337554437,5104.2572111396985,11.93211121245132,3.3137806096252924,7.140096733294586,1.4233149758698487,4131,108,1356,2091,237.20921014239994,136.8260189667818,0.0019973736384550043,False
0.21000000000000002,0.707678757303144,1.6,2621.0,69.44574,0.3,68900.0,0.33,276.0,2700.0,21.523420478432815,2.2405629571921812,6049.519984418889,13.407717142213851,4.001899443167253,8.115703336218964,1.7613364859750718,2193,78,724,1101,248.1037716589893,142.74129274478952,0.002133146738124277,False
0.22,0.5242358975152707,1.6,2622.0,69.44574,0.3,68900.0,0.33,276.0,2700.0,12.945374785000388,1.4016901072997594,3784.5632897093506,8.723725204752492,1.9849007898273376,4.221649580247895,0.5832106825275782,1371,58,448,693,185.07649152734285,106.5752168679365,0.001367407283609741,False
0.23,0.5932905090489986,1.6,2623.0,69.44574,0.2,68900.0,0.33,276.0,2700.0,15.698393179655046,1.779832710449512,4805.548318213682,10.38768911989782,2.6440767732549197,5.310704059757226,0.8642440628054078,3278,94,1084,1646,191.12380123565666,110.14370455193873,0.0015499514038579563,False
0.24000000000000005,0.5519366439942835,1.6,2624.0,69.44574,0.3,68900.0,0.33,276.0,2700.0,13.735510038289114,1.6193082866989685,4372.132374087215,9.37681682620785,2.2355555350615357,4.358693212081263,0.6162472483625672,1460,60,482,731,177.62935675754167,102.10303990405109,0.001353311529451013,False
0.25,0.922584479898859,1.6,2625.0,69.44574,0.3,68900.0,0.33,276.0,2700.0,32.41705375747899,4.019406796209983,10852.398349766954,19.970849482842908,7.56773441907181,12.44620427463608,3.5483276228618266,3191,100,1052,1607,261.7600850037587,149.3916614419336,0.0028556981341992366,False
0.26,0.9493511225351595,1.6,2626.0,69.44574,0.3,68900.0,0.33,276.0,2700.0,33.77129566756666,4.353457348463828,11754.334840852336,20.869580543634257,8.11427485257728,12.901715123932405,3.7608175041134517,3188,100,1050,1607,254.85524730719578,145.5079751841111,0.002898059910940421,False
0.27,0.8671285623414635,1.6,2627.0,69.44574,0.3,68900.0,0.33,276.0,2700.0,28.6498190888398,3.8265015981929684,10331.554315121015,18.166131260740705,6.510630981543774,10.483687828099093,2.6841293833508058,2974,94,980,1498,229.01746391732158,131.15525813982762,0.0023106347587624055,False
0.28,0.699758786940322,1.6,2628.0,69.44574,0.3,68900.0,0.33,276.0,2700.0,19.622059207004696,2.7011121276929213,7293.002744770887,13.18802129628471,3.8965817535314438,6.4340379107199865,1.1954696258385225,2071,74,684,1039,186.46036487090007,107.21457170574438,0.0016273546085218674,False
0.29000000000000004,0.6583956379696765,1.6,2629.0,69.44574,0.2,68900.0,0.33,276.0,2700.0,17.475211965250313,2.4828255328089748,6703.628938584232,12.066245732862269,3.3744319663661058,5.408966232388044,0.891606433557131,3646,100,1218,1813,172.04085599696725,98.5549092049054,0.001454893168969694,False
0.3,0.7234031811429967,1.6,2630.0,69.44574,0.3,68900.0,0.33,276.0,2700.0,20.357866047342487,2.997131239336759,8092.254346209249,13.84857656310297,4.216186057460151,6.509289484239517,1.219054818123392,2116,76,702,1057,182.1896665466515,104.6464779988664,0.0015950519458484886,False
0.31,0.803306448075765,1.6,2631.0,69.44574,0.3,68900.0,0.33,276.0,2700.0,24.202111234992213,3.688933116928398,9960.119415706675,16.18481189411829,5.415000539730009,8.017299340873922,1.726067422801611,2483,84,818,1250,191.81658918423076,109.81395041525549,0.001787906879251702,False
0.32,0.7715811893698117,1.6,2632.0,69.44574,0.3,68900.0,0.33,276.0,2700.0,22.34040578114367,3.505835786267733,9465.75662292288,15.238012212855294,4.916618804289581,7.102393568288376,1.4107830180218484,2342,82,778,1169,176.6377461262369,101.63281748337083,0.0016479287457621767,False
0.33,0.8893168890932777,1.6,2633.0,69.44574,0.3,68900.0,0.33,276.0,2700.0,28.43300861720076,4.616180145043216,12463.686391616682,18.87893660498909,6.92159213796957,9.55407201221167,2.305411992926355,2706,90,896,1356,196.9250198484446,112.39682605534088,0.001956582718298772,False
0.34,0.9486939858642054,1.6,2634.0,69.44574,0.3,68900.0,0.33,276.0,2700.0,31.622505411872943,5.293507814913935,14292.471100267625,20.847300564813654,8.100568006984332,10.775204847059289,2.807060192070397,3008,96,996,1508,200.45601498468503,114.41637486658053,0.002114805708061381,False
0.3500000000000001,0.999280804551946,1.6,2635.0,69.44574,0.3,68900.0,0.33,276.0,2700.0,34.418999794527124,5.933527774026231,16020.524989870824,22.594168111378906,9.19907973099064,11.824831683148219,3.2655519569644085,3337,102,1102,1678,201.47681848728206,114.3944554587322,0.0022716501564501524,False
0.36000000000000004,0.8312262108229664,1.6,2636.0,69.44574,0.3,68900.0,0.33,276.0,2700.0,24.566665095832338,4.324283619352564,11675.565772251923,17.03896788721892,5.878754982217364,7.527697208613418,1.5544713628648,2533,84,840,1267,172.609828456301,98.25065509226927,0.0016487738692407428,False
0.37,1.0638096289487673,1.6,2637.0,69.44574,0.3,68900.0,0.33,276.0,2700.0,37.939860057515396,6.912786715518826,18664.52413190083,24.915828453512795,10.731399088043196,13.024031604002602,3.8186123725243695,3660,108,1218,1827,200.18754447641217,113.51522631772636,0.0024019709318391013,False
0.38,0.7058177018325043,1.6,2638.0,69.44574,0.3,68900.0,0.33,276.0,2700.0,17.965437933702365,3.2985095593445295,8905.97581023023,13.35595073628964,3.9769951214077865,4.609487197412724,0.678485562063257,1842,68,614,915,142.89873364435576,81.8874423207897,0.0012614294326383439,False
0.39,0.7842705185627177,1.6,2639.0,69.44574,0.3,68900.0,0.33,276.0,2700.0,21.530745882085597,4.074258023927829,11000.496664605138,15.613673530948974,5.112358123249999,5.917072351136623,1.03810009932217,2351,80,764,1187,153.3300775427557,87.7584168332677,0.0014214058958595325,False
0.4,1.0562895916627357,1.6,2640.0,69.44574,0.3,68900.0,0.33,276.0,2700.0,36.65016014684831,7.1959907428165,19429.17500560455,24.63988031654251,10.545069589873561,12.010279830305798,3.3490788470570614,3583,106,1194,1786,186.43549441594539,105.3508879290718,0.002152560409396215,False
0.4100000000000001,0.9945484889948298,1.6,2641.0,69.44574,0.3,68900.0,0.33,276.0,2700.0,32.59843728311904,6.538331838187363,17653.49596310588,22.428024583908112,9.092550341498924,10.170412699210928,2.554218503311561,3234,100,1074,1617,172.66004745238402,98.22780871277764,0.00189113635082811,False
0.42000000000000004,1.056757038547523,1.6,2642.0,69.44574,0.3,68900.0,0.33,276.0,2700.0,36.15352649995179,7.437071020643769,20080.091755738176,24.656991875204493,10.556591424327527,11.496534624747294,3.119520403683758,3518,106,1170,1755,175.35530382203925,99.86388570031404,0.002026297056510718,False
0.43,0.883746611103067,1.6,2643.0,69.44574,0.2,68900.0,0.33,276.0,2700.0,25.847624931145774,5.390720288790367,14554.94477973399,18.69882684899634,6.816933205608159,7.148798082149433,1.426212916817792,6814,124,1704,3826,163.81443128556913,93.90655754842638,0.0015630118177990657,False
0.44,0.815213722576644,1.6,2644.0,69.44574,0.3,68900.0,0.33,276.0,2700.0,22.087918515918588,4.680933121099831,12638.519426969544,16.546698028452717,5.6098685406028705,5.541220487465871,0.9289354195030395,2276,78,760,1126,146.48674205510477,84.53731775461448,0.0013456370189005244,False
0.45,0.7516735079308887,1.6,2645.0,69.44574,0.08,68900.0,0.33,276.0,2700.0,18.83318923668662,4.046615824548911,10925.86272628206,14.656809850968845,4.619067031337233,4.176379385717777,0.5724512067883216,59292,250,7748,38972,435.36140032386885,237.11113509721892,0.0012235834535590329,True
0.46,1.053861314442623,1.6,2646.0,69.44574,0.3,68900.0,0.33,276.0,2700.0,34.95302099881923,7.835334788041881,21155.40392771308,24.55107813402649,10.485344977941448,10.401942864792737,2.650010189899567,3650,104,1174,1851,168.31467174156228,96.33989787340604,0.00185156382211775,False
0.4700000000000001,1.1067476807030825,1.6,2647.0,69.44574,0.3,68900.0,0.33,276.0,2700.0,38.01495910813155,8.716069007694479,23533.386320775095,26.518668315388922,11.83548182973757,11.496290792742627,3.119412822043092,3761,108,1220,1899,173.31905521692119,98.70393398882602,0.0019477993390344757,False
0.4800000000000001,0.9032133253921395,1.6,2648.0,69.44574,0.3,68900.0,0.33,276.0,2700.0,25.837025362079668,5.969262743735252,16117.00940808518,19.331664371761217,7.187082108753983,6.505360990318451,1.2178193650187312,2777,84,818,1466,154.27579406900833,88.44509080728301,0.0014487100485690713,False
0.49,0.9438652847479772,1.6,2649.0,69.44574,0.3,68900.0,0.33,276.0,2700.0,27.835262732236274,6.5732358799964254,17747.736875990347,20.68391809358237,8.000297321840431,7.151344638653903,1.427061441844006,2981,88,880,1573,154.99103868137456,88.44493335167836,0.0015170831907520466,False
0.5,1.1703869682002748,1.6,2650.0,69.44574,0.3,68900.0,0.33,276.0,2700.0,41.36652531973866,10.079831942135518,27215.5462437659,28.979498658256702,13.600873929475,12.387026661481961,3.5210419873394816,4665,114,1354,2478,172.0728587887791,97.95065988603507,0.002017877548042648,False
0.01,0.5365197275760508,1.6,2651.0,72.46512,0.05,68900.0,0.33,276.0,2700.0,17.787798207554406,0.08893689664267075,240.12962093521102,9.01095732509028,2.093821820976518,8.776840882464127,2.0048849243338474,55638,402,18450,27957,4104.430440989117,2337.968112032847,0.029948960273278268,True
0.02,0.372027645563207,1.6,2652.0,72.46512,0.08,68900.0,0.33,276.0,2700.0,10.575508983334428,0.10573833467252425,285.4935036158155,5.4792729279179095,0.9113794168665248,5.096236055416519,0.8056410821940005,13262,186,4374,6695,1341.4103478863574,765.5517084121457,0.0083087800269086,True
0.03,0.727214436438822,1.6,2653.0,72.46512,0.1,68900.0,0.33,276.0,2700.0,27.074143766956194,0.40605560783657624,1096.3501411587558,13.956366847806024,4.2691718104247665,13.11777691915017,3.8631162025881904,20926,258,6904,10564,1977.5885689727754,1125.7328164102814,0.017039310837718764,True
0.04,0.530918439089006,1.6,2654.0,72.46512,0.1,68900.0,0.33,276.0,2700.0,16.843269574992632,0.3367313502132993,909.1746455759081,8.879512335698157,2.0437173481703512,7.963757239294475,1.7069859979570519,13269,196,4362,6720,1049.0135067007543,598.5511401676989,0.007285410965124823,True
0.05,0.5692377121487204,1.6,2655.0,72.46512,0.1,68900.0,0.33,276.0,2700.0,18.40244086219996,0.4597992221671923,1241.4578998514194,9.794502483045742,2.4013868398574627,8.607938379154218,1.9415876176902704,14525,206,4756,7385,905.8773287576615,517.3129230825285,0.006557931444698397,True
0.06000000000000001,0.6949414446949085,1.6,2656.0,72.46512,0.2,68900.0,0.33,276.0,2700.0,24.504429750973376,0.7346805031870853,1983.6373586051304,13.055161808084327,3.8333707903630114,11.44926794288905,3.098690287175926,4767,122,1574,2400,823.8542268218517,470.078124492471,0.007769196483021909,True
0.06999999999999999,0.6470768455159637,1.6,2657.0,72.46512,0.2,68900.0,0.33,276.0,2700.0,21.753004321827724,0.7606367737437149,2053.71928910803,11.766771452081272,3.239554515933628,9.986232869746452,2.478917742189913,4568,118,1506,2303,722.678886566536,413.8642333824473,0.005834355643436557,True
0.08,0.5622988385988288,1.6,2658.0,72.46512,0.2,68900.0,0.33,276.0,2700.0,17.39776683608388,0.6948383431509297,1876.0635265075102,9.626079339884011,2.3340090588121503,7.771687496199867,1.6391707156612205,3881,102,1274,1964,625.8639301807223,361.28430514994926,0.007892961237875175,True
0.09,0.5552579134358056,1.6,2659.0,72.46512,0.2,68900.0,0.33,276.0,2700.0,16.853877258095817,0.7568976625846598,2043.6236889785816,9.456416075587782,2.266830578791322,7.397461182508035,1.5099329162066621,3674,100,1210,1853,451.25401154450714,260.47472345190243,0.003499916686215953,True
0.09999999999999999,0.6497569318010291,1.6,2660.0,72.46512,0.3,68900.0,0.33,276.0,2700.0,21.162118029800244,1.056011506387618,2851.2310672465687,11.837390627828754,3.2711850711454566,9.32472740197149,2.2151735647578388,2158,78,712,1084,470.7918319947517,271.7990779624982,0.004058352765704332,True
0.11,0.7940962820126294,1.6,2661.0,72.46512,0.3,68900.0,0.33,276.0,2700.0,28.665533536999565,1.5738167046536886,4249.305102564959,15.907340433472804,5.26721514989244,12.75819310352676,3.6933984452387514,2935,94,964,1483,529.7740406110074,305.7533846749675,0.005307559180678064,True
0.12,0.46862081366087205,1.6,2662.0,72.46512,0.2,68900.0,0.33,276.0,2700.0,12.502724970303568,0.7465443834812777,2015.6698353994498,7.470733944865445,1.5349329649240329,5.031991025438123,0.7883885814427551,2606,82,858,1313,301.2983011999412,173.9412991997518,0.0021287142524478915,True
0.13,0.7728695704261173,1.6,2663.0,72.46512,0.3,68900.0,0.33,276.0,2700.0,26.932245125617307,1.745994547125166,4714.185277237949,15.275969512673564,4.936275617813553,11.656275612943743,3.1902810706883873,2784,92,916,1404,432.7074527898689,249.55902276572053,0.00423520289149174,True
0.14,0.613421566232339,1.6,2664.0,72.46512,0.3,68900.0,0.33,276.0,2700.0,18.471163693808144,1.2872344384056038,3475.5329836951305,10.89533575346374,2.8582845819284097,7.5758279403444035,1.571050143522806,1939,72,638,976,332.08146533555936,191.50543914961239,0.0026641179213073023,True
0.15000000000000002,0.5760764678227432,1.6,2665.0,72.46512,0.3,68900.0,0.33,276.0,2700.0,16.526380848485168,1.2324099801658095,3327.5069464476856,9.961679551223325,2.4689400209804058,6.564701297261843,1.2365300408145963,1850,70,608,932,296.98306854597604,170.83175235827534,0.002282776382584629,True
0.16,0.7456489349670987,1.6,2666.0,72.46512,0.2,68900.0,0.33,276.0,2700.0,24.68054421732927,1.965864895046942,5307.835216626743,14.482886422519627,4.531290376136488,10.197657794809643,2.5654254810895463,4977,124,1648,2499,337.0414569924538,194.47854296699865,0.003173442613487757,True
0.17,0.7588806629257456,1.6,2667.0,72.46512,0.3,68900.0,0.33,276.0,2700.0,25.143917210995745,2.126943199796578,5742.746639450761,14.866071614504035,4.72545423858383,10.27784559649171,2.598511038787252,2614,86,856,1324,329.47538868548116,189.98432520452639,0.0030854420518215864,True
0.18000000000000002,0.7523726604981236,1.6,2668.0,72.46512,0.3,68900.0,0.33,276.0,2700.0,24.548044837285353,2.1971095231185225,5932.195712420011,14.67705276347147,4.6293214532983615,9.870992073813882,2.432211930179839,2422,82,798,1219,310.3378274619952,178.65952615432047,0.00285540038374656,True
0.19,0.8298443425054394,1.6,2669.0,72.46512,0.2,68900.0,0.33,276.0,2700.0,28.573330105371944,2.7001009040030177,7290.272440808148,16.996231226217073,5.855238906076178,11.577098879154871,3.15513800207316,5854,138,1932,2950,316.87336706855666,182.44192136736882,0.003254223997284145,True
0.2,0.6868190326900803,1.6,2670.0,72.46512,0.3,68900.0,0.33,276.0,2700.0,20.70464887298462,2.053709726479317,5545.016261494156,12.832471175309706,3.7282369022146944,7.872177697674914,1.6745271757353772,2210,78,728,1112,263.4515024705018,151.85541970011303,0.0022320302945715415,False
0.21000000000000002,0.749473806108571,1.6,2671.0,72.46512,0.3,68900.0,0.33,276.0,2700.0,23.673798962135827,2.466352697980998,6659.152284548694,14.593200919423547,4.586896402632061,9.08059804271228,2.1205437046510633,2407,82,794,1210,274.5602405758953,158.02785729252224,0.002421252166072897,False
0.22,0.5955681726576727,1.6,2672.0,72.46512,0.3,68900.0,0.33,276.0,2700.0,15.992742067881231,1.7369005084166538,4689.631372724965,10.444614163557985,2.66780123804444,5.5481279043232465,0.9309007296277862,1688,66,558,845,215.3594152402812,123.79368739666491,0.0016869205640863778,False
0.23,0.7060898234059797,1.6,2673.0,72.46512,0.3,68900.0,0.33,276.0,2700.0,20.998004129260007,2.3892879696540064,6451.0775180658175,13.36351453222902,3.9806305928311962,7.634489597030987,1.5913426231771899,2138,76,706,1073,234.10854156783645,134.74462597953826,0.00204288584129659,False
0.24000000000000005,0.8644991519412226,1.6,2674.0,72.46512,0.3,68900.0,0.33,276.0,2700.0,29.261505453133896,3.4824277364805867,9402.554888497583,18.08248084923411,6.462974780780101,11.179024603899787,2.9805470442995143,3081,96,1014,1554,269.13812767621306,154.18444839549753,0.002743394532654755,False
0.25,0.6385578353432236,1.6,2675.0,72.46512,0.3,68900.0,0.33,276.0,2700.0,17.34694267380613,2.1356429107508728,5766.235859027356,11.543497921046729,3.14026559984367,5.8034447527594,1.0046226890927974,1922,72,630,971,199.1132965484435,114.73099849412385,0.0016589618389111426,False
0.26,0.6828191657343843,1.6,2676.0,72.46512,0.3,68900.0,0.33,276.0,2700.0,19.22062482594289,2.4618701390524773,6647.049375441688,12.72341689189264,3.6771269601415075,6.497207934050248,1.2152568210890302,1988,74,660,992,205.38405155039814,118.21871141173409,0.0017537991319204974,False
0.27,0.5924410407728242,1.6,2677.0,72.46512,0.3,68900.0,0.33,276.0,2700.0,14.914526105769523,1.9722370454784794,5325.040022791894,10.366491965429315,2.635261765323745,4.548034140340208,0.6630247198452657,1632,64,540,816,176.57000179724326,101.6166714218336,0.0014018113521360718,False
0.28,0.8267766680217223,1.6,2678.0,72.46512,0.2,68900.0,0.33,276.0,2700.0,26.15522976387886,3.6157560056553035,9762.541215269319,16.901529629851247,5.803245318522074,9.253700134027614,2.1874893128667705,5305,128,1758,2662,223.11663687790173,127.87404103033286,0.0021408830983102966,False
0.29000000000000004,0.9598194075862057,1.6,2679.0,72.46512,0.3,68900.0,0.33,276.0,2700.0,33.59772978653213,4.820590616894892,13015.594665616209,21.22596745578697,8.334606547875264,12.371762330745156,3.5140159309803725,3524,104,1164,1772,242.15886121176692,138.02197711950754,0.0027284944393509533,False
0.3,0.957067219222886,1.6,2680.0,72.46512,0.3,68900.0,0.33,276.0,2700.0,33.16293534057792,4.917891633322074,13278.307409969599,21.132003880248575,8.276318033633773,12.030931460329342,3.358426400311699,3457,102,1142,1738,233.90834743210982,133.2323722808734,0.0026083646335203978,False
0.31,0.8966330634667379,1.6,2681.0,72.46512,0.3,68900.0,0.33,276.0,2700.0,29.338731902946314,4.485109320461284,12109.795165245467,19.116683047623226,7.06058260718892,10.222048855323088,2.575473286727636,2909,94,960,1463,286.4517725499266,161.27251241599816,0.0021999330410264768,True
0.32,0.7710754303454304,1.6,2682.0,72.46512,0.3,68900.0,0.33,276.0,2700.0,22.314695568974347,3.5017221523203297,9454.64981126489,15.223123329060789,4.90891580746353,7.091572239913559,1.4071936551432005,2341,82,778,1168,199.69697268501594,111.65727514494387,0.001718051065748298,False
0.33,0.7185586695912682,1.6,2683.0,72.46512,0.3,68900.0,0.33,276.0,2700.0,19.51555185827492,3.1447997798206577,8490.959405515776,13.71209057186178,4.149427310432789,5.8034612864131425,1.0046275306121313,2115,76,700,1059,173.63799198715822,99.7193589635162,0.001516678804552223,False
0.34,0.8078972742210249,1.6,2684.0,72.46512,0.3,68900.0,0.33,276.0,2700.0,23.778859354412674,3.960087985145695,10692.237559893376,16.323914291754495,5.489621292148821,7.4549450626581795,1.5295333070031263,2389,82,792,1195,188.6933687147412,107.16211291805959,0.0017356898215306607,False
0.3500000000000001,0.8758895926615087,1.6,2685.0,72.46512,0.3,68900.0,0.33,276.0,2700.0,27.208275764462908,4.671651068765903,12613.457885667938,18.446103201637857,6.671010021254533,8.76217256282505,1.9993589524886302,2674,90,890,1333,192.60385788554873,110.08294050897698,0.0018953126666244801,False
0.36000000000000004,0.7415144410103357,1.6,2686.0,72.46512,0.2,68900.0,0.33,276.0,2700.0,20.02853332205424,3.507419900072509,9470.033730195775,14.364055515073058,4.471656770602258,5.664477806981182,0.9642368705297488,4669,106,1328,2505,178.78471184953887,102.962032987693,0.001490521082926359,False
0.37,0.9127306672481319,1.6,2687.0,72.46512,0.3,68900.0,0.33,276.0,2700.0,28.802158087926205,5.222311851144823,14100.241998091024,19.644527205555978,7.372555172963181,9.157630882370228,2.1502433218183574,2861,92,952,1427,735.0927346852234,397.85534370527887,0.001915793676345394,True
0.38,0.6816575433473699,1.6,2688.0,72.46512,0.2,68900.0,0.33,276.0,2700.0,16.86791906226239,3.0899809737713353,8342.948629182605,12.691821208432186,3.662365508649427,4.176097853830205,0.5723845348780916,4663,98,1186,2602,157.82922011158126,90.97140711348169,0.0012861083897346328,False
0.39,0.861768286694832,1.6,2689.0,72.46512,0.3,68900.0,0.33,276.0,2700.0,25.535357124564634,4.855157216211242,13108.924483770354,17.99578676588068,6.413712379844017,7.539570358683953,1.558555163632775,2624,86,876,1304,271.9926176171699,154.38568457979375,0.0017046502317895013,False
0.4,0.9121191716640099,1.6,2690.0,72.46512,0.3,68900.0,0.33,276.0,2700.0,28.068472905370026,5.479653294520843,14795.063895206276,19.624357124070645,7.360548798761592,8.44411578129938,1.8808955042407485,2760,90,920,1374,174.0241747527707,98.89400612888255,0.0017746855408510892,False
0.4100000000000001,0.7966112493649739,1.6,2691.0,72.46512,0.3,68900.0,0.33,276.0,2700.0,21.747810103957256,4.313953266459189,11647.67381943981,15.982896382582698,5.307316568801689,5.764913721374558,0.9933633023424999,2410,80,768,1230,150.92600918792857,86.08014657573956,0.0014527655279230852,False
0.42000000000000004,0.9190187719213371,1.6,2692.0,72.46512,0.3,68900.0,0.33,276.0,2700.0,27.99844264543336,5.7245034111949,15456.15921022623,19.85248450333957,7.496735324178996,8.14595814209379,1.772231912984096,2720,90,908,1352,166.81639381353838,94.72535704294775,0.0017149350500976065,False
0.43,1.037266629874892,1.6,2693.0,72.46512,0.3,68900.0,0.33,276.0,2700.0,34.68722209171639,7.291233678312816,19686.3309314446,23.94817689390388,10.082939629645434,10.739045197812512,2.7917059513326183,3388,102,1112,1702,180.42410878629744,102.4271342541636,0.002012004637752759,False
0.44,1.0275837202062665,1.6,2694.0,72.46512,0.3,68900.0,0.33,276.0,2700.0,33.84521812884323,7.26753903594324,19622.355397046747,23.59958467785217,9.85274119093499,10.245633450991058,2.5852021549917508,3416,102,1106,1727,174.14063585227603,98.55567304921198,0.0019376322616980472,False
0.45,0.7931685502258883,1.6,2695.0,72.46512,0.3,68900.0,0.33,276.0,2700.0,20.809290005361106,4.491238497500669,12126.343943251806,15.879509171367948,5.252470316175401,4.929780833993158,0.761231818674732,2259,76,716,1157,152.3909834229447,87.80352054630738,0.0013308460997355218,False
0.46,1.0794216393358909,1.6,2696.0,72.46512,0.3,68900.0,0.33,276.0,2700.0,36.541860518935394,8.200767877668598,22142.073269705215,25.493250131275403,11.124884647704704,11.048610387659991,2.9241167700361057,3485,104,1152,1745,175.08030555131867,99.29710345913487,0.001999329084158786,False
0.4700000000000001,0.8013973515027455,1.6,2697.0,72.46512,0.2,68900.0,0.33,276.0,2700.0,20.83878326073163,4.679667683556164,12635.102745601642,16.127122051833574,5.3841572531208595,4.711661208898057,0.7044895695646956,5761,110,1438,3236,151.54932062267932,87.19718541254183,0.0013278236653238749,False
0.4800000000000001,1.0811675732177097,1.6,2698.0,72.46512,0.3,68900.0,0.33,276.0,2700.0,36.14331837564826,8.44277306699172,22795.48728087764,25.558205613221823,11.169450869708362,10.58511276242644,2.726677802716642,3737,104,1150,1938,177.0714307905685,100.48341709351165,0.0019324140663661347,False
0.49,1.1436660915690016,1.6,2699.0,72.46512,0.3,68900.0,0.33,276.0,2700.0,39.87456717508383,9.52286546849408,25711.736764934016,27.933848098911028,12.840526629431343,11.940719076172805,3.317661160937263,3912,108,1228,2010,177.96865528877808,101.43088263931536,0.002058121275166733,False
0.5,1.1731099824346856,1.6,2700.0,72.46512,0.3,68900.0,0.33,276.0,2700.0,41.54743782387782,10.125060068170171,27337.662184059463,29.087064113355105,13.679931925673191,12.460373710522717,3.55487185750302,4625,114,1348,2453,177.86667380140628,100.99347021854626,0.0021120339289178096,False
0.01,0.6450953753765905,1.6,2701.0,75.4845,0.08,68900.0,0.33,276.0,2700.0,23.16794871642822,0.11583764918703736,312.7616528050009,11.714676597826742,3.216290638157285,11.453272118601479,3.1004529889702477,28385,294,9454,14198,4807.484801793216,2752.617208589016,0.04363352108425356,True
0.02,0.5964344564163282,1.6,2702.0,75.4845,0.1,68900.0,0.33,276.0,2700.0,20.436762340102447,0.2043508682400669,551.7473442481806,10.46629918937309,2.676858628991066,9.970463150729357,2.4725077607509993,16360,222,5430,8209,2168.188339510862,1228.6532468729806,0.018718398523476842,True
0.03,0.4129939820113756,1.6,2703.0,75.4845,0.1,68900.0,0.33,276.0,2700.0,11.988805023817392,0.17977552668949692,485.3939220616417,6.295239155688193,1.1524147360904322,5.693565868129199,0.9726392094009353,9727,162,3194,4930,1113.1098275833565,636.7480352451258,0.006770524208300226,True
0.04,0.6159572718966561,1.6,2704.0,75.4845,0.1,68900.0,0.33,276.0,2700.0,20.918756810795266,0.4182410949293535,1129.2509563092544,10.960001133186411,2.8859938985507236,9.958755677608854,2.4677528036213703,16691,224,5492,8447,1281.4143340042122,730.0332914785768,0.009832768908120437,True
0.05,0.3652649666603469,1.6,2705.0,75.4845,0.1,68900.0,0.33,276.0,2700.0,9.767016049014794,0.24391360183757066,658.5667249614407,5.348630220701405,0.8747672485350115,4.418385828313389,0.6308536466974408,7821,140,2562,3972,556.1658613271478,319.19357881009205,0.0036040949424529763,True
0.06000000000000001,0.49105467138293263,1.6,2706.0,75.4845,0.1,68900.0,0.33,276.0,2700.0,14.635175905887985,0.438602887834523,1184.2277971532121,7.966807880133382,1.70807112666664,6.668368025754603,1.269468238832117,11591,180,3808,5873,658.4485573599626,376.90825453146346,0.0044839074899961934,True
0.06999999999999999,0.4047910980947689,1.6,2707.0,75.4845,0.1,68900.0,0.33,276.0,2700.0,10.902666955319736,0.38087496591607006,1028.3624079733893,6.128477094060405,1.1014607409869266,4.774189861259331,0.7205857750708565,9030,154,2960,4584,433.13511185755885,248.93577293863487,0.003012085189025087,True
0.08,0.7277103126636466,1.6,2708.0,75.4845,0.2,68900.0,0.33,276.0,2700.0,25.75386486571599,1.0290822643362134,2778.522113707776,13.970418105657346,4.276095924516498,11.783446760058643,3.2470136601802846,5219,128,1718,2636,699.3873924101147,400.3176817868826,0.0065498967216514195,True
0.09,0.4110388560088902,1.6,2709.0,75.4845,0.2,68900.0,0.33,276.0,2700.0,10.777938041617686,0.483480397843151,1305.3970741765077,6.255338556073511,1.1401457713276624,4.522599485544175,0.6566653734845114,2450,78,806,1235,363.9345752921777,210.11482898244543,0.0024325808335858294,True
0.09999999999999999,0.7728540486817086,1.6,2710.0,75.4845,0.3,68900.0,0.33,276.0,2700.0,27.72898392490049,1.384354801142633,3737.757963085109,15.275511974607051,4.936038511670085,12.453471950293439,3.5516837105274517,2857,94,938,1444,577.6569381626532,333.4159747631907,0.005815566175515503,True
0.11,0.686303119655655,1.6,2711.0,75.4845,0.3,68900.0,0.33,276.0,2700.0,22.78562278993781,1.2504216135652915,3376.138356626287,12.818382488876058,3.7216200976275493,9.967240301061754,2.471198484062258,2509,84,820,1273,474.513192501594,273.95755502793514,0.004226124264311214,True
0.12,0.4959209624384777,1.6,2712.0,75.4845,0.2,68900.0,0.33,276.0,2700.0,13.631090430685832,0.8142463111042157,2198.4650399813827,8.076084329540564,1.747105576746059,5.555006101145269,0.9328592656418433,2918,86,960,1472,326.46704978445814,188.42713085709315,0.0023868468729366316,True
0.13,0.5922458433415183,1.6,2713.0,75.4845,0.3,68900.0,0.33,276.0,2700.0,17.693697482902085,1.145488950348678,3092.820165941431,10.361623680798004,2.633238727874344,7.33207380210408,1.4877497775256658,1927,72,632,973,358.94583266947905,207.21058745304464,0.002829393164369876,True
0.14,0.8106790416278891,1.6,2714.0,75.4845,0.3,68900.0,0.33,276.0,2700.0,28.803344809652476,2.0104871165147036,5428.315214589699,16.408459787304167,5.53514817274617,12.394885022348308,3.524661056231466,2936,94,960,1490,444.7621849555081,256.0881817031044,0.004496123896017744,True
0.15000000000000002,0.8364562380019764,1.6,2715.0,75.4845,0.3,68900.0,0.33,276.0,2700.0,30.023713234066353,2.244709909084285,6060.71675452757,17.201150047896974,5.968293056304863,12.82256318616938,3.723583147220578,3093,96,1014,1566,429.43340817891925,247.3919957888876,0.004426624232098315,True
0.16,0.5477972459224082,1.6,2716.0,75.4845,0.3,68900.0,0.33,276.0,2700.0,15.066376158593682,1.196731450348091,3231.174915939846,9.277997968957827,2.196945831413444,5.788378189635855,1.0002143810653528,1671,66,544,849,275.9482566025008,159.31854356031548,0.0021007415432412364,False
0.17,0.8458972233271405,1.6,2717.0,75.4845,0.3,68900.0,0.33,276.0,2700.0,30.031297549802908,2.5423705285951907,6864.400427207015,17.495653782998044,6.13207730177822,12.535643766804863,3.589706773183029,3058,96,1000,1552,381.08214041511206,218.9183449391714,0.00398172454263225,True
0.18000000000000002,0.48741228338426346,1.6,2718.0,75.4845,0.2,68900.0,0.33,276.0,2700.0,12.163401030219084,1.0824915804825608,2922.7272673029142,7.885404606490372,1.6792012736183808,4.2779964237287125,0.59670969313582,2734,82,900,1378,216.14075232416417,124.47373061040717,0.001616814475600277,False
0.19,0.7406280255735352,1.6,2719.0,75.4845,0.3,68900.0,0.33,276.0,2700.0,23.68416461487328,2.2356301824056457,6036.201492495244,14.338634673318998,4.458935518230627,9.34552994155428,2.223305335824981,2394,82,790,1203,302.518371857803,174.46145799844055,0.0027245540876135637,True
0.2,0.8038111894899697,1.6,2720.0,75.4845,0.3,68900.0,0.33,276.0,2700.0,26.85179916595799,2.6684247557766554,7204.746840596969,16.200079682060515,5.423173537447203,10.651719483897473,2.754748781670548,2769,90,908,1401,313.4791552080666,179.96767467572678,0.0030185056215004153,True
0.21000000000000002,0.9043994049834482,1.6,2721.0,75.4845,0.3,68900.0,0.33,276.0,2700.0,32.4107792726249,3.383735630582351,9136.086202572347,19.370530098221863,7.2100340467592146,13.040249174403037,3.8262984161768636,3103,98,1014,1576,330.56309457661143,189.09868699715093,0.0036630623590291228,True
0.22,0.6063315964130136,1.6,2722.0,75.4845,0.3,68900.0,0.33,276.0,2700.0,16.474771514945978,1.7899237475937757,4832.794118503194,10.715385464927941,2.7816756477569013,5.759386050018037,0.9917519001631256,1882,70,618,949,227.0794378128412,131.0295248019092,0.0017995452614989293,False
0.23,0.801419746146813,1.6,2723.0,75.4845,0.3,68900.0,0.33,276.0,2700.0,25.975514042839333,2.9617016097157047,7996.594346232403,16.127798251172603,5.3845184218506414,9.84771579166673,2.4228168121349367,2584,86,852,1300,271.1600577972602,155.71265260983665,0.002609557057548273,False
0.24000000000000005,0.7129541300522676,1.6,2724.0,75.4845,0.3,68900.0,0.33,276.0,2700.0,21.12049775048801,2.5055068121630764,6764.868392840306,13.554927979554895,4.0730181373462395,7.565569770933115,1.5675113251831632,2138,76,706,1073,238.89590869346515,137.45076076955303,0.0020780455097798895,False
0.25,0.8100147095022274,1.6,2725.0,75.4845,0.3,68900.0,0.33,276.0,2700.0,25.959154011065095,3.2121693279082435,8672.857185352257,16.388251245941607,5.524254218982521,9.570902765123488,2.3120848910742775,2563,86,842,1294,252.8590366726046,145.17741067470914,0.002398961467109649,False
0.26,0.8469639886174342,1.6,2726.0,75.4845,0.3,68900.0,0.33,276.0,2700.0,27.759327619009085,3.571901502151519,9644.134055809101,17.529071504908025,6.1507588798552995,10.23025611410106,2.5788573777037804,2899,92,952,1465,303.6849806500532,175.11818270013248,0.0025055219978279974,True
0.27,0.9408195418906227,1.6,2727.0,75.4845,0.3,68900.0,0.33,276.0,2700.0,32.97983065088057,4.411053159068474,11909.843529484879,20.58116464494757,7.937455965510912,12.398666005933002,3.526402806442438,3191,100,1050,1610,267.6709080234383,152.47481379196884,0.0029604007082825795,False
0.28,0.9089922935217718,1.6,2728.0,75.4845,0.3,68900.0,0.33,276.0,2700.0,30.816334283890917,4.2683106384569065,11524.438723833648,19.521364455548298,7.299346912208651,11.29496982834262,3.0310362737517442,3163,98,1040,1597,251.10845925739412,143.2549697446552,0.0026526434217414314,False
0.29000000000000004,0.8468945440895668,1.6,2729.0,75.4845,0.3,68900.0,0.33,276.0,2700.0,27.02263757333734,3.8672022459816473,10441.446064150448,17.52689520016992,6.149541657327618,9.49574237316742,2.282339411345971,2667,88,882,1338,231.91745114699057,133.15761399078147,0.002238432666541385,False
0.3,0.808604186099708,1.6,2730.0,75.4845,0.3,68900.0,0.33,276.0,2700.0,24.709074157003425,3.6498124557858973,9854.493630621922,16.345380839434007,5.501168447807175,8.363693317569417,1.8513559920212779,2476,84,816,1246,215.46385067639235,123.493682739374,0.0020206639357781414,False
0.31,0.7741870678937635,1.6,2731.0,75.4845,0.3,68900.0,0.33,276.0,2700.0,22.68901642195922,3.454403420908423,9326.889236452742,15.314827761339664,4.956427261995682,7.374188660619556,1.5020238410872588,2381,82,788,1193,197.95400470369248,113.489983265434,0.0018518094451554568,False
0.32,0.6938718368871525,1.6,2732.0,75.4845,0.3,68900.0,0.33,276.0,2700.0,18.54084060223074,2.8979053576417004,7824.344465632591,13.025741775878998,3.819422623872547,5.515098826351743,0.9215172662308464,1912,70,634,955,179.84597093156106,103.12862012059504,0.001552941214823343,False
0.33,0.9051876277288619,1.6,2733.0,75.4845,0.3,68900.0,0.33,276.0,2700.0,29.336263235053984,4.765217156989202,12866.086323870844,19.396378316509786,7.225312525224479,9.939884918544198,2.460095368235277,2901,94,956,1461,216.68614199604352,123.57489613978262,0.002183630407251019,False
0.34,0.687632215606776,1.6,2734.0,75.4845,0.2,68900.0,0.33,276.0,2700.0,17.86809430628621,2.9552579269641965,7979.196402803331,12.854691366199805,3.738681081967045,5.013402940086404,0.7834231550028483,4033,100,1228,2097,180.30064288589801,103.77525072400134,0.0014718198444202662,False
0.3500000000000001,1.0196498322786924,1.6,2735.0,75.4845,0.3,68900.0,0.33,276.0,2700.0,35.68291822822251,6.15471349992383,16617.726449794343,23.315714991241165,9.666631872067562,12.367203236981346,3.5119183721437315,3511,106,1166,1756,221.87424083128425,125.76113485286095,0.002566199718260447,False
0.36000000000000004,0.978304780754178,1.6,2736.0,75.4845,0.3,68900.0,0.33,276.0,2700.0,32.88202859832998,5.821049049802126,15716.832434465741,21.86201741337453,8.732842058061056,11.02001118495545,2.91179300825893,3253,100,1078,1630,211.55852928787704,120.55917365263521,0.002281556914100764,False
0.37,0.962257302178172,1.6,2737.0,75.4845,0.3,68900.0,0.33,276.0,2700.0,31.671269042626406,5.753097377764358,15533.362919963767,21.309359601336865,8.38645483942917,10.36190944128954,2.6333574616648123,3291,100,1092,1647,201.81949474407955,114.91301991399513,0.002151544009432259,False
0.38,0.7231096773361312,1.6,2738.0,75.4845,0.3,68900.0,0.33,276.0,2700.0,18.768972057805165,3.4511810429244623,9318.188815896048,13.840290800017936,4.212122663523671,4.928681257787229,0.7609416205992083,1958,72,650,977,153.0293176987769,87.65638934737571,0.0014162046416281988,False
0.39,0.8088818063797556,1.6,2739.0,75.4845,0.3,68900.0,0.33,276.0,2700.0,22.769794005952214,4.315872408081822,11652.85550182092,16.35381467284445,5.505707427670084,6.415979333107764,1.189835019588262,2339,80,772,1173,168.84964837315798,96.38835874785158,0.0016134511862287034,False
0.4,0.9631877671788975,1.6,2740.0,75.4845,0.3,68900.0,0.33,276.0,2700.0,30.98881524534735,6.063721762516307,16372.04875879403,21.34122705325726,8.406297276813255,9.64758819209009,2.342575514296948,3098,96,1038,1535,189.34564293366705,107.85239761014438,0.002006305057216602,False
0.4100000000000001,1.0345784525318131,1.6,2741.0,75.4845,0.3,68900.0,0.33,276.0,2700.0,35.03223070176848,7.0372594890105,19000.60062032835,23.851164149801694,10.01869311752613,11.18106655196679,2.9814336285156298,3407,104,1128,1705,195.2786907008576,110.51391954970634,0.002178848494549357,False
0.42000000000000004,1.0133434743500211,1.6,2742.0,75.4845,0.2,68900.0,0.33,276.0,2700.0,33.48021723690011,6.8756760754028985,18564.325403587827,23.091205849972294,9.520303070755826,10.389011386927816,2.644626995352928,8646,144,2134,4871,195.89566780470227,111.56861947371455,0.0020951799686788628,False
0.43,1.0841386808503848,1.6,2743.0,75.4845,0.3,68900.0,0.33,276.0,2700.0,37.622155169037505,7.922244289937088,21390.059582830138,25.668918405090235,11.245551464363235,11.95323676394727,3.323307174426147,3565,106,1186,1778,192.1679138073219,108.8700507375075,0.002251580774877952,False
0.44,0.8883684208332902,1.6,2744.0,75.4845,0.2,68900.0,0.33,276.0,2700.0,25.88197545430202,5.515625647544187,14892.189248369305,18.84821367985327,6.903700637463355,7.033761774448749,1.3880749899191676,6785,124,1700,3803,175.53937322630196,100.59647497917709,0.0016783142312561735,False
0.45,1.1383974333657576,1.6,2745.0,75.4845,0.3,68900.0,0.33,276.0,2700.0,40.605407198415364,8.945364865937885,24152.485138032287,27.729791109437684,12.693890591070847,12.87561608897768,3.7485257251329624,3783,110,1250,1898,193.36421994190707,110.3405145923947,0.00234733784585858,False
0.46,0.859644959745471,1.6,2746.0,75.4845,0.3,68900.0,0.33,276.0,2700.0,23.95323009424734,5.305382879990343,14324.533775973925,17.928509123193187,6.375572887094735,6.024720971054151,1.070190007104392,2719,82,818,1424,159.75640760472837,92.1733460409282,0.001528321872782579,False
0.4700000000000001,1.0005047269114637,1.6,2747.0,75.4845,0.3,68900.0,0.33,276.0,2700.0,31.507064602552187,7.186713798883997,19404.127256986794,22.637229546319848,9.226759586622919,8.86983505623234,2.0400457877389213,3086,96,1002,1555,175.1194047242881,100.62229214565774,0.0018328896009165666,False
0.4800000000000001,1.0620512694661997,1.6,2748.0,75.4845,0.3,68900.0,0.33,276.0,2700.0,34.95987691443016,8.158747116299372,22028.617214008304,24.85117805490806,10.687644955522924,10.1086988595221,2.5288978392235517,3838,104,1156,2008,183.51070503336962,104.1991838805646,0.0019695219683452227,False
0.49,0.8558016370341539,1.6,2749.0,75.4845,0.3,68900.0,0.33,276.0,2700.0,23.165977292925533,5.429260947365297,14659.004557886301,17.80702156086311,6.306901417654501,5.358955732062423,0.8776404702892044,2497,78,764,1295,159.46184463461884,91.239639837619,0.0014290221155871207,False
0.5,0.9987119604935377,1.6,2750.0,75.4845,0.3,68900.0,0.33,276.0,2700.0,30.71319418524895,7.416499158513088,20024.547727985337,22.574167204978927,9.186232861789131,8.139026980270021,1.7697337032760432,3297,94,974,1740,175.21096973943068,100.10901235098316,0.0017484005455011946,False
0.01,0.4003962762808915,1.6,2751.0,78.50388,0.05,68900.0,0.33,276.0,2700.0,11.8797500633979,0.05939665592188749,160.37097098909624,6.039827475629221,1.074722153586345,5.839922587768679,1.0153254976644575,39023,318,12944,19601,3291.4410322562667,1875.5773751273016,0.019902603597811017,True
0.02,0.34569701036507827,1.6,2752.0,78.50388,0.08,68900.0,0.33,276.0,2700.0,9.584373156162027,0.09582697640080107,258.7328362821629,4.977087403923485,0.7737563455412998,4.607285752238542,0.6779293691404987,12161,176,4004,6149,1359.6764680930744,775.187218628636,0.00819156231007344,True
0.03,0.6122584315348265,1.6,2753.0,78.50388,0.1,68900.0,0.33,276.0,2700.0,20.979540139958377,0.3146365534316087,849.5186942653435,10.86572764144802,2.845629061279421,10.113812498510358,2.530992507847812,16753,224,5514,8476,1711.4815000497872,975.6863423511666,0.013538299746859501,True
0.04,0.42408791480665636,1.6,2754.0,78.50388,0.1,68900.0,0.33,276.0,2700.0,12.23857368870911,0.24463743248762937,660.5210677165993,6.523465514114063,1.2235168004898005,5.715108174595047,0.9788793680021711,9816,164,3226,4971,869.8288105362534,497.6709102111815,0.005582080958267984,True
0.05,0.7250744372716388,1.6,2755.0,78.50388,0.1,68900.0,0.33,276.0,2700.0,26.409202180589315,0.659968255126934,1781.9142888427218,13.895798244401556,4.239370025899747,12.513403936187759,3.5794017707728134,20894,256,6870,10583,1358.877030531581,776.0302493210706,0.010931893404442802,True
0.06000000000000001,0.5109108343526505,1.6,2756.0,78.50388,0.2,68900.0,0.33,276.0,2700.0,15.504486033429332,0.46468219166076313,1254.6419174840605,8.416434138075452,1.8707088921570139,7.08805189535388,1.4060267004962508,3619,98,1190,1828,676.9151125417078,390.81105483154624,0.0049230454694316,True
0.06999999999999999,0.6093436214518082,1.6,2757.0,78.50388,0.2,68900.0,0.33,276.0,2700.0,19.869203615180275,0.6947037490111903,1875.7001223302136,10.791679221293158,2.8140654991984406,9.077524393887117,2.1193617501872506,4170,110,1370,2109,673.671999888163,388.94411656338593,0.005690269383403565,True
0.08,0.6581403180488328,1.6,2758.0,78.50388,0.2,68900.0,0.33,276.0,2700.0,22.071817316525415,0.8818003623685942,2380.8609783952043,12.059454944184564,3.371352080407264,10.012362372340851,2.48955171803867,4653,118,1534,2346,662.9685112112086,379.6268730574385,0.005671784129420742,True
0.09,0.722973273871536,1.6,2759.0,78.50388,0.2,68900.0,0.33,276.0,2700.0,25.23456349330181,1.134028543168937,3061.8770665561296,13.836440797116849,4.2102350624897245,11.398122696184961,3.0762065193207873,5031,124,1660,2535,644.6435627058171,369.0557732924143,0.005942760503091135,True
0.09999999999999999,0.5563794580006004,1.6,2760.0,78.50388,0.2,68900.0,0.33,276.0,2700.0,16.68873637187776,0.832342423491494,2247.324543427034,9.483358204586635,2.2774514762878426,7.205378167291125,1.4451090527963486,3726,100,1222,1887,440.5198533221268,254.2495845432327,0.003446327839787933,True
0.11,0.42344806467773893,1.6,2761.0,78.50388,0.2,68900.0,0.33,276.0,2700.0,10.895983993576754,0.5964914797657438,1610.5269953675083,6.510218346437985,1.2193469988894616,4.385765647138769,0.6228555191237178,2531,78,824,1289,318.09638791037196,183.64939469234955,0.002187099508502076,True
0.12,0.7049521401570313,1.6,2762.0,78.50388,0.3,68900.0,0.33,276.0,2700.0,23.51230711517623,1.4071193121736416,3799.222142868832,13.331904261685844,3.965445130522255,10.180402853490387,2.5583258183486137,2506,84,820,1270,475.55443978027034,274.5177164505875,0.004216925992189097,True
0.13,0.43958950978925293,1.6,2763.0,78.50388,0.2,68900.0,0.33,276.0,2700.0,11.164313216940256,0.721078973061158,1946.9132272651266,6.847547859490977,1.3271450157285622,4.316765357449279,0.6060660426674043,2489,78,812,1265,282.9228368125006,163.15506405400086,0.001970571852084823,True
0.14,0.5435780300892694,1.6,2764.0,78.50388,0.3,68900.0,0.33,276.0,2700.0,15.281676153874049,1.0639703106102143,2872.7198386475784,9.177716817069923,2.1580116667039957,6.103959336804126,1.0940413560937814,1688,66,552,854,323.1197556340195,186.50264083853386,0.00244480198611136,True
0.15000000000000002,0.7019525136210901,1.6,2765.0,78.50388,0.3,68900.0,0.33,276.0,2700.0,22.625912780173497,1.6898748750424353,4562.662162614575,13.248716273513303,3.9255792197002224,9.377196506660194,2.235704344657787,2307,80,760,1161,377.19859225713014,217.49815070145797,0.0032952745209011043,True
0.16,0.651325400438739,1.6,2766.0,78.50388,0.3,68900.0,0.33,276.0,2700.0,19.851674555440166,1.5795553220958107,4264.799369658689,11.878802872768725,3.289784115919838,7.972871682671441,1.7102287938240275,2128,76,696,1078,333.5603821680949,192.52374045562354,0.0027684156710731348,True
0.17,0.49287580554014976,1.6,2767.0,78.50388,0.2,68900.0,0.33,276.0,2700.0,12.563563718872686,1.057613152966121,2855.5555130085268,8.007633212510896,1.7226169141749512,4.55593050636179,0.6650037612088302,2826,84,934,1419,237.91134198505353,137.13648504484752,0.001793829437756093,False
0.18000000000000002,0.7741693832101415,1.6,2768.0,78.50388,0.3,68900.0,0.33,276.0,2700.0,25.72394502128108,2.3029405396781413,6217.939457130981,15.314305880709309,4.956156428725728,10.40963914057177,2.6532158890475865,2729,90,896,1379,350.77677567892397,201.9632628137994,0.0032695740507901025,True
0.19,0.6823022061254187,1.6,2769.0,78.50388,0.3,68900.0,0.33,276.0,2700.0,20.70411713808891,1.9525256721111306,5271.819314700053,12.709351600848278,3.6705531034027694,7.994765537240633,1.7180274312916388,2136,78,706,1071,326.6698919256146,188.24760588119207,0.0026632655334126935,True
0.2,0.764044654062102,1.6,2770.0,78.50388,0.3,68900.0,0.33,276.0,2700.0,24.685152889559337,2.4517601281367876,6619.752345969327,15.016812339414063,4.802611424104066,9.668340550145274,2.3508512959672787,2411,82,794,1214,311.63126230614716,179.5184952817373,0.002842013950741445,True
0.21000000000000002,0.760864186750556,1.6,2771.0,78.50388,0.3,68900.0,0.33,276.0,2700.0,24.27506584711532,2.529485720903851,6829.611446440398,14.923892868276317,4.754998774385287,9.351172978839005,2.225513053481436,2435,82,798,1232,301.6252582072282,173.54465772710415,0.002679885972935579,True
0.22,0.6341369717008128,1.6,2772.0,78.50388,0.3,68900.0,0.33,276.0,2700.0,17.746961011613276,1.9298645922271775,5210.634399013379,11.42835099646791,3.0894880749633846,6.3186100151453655,1.159623482736207,1919,72,632,965,241.96919949396042,139.5905704387801,0.001991575080376374,False
0.23,0.5658209344914418,1.6,2773.0,78.50388,0.3,68900.0,0.33,276.0,2700.0,14.504639349735138,1.6425510200087212,4434.887754023547,9.711417848400787,2.3680632270136375,4.793221501334351,0.7255122070049163,1517,62,500,761,205.8573654970602,118.76278898462988,0.0016496615358839674,False
0.24000000000000005,0.9085111540634332,1.6,2774.0,78.50388,0.3,68900.0,0.33,276.0,2700.0,31.842146746310167,3.792104691661738,10238.682667486692,19.505538567057684,7.289958220950858,12.336608179252483,3.49785352928912,3179,98,1048,1601,301.1254474750091,172.03629476134356,0.003279761483324664,True
0.25,0.8936637704945494,1.6,2775.0,78.50388,0.3,68900.0,0.33,276.0,2700.0,30.697130349543865,3.804416370218091,10271.924199588846,19.020030690674158,7.003963123976113,11.677099658869707,3.1995467537580216,2996,96,986,1511,283.9004798973216,162.73229938608176,0.003030757939295054,True
0.26,0.7952371069028155,1.6,2776.0,78.50388,0.3,68900.0,0.33,276.0,2700.0,24.922382545168382,3.203098642552229,8648.366334891018,15.941593984736409,5.285382175337859,8.980788560431973,2.08228353278563,2538,86,840,1272,251.5501714651976,144.35387712774923,0.00234183104372894,False
0.27,0.7593460788815174,1.6,2777.0,78.50388,0.3,68900.0,0.33,276.0,2700.0,22.80821121078088,3.0378845346550136,8202.288243568537,14.87962997082994,4.732376300439407,7.9285812399509386,1.6944917657843934,2333,80,766,1178,233.4581770450882,134.10873277058758,0.0021205961756987114,False
0.28,0.798483940309271,1.6,2778.0,78.50388,0.3,68900.0,0.33,276.0,2700.0,24.62979114200183,3.4021945985925117,9185.925416199781,16.0392599863175,5.337300356171262,8.590531155684332,1.9351057575787505,2423,84,802,1214,236.84102317664838,135.9275386394511,0.00219862196202406,False
0.29000000000000004,0.7459947677292927,1.6,2779.0,78.50388,0.2,68900.0,0.33,276.0,2700.0,21.68994586672986,3.0939619485235643,8353.697261013624,14.492845591317927,4.5363007547693295,7.197100275411934,1.4423388062457652,4533,114,1502,2272,216.7836229185632,124.5892437777049,0.001942985976946061,False
0.3,0.8105918930895695,1.6,2780.0,78.50388,0.3,68900.0,0.33,276.0,2700.0,24.814941829792176,3.665692606704211,9897.37003810137,16.405808154640585,5.533718315003972,8.40913367515159,1.868025708299761,2438,84,804,1226,229.97750216156686,131.95567241766838,0.0021088548063344713,False
0.31,0.8016129845125888,1.6,2781.0,78.50388,0.3,68900.0,0.33,276.0,2700.0,24.112948569781686,3.675112903820746,9922.804840316016,16.133633547378405,5.387635495014706,7.979315022403281,1.7125225911939599,2482,84,818,1249,216.35990549611637,123.85085471303952,0.0020157926972589816,False
0.32,0.980441829704449,1.6,2782.0,78.50388,0.3,68900.0,0.33,276.0,2700.0,34.056831245509656,5.380463860566328,14527.252423529086,21.936103413261304,8.779641401688252,12.120727832248352,3.399177541121924,3334,102,1100,1678,243.7999296928063,139.0504130184612,0.0027424814484559414,False
0.33,0.8334771568824215,1.6,2783.0,78.50388,0.3,68900.0,0.33,276.0,2700.0,25.35562930513635,4.1084125585527955,11092.713908092548,17.108685034867406,5.917187220723092,8.246944270268944,1.808774662170296,2599,86,864,1297,210.48290617383853,120.02263148279255,0.0020129849511977384,False
0.34,0.8352172771145211,1.6,2784.0,78.50388,0.3,68900.0,0.33,276.0,2700.0,25.22291367058093,4.205577218894297,11355.058491014603,17.16266796556393,5.947005347056218,8.060245705017,1.741428128161921,2578,86,858,1285,201.7395347930333,115.12489221422025,0.001965812060330808,False
0.3500000000000001,0.7977002884491087,1.6,2785.0,78.50388,0.1,68900.0,0.33,276.0,2700.0,23.035184762428237,3.941360143409834,10641.672387206552,16.015663179436356,5.324740407096076,7.019521582991882,1.383380263686242,33789,234,6242,20808,202.69458131817885,116.44380051908574,0.001837926197019089,False
0.36000000000000004,0.8243095660248367,1.6,2786.0,78.50388,0.3,68900.0,0.33,276.0,2700.0,24.202389218537075,4.258713961439299,11498.527695886107,16.825539784672458,5.761641289821592,7.376849433864617,1.5029273283822926,2543,84,844,1271,195.4833105136385,111.83547522915899,0.0018420174471372307,False
0.37,0.886302776639943,1.6,2787.0,78.50388,0.3,68900.0,0.33,276.0,2700.0,27.321622180648593,4.948412708298468,13360.714312405864,18.78138126478002,6.864835978775384,8.540240915868573,1.9164232704769155,2576,88,856,1286,195.46001313502128,111.41857305776229,0.0019839451496949205,False
0.38,0.8970643233861797,1.6,2788.0,78.50388,0.3,68900.0,0.33,276.0,2700.0,27.688525275106198,5.145896154211572,13893.919616371244,19.13073925856312,7.068829897152262,8.557786016543076,1.9229337429406899,2570,88,854,1283,192.12881469564087,109.47819700001244,0.0019695649074260033,False
0.39,0.8882194487609438,1.6,2789.0,78.50388,0.3,68900.0,0.33,276.0,2700.0,26.971295827853716,5.1351652633526035,13864.946211052029,18.84339020874948,6.900893139299613,8.127905619104236,1.7657278759470092,2614,88,868,1306,187.13230116114963,106.28867310533217,0.0018976728448910787,False
0.4,1.071908331568804,1.6,2790.0,78.50388,0.3,68900.0,0.33,276.0,2700.0,37.64258337987893,7.394475389422622,19965.08355144108,25.21460028273339,10.934393692805417,12.427983097145539,3.5399183033827946,3607,108,1200,1801,212.4153915831673,119.85639792162961,0.002506316538912234,False
0.4100000000000001,0.8674397239200886,1.6,2791.0,78.50388,0.2,68900.0,0.33,276.0,2700.0,25.40425442845996,5.0635243529822525,13671.515753052081,18.176041857970862,6.516285125459818,7.228212570489099,1.452760772477566,6861,124,1702,3864,188.63615396875565,108.1590913318776,0.0017928223049078818,False
0.42000000000000004,1.0567013686394364,1.6,2792.0,78.50388,0.3,68900.0,0.33,276.0,2700.0,36.1500378090535,7.436338395555128,20078.113667998845,24.654953710902586,10.555218828588718,11.495084098150915,3.1188804330335893,3515,106,1170,1752,198.7590230469414,112.87689647491636,0.0022902829279361973,False
0.43,0.7444593801124085,1.6,2793.0,78.50388,0.3,68900.0,0.33,276.0,2700.0,18.852565297851346,3.886782467632064,10494.312662606573,14.448652996764249,4.514082553076984,4.403912301087097,0.6273000854449204,1936,70,642,965,145.72001290255193,82.9095987031355,0.0013776924374868146,False
0.44,0.8044076406323661,1.6,2794.0,78.50388,0.3,68900.0,0.33,276.0,2700.0,21.550280155365048,4.562652681778051,12319.162240800737,16.21812982671154,5.432841476050771,5.332150328653508,0.8701887942727202,2179,76,722,1088,154.69923540739882,88.34571681720116,0.0014770225358899875,False
0.45,0.961472011936528,1.6,2795.0,78.50388,0.3,68900.0,0.33,276.0,2700.0,29.71176668342538,6.494295750065132,17534.598525175858,21.28248116439106,8.36973136197994,8.42928551903432,1.8754356119148072,3061,94,1002,1536,184.41168379945287,106.22956713579018,0.0018670202688026716,False
0.46,1.1464504869212664,1.6,2796.0,78.50388,0.3,68900.0,0.33,276.0,2700.0,40.86437663645616,9.194946584698377,24826.355778685618,28.04197048671695,12.918455988774118,12.822406149739209,3.7235094040757417,4045,112,1330,2030,200.17080080873208,114.82793848724157,0.0024103332462190787,False
0.4700000000000001,0.9810016157085348,1.6,2797.0,78.50388,0.3,68900.0,0.33,276.0,2700.0,30.374041289028995,6.920453320206047,18685.223964556328,21.955528727508995,8.791926362005308,8.41851256152,1.8714730417992609,2978,94,978,1489,173.0019364574058,98.35900007605079,0.0018610636595304847,False
0.4800000000000001,0.9604099053260702,1.6,2798.0,78.50388,0.3,68900.0,0.33,276.0,2700.0,28.97599869800055,6.722616344356244,18151.06412976186,21.246152681956968,8.347146392918352,7.729846016043581,1.6245300485621081,3367,94,1010,1766,177.40987801762685,102.25599727796317,0.0017807863756763174,False
0.49,1.1219211015894779,1.6,2799.0,78.50388,0.3,68900.0,0.33,276.0,2700.0,38.46697991153818,9.1780065889254,24780.617790098582,27.09615922162498,12.24223468512449,11.370820689913202,3.0642280961990895,3952,108,1216,2048,192.82729496301147,109.0203819050266,0.002173265993172776,False
0.5,0.9138875315920851,1.6,2800.0,78.50388,0.3,68900.0,0.33,276.0,2700.0,25.996218773547415,6.237255305587702,16840.589325086796,19.68271189376465,7.39530331005055,6.313506879782764,1.1580480044628478,3230,86,882,1759,171.9369121332999,98.71198964036299,0.0016189461291405622,False
0.01,0.6129785881213203,1.6,2801.0,81.52326,0.05,68900.0,0.33,276.0,2700.0,21.514778428635374,0.10757179774807585,290.4438539198048,10.8840555394144,2.8534606853034368,10.630722889220975,2.745888887555361,67073,450,22260,33677,5602.039643207755,3185.6251386367135,0.042554939797095244,True
0.02,0.3332770987674508,1.6,2802.0,81.52326,0.08,68900.0,0.33,276.0,2700.0,9.12895960489857,0.09127284088816644,246.4366703980494,4.746259164049088,0.7133788056291624,4.382700440849482,0.622105964740996,11732,172,3868,5924,1321.8147806038305,755.1668910714644,0.008122497145097616,True
0.03,0.46724690608412806,1.6,2803.0,81.52326,0.1,68900.0,0.33,276.0,2700.0,14.238949238361899,0.2135276899076634,576.5247627506913,7.440764133484771,1.5246894602604508,6.798185104877128,1.3111617703527874,11350,178,3750,5719,1274.9484692651522,726.1468244237462,0.008847897538030582,True
0.04,0.4818695862949318,1.6,2804.0,81.52326,0.1,68900.0,0.33,276.0,2700.0,14.657896825572026,0.2930238952248903,791.1645171072038,7.762171318491078,1.6358367434845673,6.895725507080948,1.342812848259677,11673,180,3834,5916,1052.7859324193967,600.7759043393309,0.0069645166707260914,True
0.05,0.5117224151269635,1.6,2805.0,81.52326,0.1,68900.0,0.33,276.0,2700.0,15.755756731391616,0.3936321188969915,1062.8067210218771,8.435022490723062,1.8775470501469882,7.320734240668553,1.4839149312499966,13027,192,4278,6604,925.0163529861675,528.885343217993,0.006149673435476066,True
0.06000000000000001,0.5170408248531144,1.6,2806.0,81.52326,0.2,68900.0,0.33,276.0,2700.0,15.776862791968416,0.4728534944169352,1276.704434925725,8.557244421294474,1.9227326538863234,7.219618370673942,1.4498791594693883,3606,98,1184,1824,702.9262146997878,404.65330843957764,0.005208604034883052,True
0.06999999999999999,0.7149670601405462,1.6,2807.0,81.52326,0.2,68900.0,0.33,276.0,2700.0,25.32259021089548,0.8855722798612213,2391.0451556252974,13.611283748479563,4.100359962749959,11.711306462415918,3.214787682888738,5226,128,1722,2637,831.5416518433702,475.2378304225498,0.007853217868148063,True
0.08,0.696811384365219,1.6,2808.0,81.52326,0.2,68900.0,0.33,276.0,2700.0,24.088483423867686,0.9624670066622845,2598.660917988168,13.106664393966431,3.8578312950001634,10.981819029901255,2.8953642883378787,4777,122,1574,2410,769.8375499279982,441.11283357014116,0.006529679825029709,True
0.09,0.4704272721133325,1.6,2809.0,81.52326,0.2,68900.0,0.33,276.0,2700.0,13.15335034856629,0.5903739516558385,1594.009669470764,7.510211425774952,1.548464180272891,5.643138922791338,0.9580902286170524,2722,84,892,1378,440.65372786180393,254.40961892842273,0.00314163757037823,True
0.09999999999999999,0.7036411216152284,1.6,2810.0,81.52326,0.3,68900.0,0.33,276.0,2700.0,23.942947536565924,1.195052981725903,3226.643050659938,13.295518251157567,3.9479906129242575,10.647429285408357,2.752937631198354,2504,84,822,1265,581.623754819536,335.7453331688717,0.005286550778135022,True
0.11,0.7015712757799729,1.6,2811.0,81.52326,0.3,68900.0,0.33,276.0,2700.0,23.58296681356428,1.2942755348647539,3494.5439441348353,13.238159684619466,3.9205303201121655,10.344807128944813,2.6262547852474114,2494,84,816,1264,522.3921145465837,301.6007674577197,0.004758780378174643,True
0.12,0.5840965929558177,1.6,2812.0,81.52326,0.2,68900.0,0.33,276.0,2700.0,17.531457070984985,1.048268309522047,2830.3244357095273,10.159233367958363,2.549625060239212,7.372223703026622,1.501356750717165,3745,102,1228,1897,401.26728238569785,231.59568383060184,0.003229470877150955,True
0.13,0.7205362269241999,1.6,2813.0,81.52326,0.3,68900.0,0.33,276.0,2700.0,24.086759926671224,1.5610380091936737,4214.802624822919,13.767733688509148,4.176598758222255,10.319026238162076,2.6155607490285813,2538,86,828,1290,460.5999215044243,265.7287361581759,0.004184236358273754,True
0.14,0.7412619732556938,1.6,2814.0,81.52326,0.3,68900.0,0.33,276.0,2700.0,24.944301347163012,1.7403540741404502,4698.956000179215,14.356813170921642,4.468031224021852,10.58748817624137,2.7276771498814014,2605,86,854,1318,441.92318331966413,255.0244062182676,0.00407210050750224,True
0.15000000000000002,0.6691599994323327,1.6,2815.0,81.52326,0.3,68900.0,0.33,276.0,2700.0,20.960181022835336,1.5649449932420736,4225.351481753599,12.354037961843337,3.5058637344189,8.606143060991998,1.9409187411768265,2149,78,712,1075,375.8014153821977,216.84731385541804,0.003170100274478022,True
0.16,0.5857211007495663,1.6,2816.0,81.52326,0.2,68900.0,0.33,276.0,2700.0,16.756770462555814,1.3319629946650648,3596.3000855956752,10.199445555320212,2.5661614675504287,6.557324907235602,1.2341984728853639,3614,100,1186,1829,308.63659996197714,178.17996253491916,0.0024791214774366726,True
0.17,0.7672831597298475,1.6,2817.0,81.52326,0.3,68900.0,0.33,276.0,2700.0,25.599251095750372,2.165646580000725,5847.245766001957,15.111688667998827,4.851397013604142,10.487562427751545,2.6857504336034173,2670,90,878,1347,377.63952657298097,217.50422969719253,0.003548505572251508,True
0.18000000000000002,0.8745468807127016,1.6,2818.0,81.52326,0.3,68900.0,0.33,276.0,2700.0,31.44737545182561,2.8180492784271425,7608.733051753285,18.403069646274204,6.646271113981259,13.044305805551407,3.828221835554116,3098,98,1016,1568,402.05870827518976,230.78501291393337,0.0043241588525168686,True
0.19,0.6123395306069466,1.6,2819.0,81.52326,0.3,68900.0,0.33,276.0,2700.0,17.35508306557492,1.6343674352223025,4412.792075100217,10.867790951741203,2.84651034537421,6.487292113833718,1.2121429101519074,1864,70,614,937,281.68177044955877,162.48706401994355,0.0022465304026770654,True
0.2,0.7361303968400034,1.6,2820.0,81.52326,0.2,68900.0,0.33,276.0,2700.0,23.21175029348752,2.3044198685296062,6221.933645029937,14.209954861042664,4.394735230485056,9.001795432444855,2.0903153619554495,4864,120,1594,2467,308.3483059708065,177.63102941203067,0.0027769738345276296,True
0.21000000000000002,0.7767989500451308,1.6,2821.0,81.52326,0.3,68900.0,0.33,276.0,2700.0,25.12716149169386,2.618955763584556,7071.180561678301,15.391991540220008,4.996528521306185,9.735169951473853,2.3775727577216292,2527,86,836,1267,310.47875967738145,178.47015026290774,0.002891262893119372,True
0.22,0.5571933219096492,1.6,2822.0,81.52326,0.3,68900.0,0.33,276.0,2700.0,14.321553917663378,1.5530698118926893,4193.288492110261,9.502928917159572,2.2851776020864034,4.818625000503806,0.7321077901937141,1485,62,490,744,220.35097022457506,126.84698634701114,0.0017408860550084154,False
0.23,0.6032358355195439,1.6,2823.0,81.52326,0.2,68900.0,0.33,276.0,2700.0,16.139942298375377,1.830610859102351,4942.649319576348,10.637208310669209,2.7486244475030923,5.5027339877061685,0.9180135884007412,3185,94,1054,1598,228.38675509216094,131.49492231355202,0.0018592097229430573,False
0.24000000000000005,0.7622382245349072,1.6,2824.0,81.52326,0.3,68900.0,0.33,276.0,2700.0,23.64137734983305,2.8080123640844823,7581.633383028102,14.964005106426285,4.775532319508135,8.677372243406765,1.9675199554236524,2301,80,756,1161,269.9846791221819,155.07404962059593,0.0024639328504166835,False
0.25,0.9447155499838367,1.6,2825.0,81.52326,0.3,68900.0,0.33,276.0,2700.0,33.761590982360886,4.187473949320217,11306.179663164585,20.712644902478896,8.017896349752803,13.04894607988199,3.830422400432586,3216,100,1058,1623,311.5346060058048,177.5768801749279,0.003519220322088403,True
0.26,0.8101545786534169,1.6,2826.0,81.52326,0.3,68900.0,0.33,276.0,2700.0,25.726726268122224,3.307663326536226,8930.69098164781,16.392505050661622,5.5265467272560675,9.334221217460602,2.2188834007198417,2569,86,848,1291,263.93511577456064,151.4706875365697,0.0024987226465262133,False
0.27,0.7110930398040337,1.6,2827.0,81.52326,0.3,68900.0,0.33,276.0,2700.0,20.382216388607453,2.710375233661599,7318.013130886317,13.502913855217683,4.047839608058608,6.879302533389771,1.3374643743970087,2152,76,706,1087,231.34531186560648,133.1613706236866,0.002014574662522938,False
0.28,0.8246280244898272,1.6,2828.0,81.52326,0.2,68900.0,0.33,276.0,2700.0,26.037971083576412,3.599339790412865,9718.217434114735,16.835340107436817,5.76700108582421,9.202630976139595,2.1676612954113446,5300,128,1758,2657,250.35191875702614,143.4934875048732,0.0023995314699921653,False
0.29000000000000004,0.6868684638834663,1.6,2829.0,81.52326,0.3,68900.0,0.33,276.0,2700.0,18.80283926403032,2.6753314911321313,7223.395026056754,12.833821406284837,3.7288712599504934,5.969017857745484,1.053539768818362,2056,74,678,1033,209.28158449427633,120.38308242911752,0.0018089344716037258,False
0.3,0.8165341133257873,1.6,2830.0,81.52326,0.3,68900.0,0.33,276.0,2700.0,25.13261593917898,3.7133437231122337,10026.028052403031,16.587046851862127,5.631743280893771,8.545569087316853,1.918399557781537,2511,86,838,1248,240.26038349251323,137.99015585322,0.0022164819934991577,False
0.31,0.7459493219604059,1.6,2831.0,81.52326,0.3,68900.0,0.33,276.0,2700.0,21.262438784708273,3.233283887134384,8729.866495262837,14.491536688692875,4.535642146000313,6.770902096015398,1.3023582588659295,2229,78,734,1122,212.16973742870326,121.777672403217,0.0018985477464937381,False
0.32,0.7314640890254014,1.6,2832.0,81.52326,0.3,68900.0,0.33,276.0,2700.0,20.34099502140231,3.1859300647091504,8602.011174714706,14.076986400696038,4.328737655758137,6.264008620706273,1.1428075910489865,2132,76,708,1064,203.6287730093923,116.87138567352082,0.0017915405916847686,False
0.33,0.9184754569040029,1.6,2833.0,81.52326,0.3,68900.0,0.33,276.0,2700.0,30.102253977454755,4.8916056294853325,13207.335199610397,19.834477017114963,7.485954063421684,10.267776960339791,2.594348433936352,3068,96,1016,1538,240.98506525317126,138.52613924072637,0.002490515148359672,False
0.34,0.8892830279798982,1.6,2834.0,81.52326,0.3,68900.0,0.33,276.0,2700.0,28.19125752383922,4.710195673948143,12717.528319659987,18.877839381585208,6.920952894733023,9.313418142254012,2.2107572207848802,2676,90,888,1338,220.33125540667714,125.22450483868039,0.0022393463323724626,False
0.3500000000000001,0.8878308944238301,1.6,2835.0,81.52326,0.3,68900.0,0.33,276.0,2700.0,27.872652348442607,4.787916970962348,12927.37582159834,18.830812081874832,6.8935739020738085,9.041840266567775,2.1056569311114606,2725,90,906,1360,219.34181271036573,125.13421067210115,0.0021726688652453146,False
0.36000000000000004,0.7329462036742272,1.6,2836.0,81.52326,0.1,68900.0,0.33,276.0,2700.0,19.616267064893126,3.4332119737835085,9269.672329215473,14.119160593976664,4.349632610190025,5.497106470916462,0.9164206364065168,28720,210,5222,17731,194.51527160421978,111.86531040738916,0.0016664030115803407,False
0.37,0.8896025271206837,1.6,2837.0,81.52326,0.3,68900.0,0.33,276.0,2700.0,27.50456182286504,4.98225654210851,13452.092663692976,18.888193464254325,6.926986002186893,8.616368358610714,1.944729460078383,2592,88,862,1293,208.3517546519296,118.97766412972442,0.0020709451574295735,False
0.38,0.8070441152429766,1.6,2838.0,81.52326,0.3,68900.0,0.33,276.0,2700.0,22.882826374413337,4.232813363080012,11428.596080316034,16.298023434859246,5.475705443923037,6.584802939554091,1.2428920808430242,2300,80,764,1148,188.30427441676102,107.15845935692226,0.0017572100350698005,False
0.39,0.9373402595370937,1.6,2839.0,81.52326,0.2,68900.0,0.33,276.0,2700.0,29.731185110002777,5.673343673371679,15318.027918103535,20.464070271929472,7.8660520729515335,9.267114838073304,2.192708399579854,8276,138,2092,4626,214.12170158547693,122.67672720710368,0.0021641610423600737,False
0.4,0.7933912690743545,1.6,2840.0,81.52326,0.3,68900.0,0.33,276.0,2700.0,21.785718913490616,4.22310249614496,11402.376739591391,15.886188597648083,5.256007725966185,5.899530315842533,1.0329052298212256,2376,80,768,1206,173.2089041207683,98.13009063913253,0.0016576817046740184,False
0.4100000000000001,0.9705134001530429,1.6,2841.0,81.52326,0.3,68900.0,0.33,276.0,2700.0,31.17582053911021,6.246695405665556,16866.077595297,21.592882339908375,8.563556217188141,9.582938199201834,2.3168608115225853,3012,96,1008,1494,199.92490145192738,113.72824147867011,0.0021451152181127166,False
0.42000000000000004,0.8863619519180725,1.6,2842.0,81.52326,0.3,68900.0,0.33,276.0,2700.0,26.204779601092476,5.347834171883313,14439.152264084943,18.78329434580521,6.865947428838503,7.421485255287266,1.51811325695519,2557,86,850,1274,181.37994934066523,102.82342789520929,0.0018435184965769152,False
0.43,0.9298608453879453,1.6,2843.0,81.52326,0.2,68900.0,0.33,276.0,2700.0,28.37837600625889,5.934831769939608,16024.045778836942,20.213382466759953,7.7139311914863,8.164993539498937,1.7790994215466922,7709,132,1932,4327,198.15178575040687,113.42517310484513,0.0019670062185221096,False
0.44,0.7964595347425009,1.6,2844.0,81.52326,0.3,68900.0,0.33,276.0,2700.0,21.15858186078323,4.47647905697005,12086.493453819136,15.978333987931173,5.304892075809277,5.180247872852057,0.8284130188392265,2184,76,722,1089,235.37539755775242,122.84231227345643,0.0015142067908724885,False
0.45,0.8813016062418395,1.6,2845.0,81.52326,0.3,68900.0,0.33,276.0,2700.0,25.2935426018908,5.500195331719851,14850.5273956436,18.62001616000543,6.771310859934389,6.673526441885368,1.2711155282145379,2702,86,854,1383,181.4981599620251,104.13916655766005,0.0017304042502288186,False
0.46,0.9363004553121974,1.6,2846.0,81.52326,0.3,68900.0,0.33,276.0,2700.0,28.068262932408935,6.251840432767516,16879.969168472293,20.429134971056662,7.844791611515513,7.639127961352273,1.592951178747997,2644,88,872,1322,172.96345321031916,98.06962499834091,0.001841919594943463,False
0.4700000000000001,0.9875091064860179,1.6,2847.0,81.52326,0.3,68900.0,0.33,276.0,2700.0,30.749965204077995,7.0087954402425625,18923.74768865492,22.181925189246797,8.935537821993659,8.568040014831197,1.9267423817510965,2919,94,964,1455,176.6764564035567,100.83345342792776,0.0019366235873150466,False
0.4800000000000001,1.0586030844690948,1.6,2848.0,81.52326,0.3,68900.0,0.33,276.0,2700.0,34.74836409395814,8.107984039386086,21891.55690634243,24.72462268277421,10.602171775229145,10.023741411183927,2.4941877358430595,3896,104,1160,2050,198.3756128826167,112.80757845808084,0.0021231985315805168,False
0.49,0.9099053701086115,1.6,2849.0,81.52326,0.3,68900.0,0.33,276.0,2700.0,25.988472043601032,6.120772161280795,16526.084835458147,19.551413841303518,7.317185130136524,6.437058202297514,1.1964129688557295,3077,86,880,1645,179.18202436966217,102.71034548034558,0.0016947657226770614,False
0.5,0.8581585386857475,1.6,2850.0,81.52326,0.3,68900.0,0.33,276.0,2700.0,23.094064721431177,5.511716792558644,14881.63533990834,17.88147927829352,6.348958533518872,5.212585443137659,0.837241740960228,2592,78,764,1368,173.22836958504084,99.20480155530845,0.001530730510683053,False
0.01,0.36029613768371316,1.6,2851.0,84.54263999999999,0.05,68900.0,0.33,276.0,2700.0,10.31692130009221,0.05158251210535813,139.27278268446696,5.25337396194338,0.8484277326719692,5.06354733814883,0.7968452205666111,34077,292,11298,17124,3221.921333015293,1835.0800250396826,0.01816082904872187,True
0.02,0.6333252946241799,1.6,2852.0,84.54263999999999,0.1,68900.0,0.33,276.0,2700.0,22.300147048661746,0.222984715325799,602.0587313796573,11.407263222556788,3.080220503787151,10.892883826104958,2.857235788461352,17446,230,5786,8761,2731.676204430801,1555.2910351343912,0.023332393261300908,True
0.03,0.7094555831488722,1.6,2853.0,84.54263999999999,0.1,68900.0,0.33,276.0,2700.0,26.08924368466189,0.3912821066021632,1056.4616878258407,13.457221876695044,4.025766590414817,12.632021807966847,3.6344844838126544,20414,254,6760,10268,2579.5559322773447,1489.1781772530312,0.020040069555919707,True
0.04,0.7306494838772399,1.6,2854.0,84.54263999999999,0.1,68900.0,0.33,276.0,2700.0,26.991113318213305,0.5396882250777395,1457.1582077098967,14.053829980588604,4.317279902967232,12.9372833376247,3.7775916778894922,21103,258,6948,10675,1775.2605744511848,1013.2554502143098,0.01497773410032559,True
0.05,0.7023584738987152,1.6,2855.0,84.54263999999999,0.2,68900.0,0.33,276.0,2700.0,25.166074312959474,0.6288900584361884,1698.0031577777086,13.25996144985632,3.930959954644126,11.906112863103154,3.3020698962079376,5245,128,1728,2647,1134.524780796527,655.0154765817608,0.011142816958045214,True
0.06000000000000001,0.7397475991298913,1.6,2856.0,84.54263999999999,0.2,68900.0,0.33,276.0,2700.0,26.953350312351553,0.8081481200284284,2181.9999240767565,14.313405133319467,4.446322512904922,12.639945179032086,3.6381743928764942,5528,132,1820,2792,1017.5308999970221,581.2660347324697,0.010174950700465335,True
0.06999999999999999,0.5765886066202065,1.6,2857.0,84.54263999999999,0.2,68900.0,0.33,276.0,2700.0,18.29196354138358,0.6395003464283031,1726.6509353564184,9.974246368485119,2.47404500126249,8.317717172898462,1.8345446548341868,3925,104,1280,1999,714.0066687175716,409.0149495606157,0.005558794018436014,True
0.08,0.6463824935193471,1.6,2858.0,84.54263999999999,0.1,68900.0,0.33,276.0,2700.0,21.473557947085276,0.8578699875909866,2316.248966495664,11.748505005012001,3.2313905770552376,9.725052942073274,2.373520589464251,16981,226,5596,8581,724.0934741233758,415.17734306080104,0.005973478385103608,True
0.09,0.39906165008249406,1.6,2859.0,84.54263999999999,0.2,68900.0,0.33,276.0,2700.0,10.320357361141728,0.4628892672217335,1249.8010214986805,6.0130023150619305,1.0666791473635517,4.307355046079797,0.6037898801418182,2380,76,782,1201,405.80884026393153,234.2897431226197,0.0026254190335801655,True
0.09999999999999999,0.7946355314267611,1.6,2860.0,84.54263999999999,0.3,68900.0,0.33,276.0,2700.0,28.970272048391625,1.446419207317186,3905.331859756402,15.923527454823073,5.275797537994056,13.046744593568551,3.82937833067687,2921,94,964,1469,665.3090707155036,383.7087861390491,0.0068623420335480224,True
0.11,0.5221609082345541,1.6,2861.0,84.54263999999999,0.2,68900.0,0.33,276.0,2700.0,14.953806126565116,0.8196716970797953,2213.113582115447,8.675580252350125,1.9668491223810334,6.278225874214991,1.1471774253012381,3310,94,1086,1675,416.5089713393575,240.39630384160813,0.0031101955084877663,True
0.12,0.6213648065287293,1.6,2862.0,84.54263999999999,0.3,68900.0,0.33,276.0,2700.0,19.297478955175993,1.1542296225736257,3116.4199809487895,11.098443452121003,2.9456344688888474,8.19903550305499,1.7914048463152217,2074,76,682,1045,458.90920310134106,264.94873324633704,0.0036566854805529284,True
0.13,0.7202742266961986,1.6,2863.0,84.54263999999999,0.3,68900.0,0.33,276.0,2700.0,24.072860695912254,1.5601345591943392,4212.3633098247155,13.76035606217407,4.172992575364361,10.312504633738184,2.612858016170022,2542,86,834,1285,476.8107165944968,275.0198909500589,0.004335325777539676,True
0.14,0.4662182847831008,1.6,2864.0,84.54263999999999,0.3,68900.0,0.33,276.0,2700.0,12.035153862521236,0.8367137502155194,2259.1271255819024,7.418357299172554,1.5170472581297838,4.616796563348682,0.6803335079142644,1457,60,480,731,300.4769447633928,172.88386616449333,0.0021425454978847703,True
0.15000000000000002,0.8274383549795137,1.6,2865.0,84.54263999999999,0.2,68900.0,0.33,276.0,2700.0,29.49928262925961,2.2053776137238925,5954.51955705451,16.921936436461053,5.814435591097,12.577346192798558,3.6090579773731077,5868,138,1930,2967,464.57392416175185,267.69561238431316,0.004845836186943532,True
0.16,0.7228299718537818,1.6,2866.0,84.54263999999999,0.3,68900.0,0.33,276.0,2700.0,23.471325038452193,1.869127360736773,5046.643873989287,13.832396585478314,4.208252562382969,9.638928452973879,2.3391252016461963,2373,82,780,1197,391.3582779717491,225.72049718603546,0.003502015217856713,True
0.17,0.8681930403240112,1.6,2867.0,84.54263999999999,0.3,68900.0,0.33,276.0,2700.0,31.34482024729993,2.6540199578824377,7165.853886282582,18.200045306667096,6.5299864761502935,13.144774940632832,3.8759665182678558,3206,98,1050,1625,434.54077594154035,250.21469077657935,0.004691455014864791,True
0.18000000000000002,0.515689945813172,1.6,2868.0,84.54263999999999,0.3,68900.0,0.33,276.0,2700.0,13.316931948786976,1.186309363153672,3203.0352805149146,8.526132631288412,1.911193871053509,4.790799317498564,0.7248845078998369,1384,60,452,700,261.28024782424234,150.56868815002642,0.001949905612929469,False
0.19,0.7937573036624537,1.6,2869.0,84.54263999999999,0.3,68900.0,0.33,276.0,2700.0,26.54752888803929,2.507649788356418,6770.6544285623295,15.897168827700357,5.261824629935267,10.650360060338935,2.754174841578849,2745,90,904,1383,364.93984599752804,209.68936280350798,0.0034911408641640114,True
0.2,0.5137580913144754,1.6,2870.0,84.54263999999999,0.3,68900.0,0.33,276.0,2700.0,12.873046133013533,1.2705494524822072,3430.4835217019595,8.481720219685013,1.8947655376320187,4.3913259133285205,0.6242160851498115,1364,58,446,689,239.67179493526768,138.08360595264918,0.0017627258646177773,False
0.21000000000000002,0.752341096100466,1.6,2871.0,84.54263999999999,0.3,68900.0,0.33,276.0,2700.0,23.824541121128338,2.482180624675212,6701.887686623072,14.676138598946173,4.628858195396085,9.148402522182165,2.146677570720873,2409,82,790,1218,385.3832081776527,221.2813290088556,0.002840508531937131,True
0.22,0.6345124149978858,1.6,2872.0,84.54263999999999,0.3,68900.0,0.33,276.0,2700.0,17.764404717914218,1.9317833999201237,5215.815179784334,11.438110800733673,3.093780604757441,6.326293917180545,1.1619972048373175,1911,72,630,960,265.2078556213991,153.01174748431288,0.0021465102468397395,False
0.23,0.7636438125212146,1.6,2873.0,84.54263999999999,0.3,68900.0,0.33,276.0,2700.0,23.948457447252274,2.7285901012231943,7367.193273302625,15.005087485463255,4.796594411945872,8.943369961789019,2.0680043107226775,2421,82,792,1227,298.26793161526865,171.47173814934058,0.0026670698969455003,True
0.24000000000000005,0.6330418219110903,1.6,2874.0,84.54263999999999,0.3,68900.0,0.33,276.0,2700.0,17.292466201604526,2.0461430262970604,5524.586171002063,11.399902361732941,3.0769878992818276,5.892563839871585,1.0308448729847672,1920,72,632,966,239.11519078364503,137.76267122148226,0.0019835613992943827,False
0.25,0.7785847556215446,1.6,2875.0,84.54263999999999,0.3,68900.0,0.33,276.0,2700.0,24.26982960172437,3.0010037767406503,8102.710197199756,15.444848929057024,5.024062810212855,8.824980672667348,2.0230590334722045,2494,86,824,1252,274.69648975219405,157.89731421542143,0.002537888055912506,False
0.26,0.6311571087499601,1.6,2876.0,84.54263999999999,0.3,68900.0,0.33,276.0,2700.0,16.813405142291288,2.148931580178204,5802.115266481151,11.351013865827898,3.0555484376823996,5.462391276463389,0.9066168575041957,1770,68,586,885,220.5798654404454,127.0749056013961,0.001833947446364699,False
0.27,0.5906390178824165,1.6,2877.0,84.54263999999999,0.3,68900.0,0.33,276.0,2700.0,14.836941095368925,1.9617630690743375,5296.760286500711,10.32158534060494,2.6166215831475967,4.515355754763984,0.6548585140732592,1634,64,540,818,202.58212422479542,116.59256540708884,0.0016285502288616693,False
0.28,0.6836464687853778,1.6,2878.0,84.54263999999999,0.3,68900.0,0.33,276.0,2700.0,18.85128148657065,2.5932032468321564,7001.648766446822,12.745939894878068,3.687662397243232,6.10534159169258,1.0944591504110757,2010,74,664,1008,223.52303817247386,128.38435272982295,0.001920379083230444,False
0.29000000000000004,0.7835758848616265,1.6,2879.0,84.54263999999999,0.3,68900.0,0.33,276.0,2700.0,23.616353984646327,3.3732911256214497,9107.886039177914,15.593004541612258,5.101519518807829,8.02334944303407,1.7282283931863796,2450,84,810,1229,242.45564691196944,139.10760265041577,0.002232255468315598,False
0.3,0.8794773263378639,1.6,2880.0,84.54263999999999,0.3,68900.0,0.33,276.0,2700.0,28.606564360470458,4.234435986305954,11432.977163026075,18.56131138521836,6.737396298327936,10.045252975252097,2.5029603120219823,2920,94,964,1468,258.08131912702135,147.6240761311581,0.0025603021105973017,False
0.31,0.7945526880547071,1.6,2881.0,84.54263999999999,0.3,68900.0,0.33,276.0,2700.0,23.742769728397427,3.617735183406208,9767.884995196762,15.921040213085833,5.274478482311641,7.821729515311594,1.6567432989054325,2494,84,820,1258,230.36351047199213,132.0701220706928,0.0021414942428476524,False
0.32,0.9305316942178108,1.6,2882.0,84.54263999999999,0.3,68900.0,0.33,276.0,2700.0,31.05764541550947,4.900594127766295,13231.604144968996,20.235809935081058,7.727498837549822,10.821835480428412,2.826904709783527,3006,96,994,1509,253.6593457635003,144.9064778251968,0.0026619300187600728,False
0.33,0.7172052736180734,1.6,2883.0,84.54263999999999,0.3,68900.0,0.33,276.0,2700.0,19.45072815386481,3.1341038685929887,8462.080445201069,13.67406631877896,4.1308951583962354,5.776661835085848,0.9967912898032467,2109,76,698,1056,201.19576500097884,115.53417700331036,0.0017639553495098336,False
0.34,0.8594450124070652,1.6,2884.0,84.54263999999999,0.3,68900.0,0.33,276.0,2700.0,26.534907796084514,4.428616220229907,11957.263794620749,17.922179626598844,6.371988762213711,8.61272816948567,1.9433725419838037,2555,86,850,1274,228.0176165519092,130.42279095869844,0.0022059422424559284,False
0.3500000000000001,0.7697612760770298,1.6,2885.0,84.54263999999999,0.3,68900.0,0.33,276.0,2700.0,21.61855559549262,3.6934500391961005,9972.315105829472,15.184466401545196,4.888935680298392,6.434089193947424,1.1954856411022914,2251,80,750,1120,197.3422202420131,112.97469186226425,0.0018389442372222001,False
0.36000000000000004,0.7006146446577617,1.6,2886.0,84.54263999999999,0.2,68900.0,0.33,276.0,2700.0,18.093847667493478,3.159176482251571,8529.776502079241,13.211686368146102,3.9078789489898265,4.882161299347375,0.7487024667382554,4435,102,1232,2393,198.45199278743607,114.23834284064183,0.001617717076528294,False
0.37,0.9098450298720531,1.6,2887.0,84.54263999999999,0.3,68900.0,0.33,276.0,2700.0,28.63879233885728,5.192089187567076,14018.640806431105,19.549427395192726,7.316005453132061,9.089364943664552,2.1239162655649855,2882,92,958,1439,216.59150387940397,123.33330096402597,0.0022252567884154402,False
0.38,0.8127307119423945,1.6,2888.0,84.54263999999999,0.3,68900.0,0.33,276.0,2700.0,23.174350509937817,4.2882029488296665,11578.147961840099,16.470940257652014,5.568876999174048,6.703410252285803,1.2806740503443814,2528,84,838,1265,198.05602911571134,113.18824392513255,0.0018548410932908107,False
0.39,1.0860286278107143,1.6,2889.0,84.54263999999999,0.3,68900.0,0.33,276.0,2700.0,38.82455393006215,7.446550593283255,20105.68660186479,25.7394592072497,11.294131003726552,13.085094722812453,3.847580410443297,3657,108,1216,1827,237.2535628153615,134.50079117636773,0.0028633784165387572,False
0.4,0.8109290174115034,1.6,2890.0,84.54263999999999,0.3,68900.0,0.33,276.0,2700.0,22.669166554853152,4.399792024417464,11879.438465927153,16.41606675646774,5.539250841085726,6.2530997983854135,1.1394588166682622,2344,80,770,1179,183.63531119124502,104.5551925567908,0.0017745875118630498,False
0.4100000000000001,0.7481244060918962,1.6,2891.0,84.54263999999999,0.2,68900.0,0.33,276.0,2700.0,19.390127139707527,3.830628258788004,10342.696298727611,14.554240407037007,4.567230628872213,4.83588673267052,0.7366023700842095,5244,104,1330,2927,188.63038299147465,108.47356964960272,0.0015834691881991927,False
0.42000000000000004,1.0881610020503325,1.6,2892.0,84.54263999999999,0.3,68900.0,0.33,276.0,2700.0,38.1463627249313,7.855566627889468,21210.029895301563,25.81915620223142,11.349102115084184,12.327206522699882,3.493535487194716,3551,106,1182,1772,219.65739328917067,124.34616032522807,0.0026186513718822898,False
0.43,1.0747551811223388,1.6,2893.0,84.54263999999999,0.3,68900.0,0.33,276.0,2700.0,37.02575836463849,7.794018976991302,21043.851237876515,25.320015892736514,11.006325869231201,11.705742471901978,3.2123068922398987,3528,106,1174,1759,211.72614858698302,119.56523866836808,0.0024851014589340214,False
0.44,0.7584708094185646,1.6,2894.0,84.54263999999999,0.3,68900.0,0.33,276.0,2700.0,19.330281427367236,4.074252961618524,11000.482996370014,14.854136394524597,4.719363772984717,4.4761450328426395,0.6451108113661927,1971,70,652,985,159.9314563639058,91.42739697253964,0.001492966905750601,False
0.45,0.8329438981914518,1.6,2895.0,84.54263999999999,0.2,68900.0,0.33,276.0,2700.0,22.784737546679317,4.935714194297266,13326.428324602619,17.092157235759718,5.908068272851037,5.692580310919599,0.9723540785537708,6112,116,1538,3419,183.85738070945487,105.67876980208912,0.001687461983451106,False
0.46,1.1588699538191023,1.6,2896.0,84.54263999999999,0.3,68900.0,0.33,276.0,2700.0,41.690074387583465,9.384857067457661,25339.114082135686,28.526610469261243,13.269727786033746,13.163463918322222,3.884870718576085,4205,114,1374,2116,216.57762567432704,123.08403270289531,0.00265930215389301,False
0.4700000000000001,0.9428707921650368,1.6,2897.0,84.54263999999999,0.3,68900.0,0.33,276.0,2700.0,28.214082964025824,6.412863113830301,17314.730407341813,20.650341516582596,7.979744016598577,7.563741447443228,1.5668809027682755,2717,88,876,1375,187.7740662840461,107.17554181541703,0.0018960154879643812,False
0.4800000000000001,0.8002619938106196,1.6,2898.0,84.54263999999999,0.3,68900.0,0.33,276.0,2700.0,20.60138581517643,4.7127092524784775,12724.314981691889,16.09285679611992,5.365866655773466,4.50852901905651,0.6531574032949887,2270,74,704,1170,182.21995256316353,104.41678456378476,0.001505003807224005,False
0.49,1.0786324172874804,1.6,2899.0,84.54263999999999,0.3,68900.0,0.33,276.0,2700.0,35.73558981857242,8.50881601614879,22973.803243601735,25.46391316647212,11.104776390334754,10.2716766521003,2.595960374185964,3799,104,1144,1987,201.52364176969783,114.5857694426797,0.002261254958007354,False
0.5,1.1593880911809096,1.6,2900.0,84.54263999999999,0.3,68900.0,0.33,276.0,2700.0,40.639571524781076,9.898093493396123,26724.852432169533,28.546913778294353,13.284513748383748,12.092657746486722,3.386420254987625,4465,112,1340,2343,245.20713100034425,137.4986098020174,0.002632361107618026,False
0.01,0.5692500902535023,1.6,2901.0,87.56201999999999,0.05,68900.0,0.33,276.0,2700.0,19.3472655413387,0.0967342333115914,261.1824299412968,9.794804010659897,2.4015080791016468,9.552461530678803,2.3047738457900553,59464,422,19714,29887,5605.0567935657,3188.3613598292973,0.04008636672922604,True
0.02,0.43610952942262965,1.6,2902.0,87.56201999999999,0.08,68900.0,0.33,276.0,2700.0,13.133288717301264,0.13131613201219375,354.55355643292313,6.774268328946205,1.3034432775469014,6.359020388355059,1.1721271455347075,16537,212,5442,8368,1912.4946909724538,1089.9365223789691,0.01275658276235842,True
0.03,0.3789698287313199,1.6,2903.0,87.56201999999999,0.1,68900.0,0.33,276.0,2700.0,10.653138155238295,0.1597405236608095,431.2994138841857,5.614578917799934,0.9498864919192461,5.038559237438362,0.7901459682584366,8513,148,2796,4313,1054.720945617674,608.2198486158952,0.00702423453477201,True
0.04,0.5136264553649964,1.6,2904.0,87.56201999999999,0.1,68900.0,0.33,276.0,2700.0,16.059023472724196,0.3210464281679319,866.825356053416,8.478697385518604,1.8936492372992861,7.5803260872055915,1.5726028091313542,13067,192,4292,6623,1191.372328699306,680.2230809023617,0.008335317105116577,True
0.05,0.3975940112699102,1.6,2905.0,87.56201999999999,0.1,68900.0,0.33,276.0,2700.0,10.99624046228974,0.27464421216944374,741.539372857498,5.983555365147473,1.0578758471500003,5.012685097142266,0.7832316349805566,8819,152,2894,4472,709.8905444810466,406.9338442121253,0.004659911080421209,True
0.06000000000000001,0.4223676757721204,1.6,2906.0,87.56201999999999,0.1,68900.0,0.33,276.0,2700.0,11.780885331041466,0.3529741705891265,953.0302605906415,6.487873818116182,1.2123255042460173,5.2930115129252835,0.8593513336568908,9410,158,3090,4769,642.3229958081972,368.82192018268177,0.004260650149868422,True
0.06999999999999999,0.7220519971875257,1.6,2907.0,87.56201999999999,0.2,68900.0,0.33,276.0,2700.0,25.70845805269815,0.8990776543243166,2427.509666675655,13.810449905510719,4.197499846232549,11.89800814718743,3.298422191908232,5336,128,1758,2693,901.0068399076628,514.9018762552178,0.008584164048187801,True
0.08,0.6546869380340552,1.6,2908.0,87.56201999999999,0.2,68900.0,0.33,276.0,2700.0,21.895382331013256,0.8747429629481066,2361.8059999598877,11.967765735177448,3.3298646048113625,9.927616595835808,2.455121641863256,4637,118,1528,2339,735.2412807772055,421.04371684337053,0.006266947730733119,True
0.09,0.7129657797006029,1.6,2909.0,87.56201999999999,0.2,68900.0,0.33,276.0,2700.0,24.69482599844057,1.1097403559001804,2996.298960930487,13.55525384042566,4.073176049388491,11.13957215801491,2.9634356934883104,5047,124,1662,2548,709.9041751914057,406.5439319430605,0.006462961192998145,True
0.09999999999999999,0.442930907484661,1.6,2910.0,87.56201999999999,0.2,68900.0,0.33,276.0,2700.0,11.843538501279385,0.5900825299615765,1593.2228308962565,6.918195616142932,1.3501433493565425,4.925342885136453,0.760060819394966,2533,80,826,1288,407.5333580135478,234.33815360886695,0.0028257142608026182,True
0.11,0.7562883909611966,1.6,2911.0,87.56201999999999,0.3,68900.0,0.33,276.0,2700.0,26.53668430408101,1.4567299968431688,3933.170991476556,14.790653940192568,4.687015125959768,11.746030363888442,3.2302851291165986,2718,88,884,1386,605.9224995655256,349.6618327797311,0.005857102406915898,True
0.12,0.6690345474719258,1.6,2912.0,87.56201999999999,0.3,68900.0,0.33,276.0,2700.0,21.658157798952008,1.2958703532001838,3498.8499536404966,12.350667149822932,3.504314107579268,9.307490649129075,2.2084437543790845,2250,80,738,1137,492.3832923633606,284.2753360046015,0.004271569143195508,True
0.13,0.5506727580635273,1.6,2913.0,87.56201999999999,0.3,68900.0,0.33,276.0,2700.0,15.799477469273222,1.0223646494627001,2760.38455354929,9.346598710349417,2.2237234085542394,6.452878758923806,1.2013587590915393,1693,66,556,853,388.8958053803876,224.477913913507,0.0029722924740732673,True
0.14,0.5385861090395707,1.6,2914.0,87.56201999999999,0.3,68900.0,0.33,276.0,2700.0,15.063103091191929,1.0486701962224678,2831.409529800663,9.059648039530524,2.11249218447704,6.003455051661405,1.063821988254572,1725,66,562,876,364.4618113968627,210.41805983263848,0.002693134173476147,True
0.15000000000000002,0.7989164719840768,1.6,2915.0,87.56201999999999,0.3,68900.0,0.33,276.0,2700.0,27.867516131293772,2.0829951263764572,5624.086841216435,16.05229070462713,5.344240662085507,11.815225426666643,3.26124553570905,2893,92,942,1474,475.79142259991653,274.1063512056279,0.0046957917255559785,True
0.16,0.7487639959509078,1.6,2916.0,87.56201999999999,0.3,68900.0,0.33,276.0,2700.0,24.847647451832042,1.9792331538071635,5343.929515279341,14.572701241500436,4.576545276575451,10.274946210331606,2.5973121227682876,2610,86,852,1326,417.6709852336497,240.3990276534898,0.0038752703092042495,True
0.17,0.6716591020744764,1.6,2917.0,87.56201999999999,0.2,68900.0,0.33,276.0,2700.0,20.62697313102067,1.743002952998698,4706.107973096484,12.421269636449114,3.5368217200686107,8.205703494571555,1.7938187670699128,4343,112,1434,2186,354.00070251709764,204.26997342635025,0.003045211296968992,True
0.18000000000000002,0.7603702907754186,1.6,2918.0,87.56201999999999,0.3,68900.0,0.33,276.0,2700.0,24.976731229788907,2.235691298443842,6036.3665057983735,14.909486173221444,4.747631481720941,10.067245056567463,2.5119401832770984,2653,86,864,1351,381.2599499711827,219.53840972761807,0.003519736770089622,True
0.19,0.6479574420062523,1.6,2919.0,87.56201999999999,0.3,68900.0,0.33,276.0,2700.0,19.02932756132944,1.793420662318978,4842.2357882612405,11.789954895897552,3.249926499775815,7.239372665431887,1.456505837456837,2066,74,674,1049,315.46056568700425,181.9557758233751,0.0026122141053964675,True
0.2,0.7162671064188493,1.6,2920.0,87.56201999999999,0.3,68900.0,0.33,276.0,2700.0,22.187154591339752,2.20196029831483,5945.292805450041,13.647735116158206,4.118078951160664,8.539419475181546,1.9161186528458338,2162,78,716,1082,325.3931930819081,187.70279203827593,0.0028631513646863523,True
0.21000000000000002,0.6548697226134699,1.6,2921.0,87.56201999999999,0.3,68900.0,0.33,276.0,2700.0,18.931928228024972,1.9684562708993565,5314.831931428263,11.972611257653561,3.332052570668405,6.959316970371411,1.3635962997690485,2107,74,686,1072,290.21601414068044,167.29445352321738,0.0024133048436883915,True
0.22,0.5698175228823348,1.6,2922.0,87.56201999999999,0.3,68900.0,0.33,276.0,2700.0,14.86315564359319,1.6126460017449675,4354.144204711412,9.80863066551372,2.4070698929552203,5.0545249780794705,0.7944238912102528,1555,62,510,784,264.4637360015091,151.26698311874608,0.002238222473506599,False
0.23,0.630281980453669,1.6,2923.0,87.56201999999999,0.3,68900.0,0.33,276.0,2700.0,17.365872283193365,1.9715928073564182,5323.300579862329,11.328343835692536,3.045624765252944,6.037528447500829,1.0740319578965256,1948,72,640,982,256.8358067994559,148.14883747537758,0.0021178075071950453,False
0.24000000000000005,0.7166334240874443,1.6,2924.0,87.56201999999999,0.3,68900.0,0.33,276.0,2700.0,21.30447639364411,2.52758424934181,6824.477473222887,13.658013790519803,4.1230802401970825,7.646462603124306,1.5954959908552726,2141,76,706,1076,275.6843885357022,158.71603283981568,0.0024259950782831797,False
0.25,0.6980842081789274,1.6,2925.0,87.56201999999999,0.3,68900.0,0.33,276.0,2700.0,20.169474114136527,2.4884593407921574,6718.840220138825,13.14177125680741,3.8745361076658167,7.027702857329118,1.3860767668736593,2178,76,716,1098,260.6151287493343,149.94565771907645,0.002256835063575602,False
0.26,0.7158833838278524,1.6,2926.0,87.56201999999999,0.2,68900.0,0.33,276.0,2700.0,20.83167586015288,2.6713067735002074,7212.52828845056,13.636971685843461,4.112844072084696,7.19470417430942,1.441537298584489,4490,112,1486,2255,253.99951978019436,146.07734576123636,0.0022568357190990403,False
0.27,0.801263662036383,1.6,2927.0,87.56201999999999,0.3,68900.0,0.33,276.0,2700.0,25.010676455198674,3.3352173426514153,9005.086825158822,16.123085602038046,5.382001496600201,8.887590853160628,2.0467841539487854,2553,86,842,1284,271.9455714327718,156.02815389951536,0.0025504657070931545,False
0.28,0.8564258229621753,1.6,2928.0,87.56201999999999,0.3,68900.0,0.33,276.0,2700.0,27.796978131886664,3.8456007771763967,10383.12209837627,17.82672684928275,6.318022459305302,9.970251282603915,2.4724216821289056,2905,92,954,1468,277.242128625017,158.77070671783363,0.0027321385373732425,True
0.29000000000000004,0.9290759211819535,1.6,2929.0,87.56201999999999,0.3,68900.0,0.33,276.0,2700.0,31.744179918900937,4.551825886088372,12289.929892438604,20.187155649172713,7.698075512347945,11.557024269728224,3.146249626259573,3053,98,1006,1538,288.6842825936254,164.59979372759182,0.0030845349846127536,True
0.3,0.8032866745520961,1.6,2930.0,87.56201999999999,0.3,68900.0,0.33,276.0,2700.0,24.42683337150068,3.607476337960394,9740.186112493064,16.18421390042666,5.414680514881796,8.242619471074022,1.8072041769214016,2489,84,816,1259,247.48320051408547,141.8088621191589,0.0023218479309829137,False
0.31,0.8429802545134286,1.6,2931.0,87.56201999999999,0.3,68900.0,0.33,276.0,2700.0,26.33222729641907,4.019101106449554,10851.572987413796,17.404422208998906,6.081176137127942,8.927805087420165,2.062075030678388,2656,88,882,1327,250.98059744314702,143.6457874536842,0.0024259120471632964,False
0.32,0.8644167977470121,1.6,2932.0,87.56201999999999,0.3,68900.0,0.33,276.0,2700.0,27.277480474335164,4.295767737178393,11598.57289038166,18.079863690995648,6.4614857204086595,9.197616783339516,2.165717983230267,2780,90,924,1388,249.83510003197122,142.79167162324634,0.0024356431479746784,False
0.33,0.9985953477240099,1.6,2933.0,87.56201999999999,0.3,68900.0,0.33,276.0,2700.0,34.90893728947717,5.684708375969029,15348.712615116377,22.570068032862814,9.183600664642803,12.338869256614359,3.4988922886737743,3329,102,1098,1676,267.76606675272865,152.64307903320588,0.0030606255063579733,False
0.34,0.857260442816101,1.6,2934.0,87.56201999999999,0.3,68900.0,0.33,276.0,2700.0,26.415397476050767,4.40829946582417,11902.408557725259,17.853090748803577,6.3329120001635495,8.56230672724719,1.9246125343393796,2539,86,844,1267,237.27451018534242,135.75651094447497,0.0022767722557773405,False
0.3500000000000001,0.6714860119602283,1.6,2935.0,87.56201999999999,0.3,68900.0,0.33,276.0,2700.0,16.947313266946654,2.8759826317005572,7765.153105591505,12.416608050381699,3.5346721245362236,4.5307052165649555,0.6586894928356664,1820,68,606,905,182.38914823556425,104.58618312001441,0.0015994296385983039,False
0.36000000000000004,0.7943112604196887,1.6,2936.0,87.56201999999999,0.2,68900.0,0.33,276.0,2700.0,22.65031334889329,3.9793403049035367,10744.21882323955,15.913792712477218,5.270635578128901,6.736520636416074,1.291295273225364,5448,116,1526,2943,223.86829677444885,128.23639585293054,0.0019767280443942943,False
0.37,0.6833978257547524,1.6,2937.0,87.56201999999999,0.3,68900.0,0.33,276.0,2700.0,17.1240337267429,3.0618588443259225,8267.01887967999,12.739168877271876,3.684494049934965,4.384864849471025,0.6226352056090425,1774,68,592,880,172.72660869474726,99.17097367403245,0.0015600589703589722,False
0.38,1.020524089398111,1.6,2938.0,87.56201999999999,0.2,68900.0,0.33,276.0,2700.0,34.94178710582185,6.5240159020476325,17614.842935528606,23.346917820674857,9.687029440141368,11.594869285146995,3.163013538093735,9224,154,2398,5113,246.29637651815483,140.42568714566966,0.002707117065593766,False
0.39,1.0006074764823105,1.6,2939.0,87.56201999999999,0.3,68900.0,0.33,276.0,2700.0,33.46460653958417,6.401360852140042,17283.67430077811,22.640846312110497,9.229085738052264,10.82376022747367,2.8277248859122226,3234,100,1072,1620,232.9710278851663,132.62459334310287,0.0025186044448163828,False
0.4,0.9935372584361377,1.6,2940.0,87.56201999999999,0.3,68900.0,0.33,276.0,2700.0,32.786444754581616,6.423247664363157,17342.768693780527,22.39259498991268,9.069888353578401,10.393849764668936,2.6466406892152436,3217,100,1068,1609,222.51299763772903,125.78368065081669,0.002434427319993696,False
0.4100000000000001,0.7886459880705728,1.6,2941.0,87.56201999999999,0.3,68900.0,0.33,276.0,2700.0,21.35238562730125,4.232891248744713,11428.806371610726,15.744145429813782,5.18096053815622,5.608240197487467,0.9480692894115066,2131,76,712,1057,188.7604255368209,108.08074011683345,0.0017147043551019238,False
0.42000000000000004,0.823205904225284,1.6,2942.0,87.56201999999999,0.3,68900.0,0.33,276.0,2700.0,22.88804071466756,4.651319005734085,12558.56131548203,16.79159513581755,5.743090318825681,6.0964455788500125,1.0917713130915958,2588,82,822,1321,188.54489772017308,107.616018987573,0.0017996838150906396,False
0.43,0.748698335257928,1.6,2943.0,87.56201999999999,0.3,68900.0,0.33,276.0,2700.0,19.051059716712665,3.929458767687248,10609.538672755569,14.570805567186694,4.575588485149583,4.480254149525971,0.6461297174623355,1952,70,648,974,168.36533956164115,96.12692475036444,0.001546260518428765,False
0.44,1.005201533650783,1.6,2944.0,87.56201999999999,0.3,68900.0,0.33,276.0,2700.0,32.49921492219155,6.971418330479881,18822.829492295677,22.80282741990333,9.333470952516446,9.696387502288218,2.3620526220365656,3239,98,1086,1602,208.75502388268137,118.28305528525517,0.0022731064210734135,False
0.45,0.9190172593439057,1.6,2945.0,87.56201999999999,0.3,68900.0,0.33,276.0,2700.0,27.3318250156876,5.958808874824131,16088.783962025153,19.852434360583253,7.4967052957969,7.479390655104346,1.5378964209727695,2682,88,884,1342,189.02399641771913,107.23147248185654,0.0019655175522995997,False
0.46,1.1425461269708483,1.6,2946.0,87.56201999999999,0.3,68900.0,0.33,276.0,2700.0,40.606400380371205,9.135612045798831,24666.152523656845,27.89041308696601,12.809266034250417,12.715987293405195,3.6736539884515853,3733,110,1238,1868,217.0451407957872,122.75795553456527,0.0026716273662320497,False
0.4700000000000001,0.8551715230714292,1.6,2947.0,87.56201999999999,0.3,68900.0,0.33,276.0,2700.0,23.523615875265698,5.3106033479716706,14338.62903952351,17.78713905872435,6.2956872293795465,5.736476816541348,0.985083881407876,2798,82,814,1485,189.78747821506954,108.56202598680706,0.0017342452809558978,False
0.4800000000000001,1.0348762836011145,1.6,2948.0,87.56201999999999,0.3,68900.0,0.33,276.0,2700.0,33.309159171944074,7.762574858102713,20958.952116877324,23.861903530631118,10.025798334454255,9.447255641312957,2.2632234763515413,3216,98,1042,1623,207.26698258013906,119.04074293330825,0.0021914822574150583,False
0.49,0.8200333079261451,1.6,2949.0,87.56201999999999,0.2,68900.0,0.33,276.0,2700.0,21.380798737094874,4.99189220118679,13478.108943204332,16.694188023832258,5.6899719498436925,4.686610713262617,0.6980797486569026,5727,110,1428,3217,181.10724167614106,103.60654706069026,0.0015962175321286942,False
0.5,0.842662713794909,1.6,2950.0,87.56201999999999,0.3,68900.0,0.33,276.0,2700.0,22.314839768338604,5.316910554285503,14355.658496570857,17.394503662470488,6.075651099232514,4.920336105868117,0.7587405449470115,2754,78,762,1493,188.7472528519176,108.08130782298801,0.0016205949705721816,False
0.01,0.3534204279848162,1.6,2951.0,90.5814,0.05,68900.0,0.33,276.0,2700.0,10.057070908414724,0.050283260146971674,135.7648023968235,5.122584738941508,0.8127573735213853,4.9344861694732165,0.7624741133744136,32939,288,10914,16562,3389.4584687247047,1928.896047021286,0.018924185005701085,True
0.02,0.45301616077508183,1.6,2952.0,90.5814,0.1,68900.0,0.33,276.0,2700.0,13.842516899018158,0.1384084138293626,373.702717339279,7.133131519712956,1.4209967975530848,6.709385379305202,1.2825883837237222,11206,176,3710,5635,1962.418825794966,1118.643239570746,0.014041593044384246,True
0.03,0.6068121703219049,1.6,2953.0,90.5814,0.1,68900.0,0.33,276.0,2700.0,20.707277202767663,0.31055260937375084,838.4920453091273,10.727542980746742,2.7868281034950533,9.979734222020921,2.4762754941213023,16670,224,5502,8411,1942.5056032402697,1105.8801960673923,0.015372254295569045,True
0.04,0.36996093119456525,1.6,2954.0,90.5814,0.08,68900.0,0.33,276.0,2700.0,10.124508620146862,0.2023561311163843,546.3615540142376,5.439225790380664,0.9000967262624009,4.685282829766199,0.6977405951460166,12946,182,4254,6559,912.2112972448747,522.354899592262,0.005397470073497359,True
0.05,0.5679935151268088,1.6,2955.0,90.5814,0.2,68900.0,0.33,276.0,2700.0,18.343426987367796,0.4583238752963978,1237.474463300274,9.76421379358494,2.3892193956194694,8.579213193782856,1.9308955203230715,4028,106,1326,2033,1011.6670055435238,583.8255687871251,0.008178921006526473,True
0.06000000000000001,0.4154521016796066,1.6,2956.0,90.5814,0.1,68900.0,0.33,276.0,2700.0,11.506648681808375,0.3447470711121339,930.8170920027615,6.345541273476182,1.1679509804801076,5.161107408332193,0.8232039093679737,9449,158,3106,4784,639.3802178393385,366.78782923271916,0.004313681686329129,True
0.06999999999999999,0.652787141192867,1.6,2957.0,90.5814,0.2,68900.0,0.33,276.0,2700.0,22.044321030509398,0.7708328585477084,2081.248718078813,11.917452844847807,3.307176087767499,10.126868185661591,2.5363432292197907,4539,118,1498,2286,832.6182090694791,476.20128455597944,0.007406873684416389,True
0.08,0.7322155011317754,1.6,2958.0,90.5814,0.2,68900.0,0.33,276.0,2700.0,26.00069293016427,1.0389553869141464,2805.179544668195,14.09836124731973,4.339323303531571,11.90233168284454,3.3003679166174242,5231,128,1718,2648,843.6780435819045,482.79026490120975,0.007939640903183217,True
0.09,0.576438670898386,1.6,2959.0,90.5814,0.2,68900.0,0.33,276.0,2700.0,17.834268514933402,0.8010152691423581,2162.7412266843667,9.970566576341673,2.4725497813068196,7.8637019385917295,1.6715345121644614,3911,104,1274,1994,575.1307979237674,332.0097635337584,0.004610814492916304,True
0.09999999999999999,0.549044050512267,1.6,2960.0,90.5814,0.2,68900.0,0.33,276.0,2700.0,16.35589048304321,0.8157001290497669,2202.3903484343705,9.307717315258786,2.208532204915204,7.048173167784425,1.392832075865437,3761,100,1236,1901,501.0824365287219,289.1710012960907,0.0039051303227280033,True
0.11,0.7559801613711817,1.6,2961.0,90.5814,0.3,68900.0,0.33,276.0,2700.0,26.519624090435087,1.4557916850926438,3930.637549750138,14.781697767370737,4.6824575890998,11.73792632306435,3.226665904007157,2718,88,884,1386,626.5629809496767,361.573621705164,0.006054514151284147,True
0.12,0.6571489122986852,1.6,2962.0,90.5814,0.3,68900.0,0.33,276.0,2700.0,21.058873498252527,1.2599132951582164,3401.7658969271843,12.033101883884312,3.35940933276057,9.025771614368216,2.0994960376023535,2227,78,732,1123,509.22438869845394,293.99668668923465,0.004271049045304912,True
0.13,0.5689998922558291,1.6,2963.0,90.5814,0.2,68900.0,0.33,276.0,2700.0,16.623820595170272,1.0759469526461092,2905.056772144495,9.788709996170713,2.3990582011384927,6.8351105989995595,1.3231112484923835,3562,98,1166,1807,404.5406408324582,233.30052298301877,0.0032096859829812484,True
0.14,0.6883281269148903,1.6,2964.0,90.5814,0.3,68900.0,0.33,276.0,2700.0,22.164367802432338,1.5457587260092958,4173.548560225098,12.873720312193585,3.7476334275745895,9.290647490238753,2.201874701565294,2235,80,736,1125,453.76127839050423,261.7567176173588,0.003954394830772971,True
0.15000000000000002,0.8412668051289264,1.6,2965.0,90.5814,0.3,68900.0,0.33,276.0,2700.0,30.30514132506478,2.265817015909284,6117.705942955066,17.350931798803597,6.05140037769743,12.954209526261184,3.785583361788146,3082,96,1010,1561,512.3722067779886,295.18873645490567,0.005374845713350663,True
0.16,0.5110009644267646,1.6,2966.0,90.5814,0.3,68900.0,0.33,276.0,2700.0,13.495342147637178,1.0710487294715714,2891.8315695732426,8.418497649798848,1.871467558980354,5.07684449783833,0.8004188295087826,1433,60,470,722,319.32667701302915,184.36252188602134,0.0022956356876404765,True
0.17,0.8498861917512626,1.6,2967.0,90.5814,0.3,68900.0,0.33,276.0,2700.0,30.264465968549107,2.56218984418862,6917.9125793092735,17.620759557820847,6.202116300835367,12.64370641072826,3.6399264566467466,3018,96,988,1530,464.659233766929,267.29851662959715,0.004824866429219639,True
0.18000000000000002,0.5798187575077849,1.6,2968.0,90.5814,0.3,68900.0,0.33,276.0,2700.0,16.08187364543835,1.4351541158522945,3874.916112801195,10.05365943428043,2.5063915095276825,6.02821421115792,1.071237393675388,1905,70,624,963,316.8768001995348,182.92710697356668,0.0024331213387075866,True
0.19,0.7709772411562394,1.6,2969.0,90.5814,0.3,68900.0,0.33,276.0,2700.0,25.302438087767044,2.389366162330554,6451.288638292496,15.220233513030674,4.907421203202883,10.08220457473637,2.518055040872329,2718,90,892,1374,407.2477600590239,234.7519614467009,0.004003986408243664,True
0.2,0.6234629372277942,1.6,2970.0,90.5814,0.2,68900.0,0.33,276.0,2700.0,17.66288329549654,1.749533168730507,4723.739555572369,11.152357151314101,2.9689769934568244,6.510526144182437,1.2194438247263175,3814,102,1250,1933,294.03294197346275,169.60420639927088,0.002449390835752299,True
0.21000000000000002,0.8974476122504036,1.6,2971.0,90.5814,0.3,68900.0,0.33,276.0,2700.0,31.99288148346582,3.339856362720651,9017.612179345757,19.143235854819622,7.076164891259583,12.849645628646197,3.736308528538932,3085,98,1012,1561,392.7172524348721,225.01569658488606,0.004290267466530088,True
0.22,0.844787983829197,1.6,2972.0,90.5814,0.3,68900.0,0.33,276.0,2700.0,28.647398468421883,3.1289127124761253,8448.064323685538,17.460935836385147,6.112689689677084,11.186462632036736,2.9837769772009586,2970,94,974,1503,357.3980704774288,204.90414639857377,0.0036049540659209515,True
0.23,0.5483835047707111,1.6,2973.0,90.5814,0.3,68900.0,0.33,276.0,2700.0,13.766536065616103,1.5576691423350326,4205.706684304588,9.291967409321785,2.2023892342492775,4.474568656294318,0.6447200919142448,1438,60,474,721,232.19812490225013,133.47753025815942,0.0018144837063598256,False
0.24000000000000005,0.924272335434557,1.6,2974.0,90.5814,0.3,68900.0,0.33,276.0,2700.0,32.78998019281602,3.9058447052424388,10545.780704154584,20.02698989345373,7.601489696304621,12.762990299362286,3.6956449910621822,3210,100,1056,1620,351.7471975530193,201.15526017825218,0.003912039856673242,True
0.25,0.5829370677846755,1.6,2975.0,90.5814,0.3,68900.0,0.33,276.0,2700.0,14.870565771553393,1.826095797969282,4930.458654517061,10.130571675171403,2.537861793671284,4.73999409638199,0.7117659957020022,1623,64,538,810,232.8826374378395,134.11693421507482,0.001830995901167763,False
0.26,0.6459131565791553,1.6,2976.0,90.5814,0.3,68900.0,0.33,276.0,2700.0,17.487283696694035,2.2365357922505633,6038.646639076521,11.736164934143744,3.225879465706437,5.751118762550291,0.9893436734558736,1962,72,642,993,243.54934313784528,140.27041247936285,0.0020347869573783,False
0.27,0.7635648984955938,1.6,2977.0,90.5814,0.3,68900.0,0.33,276.0,2700.0,23.025882391557477,3.0672701440598535,8281.629388961604,15.002779678941154,4.795410391147784,8.023102712616323,1.7281402470879303,2317,80,762,1168,270.39224807915514,155.31012134141676,0.002466335976482726,False
0.28,0.7150163814145716,1.6,2978.0,90.5814,0.3,68900.0,0.33,276.0,2700.0,20.363978102996818,2.804980773131819,7573.448087455911,13.612665868597936,4.101031322689266,6.751312234398881,1.2960505495574473,2169,76,712,1095,248.521287568797,142.89134950956858,0.002184388634093356,False
0.29000000000000004,0.7140318789735647,1.6,2979.0,90.5814,0.3,68900.0,0.33,276.0,2700.0,20.107393887354025,2.8644919115140555,7734.12816108795,13.585088924887094,4.087643196695743,6.522304962466931,1.2231512851816877,2057,74,678,1034,240.19271996282194,137.92479725367488,0.002116660921667426,False
0.3,0.9648460940620143,1.6,2980.0,90.5814,0.3,68900.0,0.33,276.0,2700.0,33.636430166921656,4.988915857273634,13470.072814638812,21.398076960677805,8.441735135667816,12.23835320624385,3.4528192783941822,3375,102,1116,1695,293.20918512229287,167.21952526429118,0.0033050759684763674,True
0.31,0.8312534436651384,1.6,2981.0,90.5814,0.3,68900.0,0.33,276.0,2700.0,25.694369402294246,3.9202331328602114,10584.629458722571,17.03981059205082,5.879219013215191,8.654558810243426,1.9589858803549793,2567,86,856,1277,256.8692488059392,147.0993219529602,0.002451880829878492,False
0.32,0.8550797695111156,1.6,2982.0,90.5814,0.3,68900.0,0.33,276.0,2700.0,26.761335360541864,4.213184518971448,11375.59820122291,17.784244715779327,6.294055328828045,8.977090644762537,2.080870809856597,2671,88,886,1336,256.27893916592734,146.818934296803,0.0024879432889888717,False
0.33,0.8267080611477097,1.6,2983.0,90.5814,0.3,68900.0,0.33,276.0,2700.0,24.99322956075313,4.048616600729493,10931.264821969631,16.899414383986088,5.802085829969424,8.093815176767041,1.753469229239931,2587,86,862,1288,238.54674470991156,136.14551408220282,0.002297529417666784,False
0.34,0.8966171301969152,1.6,2984.0,90.5814,0.3,68900.0,0.33,276.0,2700.0,28.605235525633933,4.780571934253309,12907.544222483933,19.116163818320633,7.060278020056327,9.4890717073133,2.279706085803018,2692,90,892,1348,251.58354091864578,143.47229421832753,0.0025174817543291155,False
0.3500000000000001,0.6784805293531107,1.6,2985.0,90.5814,0.3,68900.0,0.33,276.0,2700.0,17.263731897376577,2.9313558920257954,7914.660908469647,12.6055808598363,3.6221804756156004,4.658151037540277,0.690824583589805,1768,68,590,877,195.4438246397011,112.1958679433304,0.0016769899164011369,False
0.36000000000000004,0.9968767678963433,1.6,2986.0,90.5814,0.3,68900.0,0.33,276.0,2700.0,34.00935068575345,6.023967025538366,16264.710968953588,22.509696147536758,9.144864088595444,11.499654538216696,3.120897063057078,3274,102,1082,1645,278.8316312952137,153.60422050726802,0.0028428627128248662,True
0.37,0.7340788905266833,1.6,2987.0,90.5814,0.2,68900.0,0.33,276.0,2700.0,19.47726474309736,3.4972065823514904,9442.457772349024,14.151428891379233,4.365643469657042,5.325835851718129,0.8684368873055512,5099,106,1336,2817,214.4603644305276,123.4314647784839,0.0018048067861981681,False
0.38,1.0739580296825082,1.6,2988.0,90.5814,0.3,68900.0,0.33,276.0,2700.0,38.3185892280044,7.165608305262312,19347.142424208243,25.29047774662585,10.986153756354538,13.028111481378549,3.820545451092226,3651,108,1214,1824,256.1622534399219,145.2920385598699,0.0030929754146452573,False
0.39,1.0858169020329351,1.6,2989.0,90.5814,0.3,68900.0,0.33,276.0,2700.0,38.81081528664229,7.443871557816385,20098.453206104237,25.731552241948823,11.288682133780352,13.079263044693466,3.844810575963967,3651,108,1214,1824,332.3510154734449,172.3882685631367,0.003066110243565942,True
0.4,0.9101383988566524,1.6,2990.0,90.5814,0.3,68900.0,0.33,276.0,2700.0,27.957843922540636,5.457527497954962,14735.3242444784,19.55908618257591,7.32174206553793,8.398757739964726,1.8642145675829678,2749,90,918,1366,216.7905783076599,123.20700985868154,0.0022112381457326776,False
0.4100000000000001,1.056563919078554,1.6,2991.0,90.5814,0.3,68900.0,0.33,276.0,2700.0,36.40319842791055,7.318307872869623,19759.431256747983,24.64992179638266,10.55183036185024,11.753276631527893,3.2335224889806167,3561,106,1186,1776,237.88691391767458,134.3646392125893,0.0027280696711594445,False
0.42000000000000004,0.7533089415392413,1.6,2992.0,90.5814,0.3,68900.0,0.33,276.0,2700.0,19.451026632355838,3.929546048448621,10609.774330811277,14.70418061673073,4.643075997468626,4.746846015625108,0.7135299490200055,1932,70,644,960,175.0742121899309,100.07241987962948,0.001633003425482774,False
0.43,0.8505219154504644,1.6,2993.0,90.5814,0.3,68900.0,0.33,276.0,2700.0,24.090502469024724,5.012938959434343,13534.935190472725,17.64073466711427,6.213324584071295,6.449767801910454,1.2003856246369526,2553,82,814,1300,202.090905810295,115.60158079739443,0.0019072186421539117,False
0.44,0.8652701052863274,1.6,2994.0,90.5814,0.3,68900.0,0.33,276.0,2700.0,24.654957589067685,5.245681717192629,14163.340636420098,18.10698946999466,6.4769249764204755,6.547968119073026,1.2312432592278464,2646,84,846,1345,203.14928927107252,116.6764032095745,0.0019115402671785388,False
0.45,0.9030689855853107,1.6,2995.0,90.5814,0.2,68900.0,0.33,276.0,2700.0,26.46120107178891,5.762918487446923,15559.87991610669,19.32693702521452,7.184292121231326,7.1342640465743905,1.4213736337844036,7604,128,1914,4261,207.96554674343005,119.17105262817276,0.0020225895984188114,False
0.46,0.8505240501448836,1.6,2996.0,90.5814,0.3,68900.0,0.33,276.0,2700.0,23.483262756962972,5.197290392414942,14032.684059520343,17.640801758575726,6.213362241720751,5.842460998387246,1.016071849305809,2753,82,814,1454,200.5379771204976,114.61105001193121,0.001810586578979575,False
0.4700000000000001,0.8911925024127763,1.6,2997.0,90.5814,0.3,68900.0,0.33,276.0,2700.0,25.40336058728259,5.752343355295634,15531.32705929821,18.9397583135917,6.957058748107126,6.463602273690892,1.2047153928114929,2711,84,824,1415,198.2506591525312,114.03192033168533,0.0018864962664805356,False
0.4800000000000001,0.8397734418652658,1.6,2998.0,90.5814,0.3,68900.0,0.33,276.0,2700.0,22.54776176297865,5.179839479951006,13985.566595867716,17.304372209908077,6.025523905723804,5.243389553070571,0.8456844257727978,2479,78,766,1280,194.40042511359255,110.96585601484902,0.0016992835817381982,False
0.49,1.1516545352690324,1.6,2999.0,90.5814,0.3,68900.0,0.33,276.0,2700.0,40.39764127491898,9.651018622953686,26057.75028197495,28.244574163470205,13.06491464344122,12.153067111448777,3.4138960204875346,4365,112,1330,2272,224.32012774335647,127.61513032440729,0.0026118695625809516,False
0.5,0.81940291799946,1.6,3000.0,90.5814,0.2,68900.0,0.33,276.0,2700.0,21.167850675919528,5.0301632811804105,13581.440859187109,16.67486350907078,5.679454193393967,4.492987166848749,0.6492909122135568,5894,110,1436,3340,183.59231217678408,104.99427863472698,0.0016318715241715252,False
0.01,0.6970799812339048,2.0,3001.0,3.01938,0.08,68900.0,0.33,276.0,2700.0,29.432442597336184,0.1471601185915792,397.33232019726387,14.866022487129525,4.471978407965975,14.566420110206659,4.324818289374395,36348,324,12106,18183,209.89952549685188,118.71437644750304,0.0020952741676694463,False
0.02,0.5356704908962762,2.0,3002.0,3.01938,0.1,68900.0,0.33,276.0,2700.0,20.158970631085694,0.20157295115003562,544.2469681050961,10.337264425879132,2.4467609215285644,9.821706205206562,2.2451879703785287,16187,210,5360,8141,76.2904602588481,44.03068597077522,0.000668532053818581,False
0.03,0.5876951404350736,2.0,3003.0,3.01938,0.1,68900.0,0.33,276.0,2700.0,22.64208316276666,0.3395746987737348,916.851686689084,11.725438122111205,3.0203681978033385,10.916645040655455,2.680793499029604,17991,224,5920,9105,62.61862776763211,35.71235006213591,0.0005179657278980918,False
0.04,0.5372324512981408,2.0,3004.0,3.01938,0.1,68900.0,0.33,276.0,2700.0,19.733269849386957,0.3945313557009493,1065.2346603925632,10.377951724051796,2.4629390872184875,9.355318125335161,2.068407731517538,15738,206,5170,7977,46.52923849331613,26.571801171817118,0.00033543462738233197,False
0.05,0.5023061934902231,2.0,3005.0,3.01938,0.1,68900.0,0.33,276.0,2700.0,17.7374923360527,0.44317550901351926,1196.573874336502,9.48280575958169,2.116197349950137,8.25468657647101,1.6730218409366178,14321,194,4712,7247,32.82704915006666,18.741645501665584,0.00025004529403138193,False
0.06000000000000001,0.37187370795737373,2.0,3006.0,3.01938,0.1,68900.0,0.33,276.0,2700.0,11.552298187420966,0.34611655628051163,934.5147019573814,6.41090691519111,1.084316588517693,5.141391272229856,0.7382000322371814,9525,150,3120,4839,18.655528729652744,10.704525846610341,0.00014467157855366035,False
0.06999999999999999,0.5856263239653025,2.0,3007.0,3.01938,0.2,68900.0,0.33,276.0,2700.0,21.48951596470737,0.7514146812446374,2028.819639360521,11.66893716584417,2.9961688819003736,9.820578798863199,2.244754200655736,4615,112,1512,2341,24.92259267455276,14.383610895787596,0.0002245022342647822,False
0.08,0.6454651592848424,2.0,3008.0,3.01938,0.1,68900.0,0.33,276.0,2700.0,24.470574384371563,0.9777506450824366,2639.9267417225788,13.346621983612573,3.7441710904195014,11.12395240075899,2.7664204453370647,19500,234,6416,9870,26.36302030617689,15.10448509097168,0.00022610415882363166,False
0.09,0.7797184177301443,2.0,3009.0,3.01938,0.3,68900.0,0.33,276.0,2700.0,32.08331569934222,1.442222392440754,3894.000459590036,17.4380914814126,5.805577177602496,14.645224217929623,4.363354785161742,3145,96,1034,1588,25.998264366120186,14.980887383716002,0.00027642604874360163,False
0.09999999999999999,0.799986105461856,2.0,3010.0,3.01938,0.3,68900.0,0.33,276.0,2700.0,33.04868170103772,1.6503396899495129,4455.917162863685,18.095119716922202,6.165647754960675,14.95356198411552,4.515308065011162,3084,96,1016,1554,23.71489937723397,13.659546979940906,0.00026152546697453773,False
0.11,0.43907627263935617,2.0,3011.0,3.01938,0.1,68900.0,0.33,276.0,2700.0,13.436361961694457,0.7362122680119096,1987.773123632156,7.940240291115442,1.5658978904875818,5.496121670579015,0.8296856224756721,10785,164,3556,5445,12.082467174846943,6.973693498870954,0.00010169605651676426,False
0.12,0.44384600658975404,2.0,3012.0,3.01938,0.2,68900.0,0.33,276.0,2700.0,13.44058193796404,0.8028158015409053,2167.6026641604444,8.053099347161401,1.6040396507445887,5.387482590802639,0.8012238492036834,2883,84,944,1461,11.720285818759784,6.747537463500242,9.528705223731796e-05,False
0.13,0.4518579283041445,2.0,3013.0,3.01938,0.2,68900.0,0.33,276.0,2700.0,13.590328380406289,0.8787699586863554,2372.6788884531597,8.243960293418844,1.6693239566206965,5.346368086987445,0.7905539979343411,3032,86,996,1532,11.026581104880258,6.365809313509531,9.064774840328099e-05,False
0.14,0.5296929931378245,2.0,3014.0,3.01938,0.3,68900.0,0.33,276.0,2700.0,16.98748723594639,1.1833770863552795,3195.1181331592547,10.182123713861493,2.385434070542035,6.805363522084896,1.2020569841867554,1869,68,612,945,12.318200621973684,7.111840816879936,0.00010380729330545575,False
0.15000000000000002,0.835865660201585,2.0,3015.0,3.01938,0.3,68900.0,0.33,276.0,2700.0,33.81377133347965,2.528964266540394,6828.203519659064,19.28356144389159,6.836116234775836,14.530209889588061,4.307151968235441,3358,98,1098,1705,16.777381649208788,9.686416831140995,0.00018404234098098188,False
0.16,0.6559040913432204,2.0,3016.0,3.01938,0.3,68900.0,0.33,276.0,2700.0,22.970561793769953,1.8290663011621917,4938.479013137918,13.648514426056854,3.885068905396462,9.322047367713099,2.0560026042342705,2327,78,762,1178,12.932231761861255,7.456759354801804,0.00012131939194829879,False
0.17,0.8514293659459213,2.0,3017.0,3.01938,0.3,68900.0,0.33,276.0,2700.0,34.20737835693393,2.8973373972013294,7822.81097244359,19.8091407092623,7.140321995479752,14.398237647671628,4.242984598278422,3327,98,1090,1686,15.30551058663851,8.834711784815749,0.0001666869157721145,False
0.18000000000000002,0.5189738759052162,2.0,3018.0,3.01938,0.3,68900.0,0.33,276.0,2700.0,15.609756129427758,1.3926635394113422,3760.191556410624,9.906167467536758,2.277772275954798,5.7035886618910006,0.8851087365434556,1599,62,522,810,9.430227615938705,5.444544210777635,8.058615400528547e-05,False
0.19,0.5748589609231609,2.0,3019.0,3.01938,0.3,68900.0,0.33,276.0,2700.0,18.074175249113907,1.7026811926585048,4597.239220177963,11.376609086581603,2.872101614886388,6.697566162532304,1.169420422227883,1942,70,636,982,9.866948634286905,5.696622367795462,8.757529984357735e-05,False
0.2,0.7942149972120982,2.0,3020.0,3.01938,0.3,68900.0,0.33,276.0,2700.0,29.811187425863725,2.9643635817672265,8003.781670771512,17.906983362570486,6.061762140480507,11.904204063293239,3.0973985587132806,2964,92,974,1497,12.30551968027349,7.101467437029364,0.00012846164786623512,False
0.21000000000000002,0.813882183986533,2.0,3021.0,3.01938,0.3,68900.0,0.33,276.0,2700.0,30.72279405244076,3.2064971824630186,8657.54239265015,18.551561952365237,6.420264718045246,12.171232100075525,3.2137675355822273,3170,94,1040,1604,12.038857864933043,6.935457727831345,0.00012715032879269338,False
0.22,0.5237986236609604,2.0,3022.0,3.01938,0.3,68900.0,0.33,276.0,2700.0,15.007461609530694,1.6285196579980947,4397.003076594856,10.030019882564638,2.3258655783181026,4.977441726966056,0.6973459203200079,1496,60,490,755,7.876679189347493,4.547472843455227,6.836377358243388e-05,False
0.23,0.7023180460999676,2.0,3023.0,3.01938,0.3,68900.0,0.33,276.0,2700.0,23.762643245801858,2.7072214680563955,7309.497963752268,15.023959177784732,4.550260938365809,8.738684068017125,1.8430394703094133,2301,78,758,1158,9.868577280966795,5.697153005853462,9.534009569321003e-05,False
0.24000000000000005,0.858944957595928,2.0,3024.0,3.01938,0.3,68900.0,0.33,276.0,2700.0,32.6570971082467,3.889898735094121,10502.726584754128,20.06511851602942,7.290160431226713,12.591978592217284,3.400261696132592,3119,94,1024,1577,11.253964423018385,6.488208100071824,0.00012063700816493306,False
0.25,0.8309943699290754,2.0,3025.0,3.01938,0.3,68900.0,0.33,276.0,2700.0,30.66313610118284,3.8001670891728923,10260.451140766809,19.120311103431284,6.742578271490816,11.542824997751556,2.9424111823179233,3155,94,1034,1598,10.418196849549767,6.006224059577403,0.00011132472636080075,False
0.26,0.6552907192797084,2.0,3026.0,3.01938,0.1,68900.0,0.33,276.0,2700.0,20.561624870645012,2.6362001448641883,7117.740391133309,13.63070005846475,3.8767027518400994,6.930924812180262,1.240502606975911,23262,210,5550,13335,8.426868012500917,4.86450244128989,7.925919309320064e-05,False
0.27,0.9566145819071215,2.0,3027.0,3.01938,0.3,68900.0,0.33,276.0,2700.0,38.07334095139841,5.098677049638383,13766.428034023633,23.520803110007485,9.416719367510236,14.552537841390922,4.318042317871853,3659,104,1206,1844,11.037073604895921,6.352735641142878,0.0001268250780408255,False
0.28,0.6208271116155875,2.0,3028.0,3.01938,0.3,68900.0,0.33,276.0,2700.0,18.38766195173067,2.528296511954559,6826.400582277309,12.64495333395375,3.4240115786024905,5.7427086177769215,0.8957150666479317,1874,68,618,941,7.360267845937606,4.228645040716718,6.855985075357348e-05,False
0.29000000000000004,0.6913998074945995,2.0,3029.0,3.01938,0.2,68900.0,0.33,276.0,2700.0,21.76438985309362,3.1047563265463083,8382.842081675033,14.695534786160467,4.3880214011416365,7.068855066933152,1.2832650745953282,4498,110,1496,2248,7.860544141677026,4.531721628918134,7.649725163372751e-05,False
0.3,0.9039689220113267,2.0,3030.0,3.01938,0.3,68900.0,0.33,276.0,2700.0,33.80198016454162,5.013748356916626,13537.12056367489,21.62834154613564,8.228571705497439,12.173638618405977,3.214823348580813,3174,96,1050,1593,9.587646077631655,5.516254954164321,0.0001060142800167645,False
0.31,0.8302650714876236,2.0,3031.0,3.01938,0.3,68900.0,0.33,276.0,2700.0,29.03517706243681,4.438058320182312,11982.75746449224,19.095921633330093,6.7286427528161585,9.939255429106716,2.290584432633847,2828,88,936,1418,8.64316761109031,4.969908808102019,9.145815674560475e-05,False
0.32,0.8270315346002568,2.0,3032.0,3.01938,0.3,68900.0,0.33,276.0,2700.0,28.590066526419026,4.505781505511828,12165.610064881936,18.987945513587484,6.667070029009184,9.602121012831542,2.1612885234973565,2832,88,942,1413,8.411239768436175,4.841505181953089,8.841051056847006e-05,False
0.33,0.9222899125890358,2.0,3033.0,3.01938,0.3,68900.0,0.33,276.0,2700.0,34.13033608422808,5.556239177102928,15001.845778177905,22.279026475839427,8.630772063717036,11.85130960838865,3.074532886614108,3311,98,1096,1661,8.856076801702775,5.09120480621986,0.0001001433699164403,False
0.34,1.0333481064040293,2.0,3034.0,3.01938,0.3,68900.0,0.33,276.0,2700.0,41.157830914240684,6.914513150316422,18669.18550585434,26.40391023481598,11.331222706952477,14.753920679424702,4.4167095566360555,3832,108,1268,1924,9.46585709139353,5.4305673598508,0.00011435689877316898,False
0.3500000000000001,0.7897216984571289,2.0,3035.0,3.01938,0.2,68900.0,0.33,276.0,2700.0,25.716561361725052,4.410601048286776,11908.622830374296,17.761082779000603,5.981628691887859,7.955478582724449,1.5710276436010826,6013,120,1748,3201,7.935562274749815,4.574953353123391,7.780542738539002e-05,False
0.36000000000000004,0.7761384359361942,2.0,3036.0,3.01938,0.3,68900.0,0.33,276.0,2700.0,24.728593447921643,4.353430722728638,11754.262951367324,17.323110182983378,5.743355039150376,7.405483264938265,1.3899243164217374,2510,82,832,1256,7.551164636372724,4.082284411323304,9.78917064721011e-05,False
0.37,0.676159785584298,2.0,3037.0,3.01938,0.2,68900.0,0.33,276.0,2700.0,19.267330455878252,3.4583687392159566,9337.595595883082,14.242119273308523,4.1675235735571965,5.025211182569729,0.7091548343412399,4950,102,1344,2696,6.991678976104931,4.034361025702782,6.167472871021647e-05,False
0.38,0.6980042780503836,2.0,3038.0,3.01938,0.2,68900.0,0.33,276.0,2700.0,20.160796994026228,3.715627780806465,10032.195008177456,14.89384152577257,4.485731880095109,5.2669554682536575,0.7701040992886443,4979,102,1314,2744,6.79691810317265,3.9232795792807047,6.270105334204921e-05,False
0.39,0.7351629058963111,2.0,3039.0,3.01938,0.2,68900.0,0.33,276.0,2700.0,21.864576843217357,4.139355061348525,11176.258665641017,16.0300067257814,5.060168306747473,5.834570117435955,0.9208132453989482,5810,108,1484,3242,6.825763706040445,3.9310890150423723,6.547633109193384e-05,False
0.4,0.7469658567837405,2.0,3040.0,3.01938,0.2,68900.0,0.33,276.0,2700.0,22.271064613035858,4.320171636054009,11664.463417345823,16.398156697287757,5.251538873133019,5.872907915748101,0.9313672370790105,5899,108,1480,3311,6.931943860755318,3.996423107011945,6.52472981798488e-05,False
0.4100000000000001,0.9660939786042735,2.0,3041.0,3.01938,0.3,68900.0,0.33,276.0,2700.0,34.7430747928143,6.977982527674894,18840.552824722214,23.868960865425144,9.641330769539941,10.874113927389153,2.663348241865047,3346,98,1118,1663,7.64179389540618,4.377804746655574,8.806767290707046e-05,False
0.42000000000000004,1.069592470671223,2.0,3042.0,3.01938,0.3,68900.0,0.33,276.0,2700.0,41.2828317963698,8.514225132891548,22988.40785880718,27.817175903982566,12.31372738594556,13.465655892387232,3.799502253054012,3860,108,1288,1922,8.115117135778917,4.626997405940606,9.923935603754026e-05,False
0.43,0.8399727768632519,2.0,3043.0,3.01938,0.2,68900.0,0.33,276.0,2700.0,26.68566186022495,5.570898228542387,15041.425217064447,19.421665613517686,6.915599531145603,7.263996246707265,1.344701302603216,7126,122,1784,3998,7.017426456015859,4.044333148241428,7.13249426704914e-05,False
0.44,0.7572590344424581,2.0,3044.0,3.01938,0.2,68900.0,0.33,276.0,2700.0,21.97371410645235,4.655808151017256,12570.68200774659,16.722072891180535,5.421992792701398,5.251641215271814,0.7661846416841422,5703,106,1420,3207,6.378396079175143,3.6733236333718335,6.150174941049238e-05,False
0.45,1.0922031046395666,2.0,3045.0,3.01938,0.2,68900.0,0.33,276.0,2700.0,41.96839373997689,9.252036837789223,24980.499462030904,28.715548283089923,12.952823542745302,13.252845456886966,3.7007867049560783,11214,162,2776,6320,8.040619702418448,4.61287829191307,9.735962816350422e-05,False
0.46,0.8051240482983051,2.0,3046.0,3.01938,0.2,68900.0,0.33,276.0,2700.0,24.09706417162888,5.3384647177881,14413.85473802787,18.26331941958472,6.259051261842867,5.833744752044158,0.9205865440547667,6475,114,1620,3635,6.660287422674931,3.8351412387183017,6.410851676729114e-05,False
0.4700000000000001,0.9039613184031977,2.0,3047.0,3.01938,0.2,68900.0,0.33,276.0,2700.0,29.447921406912517,6.702815147908675,18097.600899353423,21.62807324908137,8.228407253083853,7.819848157831146,1.5255921051751784,8143,130,2024,4581,6.910387688385986,3.974533724398834,7.279454062534155e-05,False
0.4800000000000001,0.8104099890328555,2.0,3048.0,3.01938,0.2,68900.0,0.33,276.0,2700.0,23.960991122238465,5.519014526173363,14901.33922066808,18.43705650423875,6.356048958544943,5.523934617999714,0.8370344323715804,6617,114,1632,3735,6.2793313126533645,3.6140716851101806,6.240163742974057e-05,False
0.49,1.0288078119744875,2.0,3049.0,3.01938,0.3,68900.0,0.33,276.0,2700.0,36.64824905236577,8.73241752842816,23577.52732675603,26.229198859994547,11.211737996960771,10.419050192371223,2.4793204685326113,3742,100,1152,1938,7.337981362068536,4.222865102985548,8.236851109822794e-05,False
0.5,1.146508677995391,2.0,3050.0,3.01938,0.3,68900.0,0.33,276.0,2700.0,44.30240000019748,10.813800612250096,29197.26165307526,30.9257228070281,14.571914831639111,13.376677193169378,3.7581142193890145,4454,112,1370,2313,7.6416048330876825,4.375552919442231,9.39605952055903e-05,False
0.01,0.697118450536373,2.0,3051.0,6.03876,0.08,68900.0,0.33,276.0,2700.0,29.434747733421354,0.1471716442720058,397.36343953441565,14.867179889367232,4.4725503157436295,14.567567844054121,4.325378671471624,36353,324,12108,18185,419.8207538363675,237.4399071215874,0.004190811621500065,True
0.02,0.3789336643588658,2.0,3052.0,6.03876,0.08,68900.0,0.33,276.0,2700.0,12.695696489036028,0.12694020972954068,342.7385662697598,6.566235093830546,1.1301248799223056,6.129461395205482,1.003184670192765,16617,200,5472,8403,117.7395152256252,67.15201163606045,0.0008246362460784947,False
0.03,0.3480292115823684,2.0,3053.0,6.03876,0.1,68900.0,0.33,276.0,2700.0,11.163025381953354,0.1673888320615355,451.9498465661458,5.895557305136621,0.9376242615433491,5.267468076816733,0.7702354294818137,9059,146,2972,4595,71.06616753863032,40.61221861734483,0.0005069485431167499,False
0.04,0.6911334337976865,2.0,3054.0,6.03876,0.1,68900.0,0.33,276.0,2700.0,28.197767482746656,0.56382130836838,1522.3175325946258,14.687559612092079,4.384107959440419,13.510207870654577,3.820286651072039,22347,254,7340,11331,121.45483698952295,69.21471764210531,0.0010192197450353874,False
0.05,0.3735061729485752,2.0,3055.0,6.03876,0.1,68900.0,0.33,276.0,2700.0,11.827159531202804,0.2954171888922706,797.6264100091306,6.446711917493569,1.0948113857134707,5.380447613709236,0.7993941968212002,9954,154,3254,5067,45.477867842243626,26.059919491626193,0.0003442265066937636,False
0.06000000000000001,0.36144053960364464,2.0,3056.0,6.03876,0.08,68900.0,0.33,276.0,2700.0,11.113531563793892,0.3329535575716993,898.9746054435882,6.183657179764676,1.0186183632679173,4.929874384029215,0.685664805696218,14599,184,4786,7414,36.72137166736956,21.124720763517793,0.00027932033025794605,False
0.06999999999999999,0.4277927853378794,2.0,3057.0,6.03876,0.2,68900.0,0.33,276.0,2700.0,13.780381479820718,0.48159497427360415,1300.306430538731,7.675532291477086,1.4778007134359892,6.104849188343633,0.9962057391623851,3026,86,992,1532,37.713035500129706,21.768750292121737,0.00029898563879810874,False
0.08,0.6892906059041874,2.0,3058.0,6.03876,0.1,68900.0,0.33,276.0,2700.0,26.954083259616404,1.0770910000922322,2908.145700249027,14.632434565599677,4.357092120993771,12.321648694016726,3.280001120901539,21666,248,7130,10965,57.28901610166829,32.85120135532289,0.0005029338912879108,False
0.09,0.491987190881488,2.0,3059.0,6.03876,0.2,68900.0,0.33,276.0,2700.0,16.306367294391645,0.7322597142179804,1977.101228388547,9.224200927885915,2.019680825837614,7.08216636650573,1.2874211116196337,3657,94,1194,1860,33.15826249260558,19.137394062464086,0.0002829775522237146,False
0.09999999999999999,0.621063523043087,2.0,3060.0,6.03876,0.1,68900.0,0.33,276.0,2700.0,22.611350999610487,1.128473154878131,3046.877518170954,12.651613618013307,3.427001777326794,9.95973738159718,2.2985286224486625,18451,224,6084,9319,38.38925181732606,22.032471100171232,0.00034920922138137077,False
0.11,0.45081045627734595,2.0,3061.0,6.03876,0.2,68900.0,0.33,276.0,2700.0,13.96127227427885,0.7650823352040522,2065.722305050941,8.21891561845735,1.660701758028565,5.742356655821499,0.8956194228245128,3083,86,1008,1565,25.560677619196834,14.736659818956124,0.00021046477925510887,False
0.12,0.7741519478700076,2.0,3062.0,6.03876,0.3,68900.0,0.33,276.0,2700.0,30.85709884128771,1.8478068157403238,4989.078402498874,17.259447423733523,5.7090061365762566,13.597651417554186,3.861199320835933,3076,94,1008,1558,39.647420883723,22.762813689050088,0.0004059714667682939,False
0.13,0.5487762465070528,2.0,3063.0,6.03876,0.3,68900.0,0.33,276.0,2700.0,18.146862149913932,1.174944653704447,3172.350565002007,10.680555673934368,2.5844834137787394,7.4663064759795645,1.4095387600742924,1893,68,620,957,26.71264258119415,15.414907659546845,0.00023283865986118885,False
0.14,0.7498816142558509,2.0,3064.0,6.03876,0.3,68900.0,0.33,276.0,2700.0,28.827772518424595,2.0121970561287523,5432.932051547631,16.48964240962533,5.299485244209257,12.338130108799266,3.2872881880805047,2813,88,920,1427,32.643137711647945,18.814578472300337,0.0003316343884161269,False
0.15000000000000002,0.6792008957079061,2.0,3065.0,6.03876,0.3,68900.0,0.33,276.0,2700.0,24.50152283411639,1.8305456290881508,4942.473198538007,14.332131070284131,4.210972235649009,10.169391763832259,2.380426606560858,2520,82,828,1272,28.51191267367826,16.439652954309775,0.00027050207263217343,False
0.16,0.7999536213484326,2.0,3066.0,6.03876,0.3,68900.0,0.33,276.0,2700.0,31.28239221630655,2.494012734965124,6733.8343844058345,18.09405840226432,6.165059968277321,13.188333814042231,3.671047233312197,3073,94,1008,1555,30.432211963083795,17.56748039476723,0.00031975073545141954,False
0.17,0.6892568094950784,2.0,3067.0,6.03876,0.3,68900.0,0.33,276.0,2700.0,24.544838692251332,2.076021525703301,5605.258119398912,14.631424400788307,4.356597614318998,9.913414291463026,2.2805760886156974,2421,80,794,1224,25.668224931226877,14.819385055137975,0.00024592996916326124,False
0.18000000000000002,0.7572204506361333,2.0,3068.0,6.03876,0.3,68900.0,0.33,276.0,2700.0,28.16132653162382,2.522304875608986,6810.223164144262,16.72085372465545,5.421347614999777,11.440472806968373,2.8990427393907914,2847,88,926,1452,26.13275679778529,15.086033838020805,0.0002652507124045723,False
0.19,0.8322741015549959,2.0,3069.0,6.03876,0.3,68900.0,0.33,276.0,2700.0,32.418024280501456,3.0653468506403208,8276.436496728866,19.16314067347151,6.7670745390949385,13.254883607029946,3.7017276884546177,3298,96,1080,1672,26.92294729068719,15.540682722734335,0.00028826102241875543,False
0.2,0.5429233275136138,2.0,3070.0,6.03876,0.3,68900.0,0.33,276.0,2700.0,16.313772955064444,1.6146221346872993,4359.479763655708,10.526711276424392,2.5224216259416736,5.787061678640052,0.9077994912543743,1667,64,544,845,17.731203721371294,10.227869141384128,0.00015522949168310672,False
0.21000000000000002,0.6867761104285154,2.0,3071.0,6.03876,0.3,68900.0,0.33,276.0,2700.0,23.405231028385696,2.438153064937237,6583.013275330541,14.557355414527827,4.32039335687081,8.84787561385787,1.8822402919335732,2375,78,780,1199,20.665030001351628,11.921367067931461,0.00020111456198198275,False
0.22,0.5486208411785316,2.0,3072.0,6.03876,0.3,68900.0,0.33,276.0,2700.0,16.16309417731037,1.7556392404538574,4740.225949225415,10.676459707109602,2.5828239167908382,5.486634470200768,0.8271846763369808,1615,62,532,811,16.296929016529432,9.406487695898758,0.00014445528356747775,False
0.23,0.6451867346092847,2.0,3073.0,6.03876,0.3,68900.0,0.33,276.0,2700.0,20.722189135875535,2.357569245414869,6365.436962620147,13.338607479030019,3.740456177287045,7.383581656845516,1.382886931872176,2186,74,718,1103,18.158739542772665,10.479465803562213,0.00017107448491204176,False
0.24000000000000005,0.7903736264924651,2.0,3074.0,6.03876,0.3,68900.0,0.33,276.0,2700.0,28.504912346561724,3.391636563691926,9157.4187219682,17.782219872747078,5.99321452904111,10.722692473814647,2.6015779653491835,2762,88,908,1394,20.71446950842829,11.949600411693202,0.00021531135125569016,False
0.25,0.8820642809036152,2.0,3075.0,6.03876,0.3,68900.0,0.33,276.0,2700.0,33.82453803012939,4.195342330291281,11327.424291786458,20.86145292504163,7.763231868563586,12.96308510508776,3.567889538272305,3291,98,1080,1665,22.028032700958516,12.6939386353644,0.00024230657282558627,False
0.26,0.9540252627772392,2.0,3076.0,6.03876,0.3,68900.0,0.33,276.0,2700.0,38.200331499467886,4.929232006611162,13308.926417850138,23.426095709990545,9.355939152267892,14.774235789477341,4.42670714565673,3461,102,1142,1742,22.746987464680902,13.086098081450759,0.0002612699124557226,False
0.27,0.7699916111950966,2.0,3077.0,6.03876,0.3,68900.0,0.33,276.0,2700.0,26.551005880433465,3.5431618150581117,9566.536900656902,17.126438752442617,5.637477855712056,9.424567127990848,2.0943160406539447,2713,86,892,1369,18.201236113431584,10.48939099715419,0.00018670654909531804,False
0.28,0.9014444888883666,2.0,3078.0,6.03876,0.3,68900.0,0.33,276.0,2700.0,34.2016948291977,4.742261114799939,12804.105009959836,21.539345522506228,8.174084769652426,12.662349306691471,3.4318236548524865,3235,98,1064,1633,20.198036499101175,11.62926976753232,0.00022505452603965113,False
0.29000000000000004,0.7948934670039645,2.0,3079.0,6.03876,0.3,68900.0,0.33,276.0,2700.0,27.47712296506287,3.933102627781848,10619.37709501099,17.929057849818072,6.07391897553774,9.548065115244796,2.140816347755892,2689,86,884,1357,19.281579243987565,11.071125725226663,0.0002719345803028552,False
0.3,0.8395165514721872,2.0,3080.0,6.03876,0.3,68900.0,0.33,276.0,2700.0,29.843864178084516,4.420030958947791,11934.083589159036,19.40630384035623,6.9067423785704785,10.437560337728286,2.4867114196226874,2895,90,958,1452,17.83728248280735,10.257797813541929,0.0001851225162336824,False
0.31,0.9116995068273785,2.0,3081.0,6.03876,0.3,68900.0,0.33,276.0,2700.0,34.01260744201395,5.209560029016765,14065.812078345265,21.901870764646297,8.396827737062498,12.110736677367655,3.1872677080457334,3333,98,1100,1677,18.592216558754,10.689381673895422,0.00020828662715873433,False
0.32,0.7324715320887996,2.0,3082.0,6.03876,0.3,68900.0,0.33,276.0,2700.0,23.267770869205037,3.6542142003575853,9866.37834096548,15.946549353187303,5.017137914834915,7.321221516017735,1.36292371447733,2461,78,810,1240,15.167864218382752,8.738630522839332,0.0001506439676059818,False
0.33,0.649832466931331,2.0,3083.0,6.03876,0.3,68900.0,0.33,276.0,2700.0,18.777173323248086,3.022967321541229,8162.011768161318,13.472590686553241,3.802734792241462,5.304582636694844,0.7797674707002327,1908,68,630,957,12.979725334829524,7.481082148608577,0.00012693862283361557,False
0.34,0.8634589140006059,2.0,3084.0,6.03876,0.3,68900.0,0.33,276.0,2700.0,30.240824596010388,5.058622076217305,13658.279605786724,20.219544286961554,7.381081844428636,10.021280309048834,2.3224597682113313,2897,90,960,1451,16.485915160001746,9.48371112650393,0.00017734974126945913,False
0.3500000000000001,0.7605360584882839,2.0,3085.0,6.03876,0.3,68900.0,0.33,276.0,2700.0,24.102638991854597,4.128164633559445,11146.044510610502,16.825756445102353,5.4769612407064345,7.276882546752244,1.3487966071469897,2357,78,780,1181,14.416405927470446,8.294330747194406,0.00014621837816854933,False
0.36000000000000004,0.9732234271432697,2.0,3086.0,6.03876,0.3,68900.0,0.33,276.0,2700.0,36.56378631412467,6.483765438645188,17506.166684342006,24.132298111217796,9.81244126340726,12.431488202906873,3.3286758247620725,3539,102,1176,1769,17.25023343258013,9.882295565244052,0.00019988403486295071,False
0.37,0.8351820559592356,2.0,3087.0,6.03876,0.3,68900.0,0.33,276.0,2700.0,27.825557669581244,5.041640773751008,13612.430089127722,19.260616010783284,6.822941753831963,8.56494165879796,1.781300980080955,2731,86,908,1363,14.771522187397501,8.483041902406274,0.0001583745223843545,False
0.38,0.754367502998231,2.0,3088.0,6.03876,0.3,68900.0,0.33,276.0,2700.0,23.096440828936746,4.273400109439465,11538.180295486556,16.630810289239584,5.373772388099503,6.4656305396971625,1.1003722786600383,2180,74,722,1091,13.183970071765373,7.56515136963223,0.00013480944883408665,False
0.39,1.0107371973290256,2.0,3089.0,6.03876,0.3,68900.0,0.33,276.0,2700.0,38.181393374833874,7.321134285013744,19767.06256953711,25.538972775983495,10.744009015524663,12.642420598850379,3.4228747305109186,3659,104,1218,1826,16.51712803355592,9.446263045203251,0.00019590901579280727,False
0.4,1.0292584685301474,2.0,3090.0,6.03876,0.3,68900.0,0.33,276.0,2700.0,39.129870449833284,7.691932803413497,20768.218569216442,26.246517048046776,11.223562259462549,12.883353401786508,3.5316294560490515,3746,106,1242,1877,16.393630675631055,9.373561717989192,0.0001965645872448474,False
0.4100000000000001,0.9615611995790062,2.0,3091.0,6.03876,0.3,68900.0,0.33,276.0,2700.0,34.45626058867273,6.91918561582587,18681.801162729847,23.702199925085115,9.533516184673347,10.754060663587612,2.6143305688474774,3354,98,1120,1668,15.334442307943691,8.771703637673713,0.00017500091695749932,False
0.42000000000000004,0.8237475993819965,2.0,3092.0,6.03876,0.3,68900.0,0.33,276.0,2700.0,26.000668154725805,5.304970768146311,14323.42107399504,18.878555421331438,6.60489453517535,7.122112733394367,1.2999237670290391,2798,84,894,1425,12.728603170575541,7.306625342801535,0.00014018108493474288,False
0.43,1.0661671670026436,2.0,3093.0,6.03876,0.2,68900.0,0.33,276.0,2700.0,40.762232870127946,8.597360995671535,23212.874688313143,27.68220140954282,12.218676359757325,13.080031460585126,3.62131536408579,10571,156,2604,5971,16.456859064504048,9.434708969040319,0.0001959727312472518,False
0.44,1.1191282592734677,2.0,3094.0,6.03876,0.2,68900.0,0.33,276.0,2700.0,44.132085420278116,9.53064984005761,25732.754568155546,29.80210697708187,13.740581118989454,14.329978443196246,4.209931278931844,11670,166,2888,6576,16.655170237603777,9.541676173294261,0.00020545914511056182,False
0.45,0.8707257621030796,2.0,3095.0,6.03876,0.3,68900.0,0.33,276.0,2700.0,27.980595520777786,6.104782238469423,16482.912043867444,20.469224307441777,7.528920591149397,7.511371213336009,1.4241383526799742,2822,86,894,1443,12.775523549512156,7.3300059234186605,0.00014169977310856218,False
0.46,0.9555091194599856,2.0,3096.0,6.03876,0.3,68900.0,0.33,276.0,2700.0,32.792512165361266,7.338417756346547,19813.727942135676,23.480348904429764,9.390740366077575,9.312163260931502,2.0523226097310276,3109,94,1030,1554,13.6773207904301,7.8182715817857815,0.00015735341378942148,False
0.4700000000000001,0.9161180304537195,2.0,3097.0,6.03876,0.3,68900.0,0.33,276.0,2700.0,30.1659446711585,6.871550615006482,18553.186660517502,22.05888478327145,8.49394837490093,8.10705988788705,1.6223977598944472,3073,90,970,1576,13.576529039534323,7.8295094065998505,0.00014670769468897704,False
0.4800000000000001,0.8978954575343747,2.0,3098.0,6.03876,0.3,68900.0,0.33,276.0,2700.0,28.860476923188124,6.694891118401271,18076.20601968343,21.414499318582816,8.097862592218872,7.445977604605307,1.4029714738176011,2927,86,896,1521,14.159145905213313,8.151079001571253,0.00014016213080587244,False
0.49,0.8997172602664316,2.0,3099.0,6.03876,0.3,68900.0,0.33,276.0,2700.0,28.736699695139773,6.794087935907787,18344.037426951025,21.478546320749544,8.136933913421094,7.258153374390229,1.3428459775133073,3083,86,900,1637,13.59463376499312,7.805149826418755,0.00013915075194806568,False
0.5,0.8278689573153866,2.0,3100.0,6.03876,0.2,68900.0,0.33,276.0,2700.0,24.486867205415077,5.85991741355462,15821.777016597474,19.015883998376555,6.682982662826834,5.470983207038522,0.8230652492722141,6600,114,1620,3730,13.10025982859776,7.537246765779415,0.00012418183506145944,False
0.01,0.3466100114919368,2.0,3101.0,9.05814,0.05,68900.0,0.33,276.0,2700.0,11.519149893542897,0.05759365507261211,155.5028686960527,5.865334779943077,0.9292787379747265,5.65381511359982,0.8716850829021143,36920,298,12220,18584,307.48557792270634,175.07800242140866,0.0021595655515594544,True
0.02,0.332696689200845,2.0,3102.0,9.05814,0.08,68900.0,0.33,276.0,2700.0,10.72991725241043,0.1072824173632865,289.66252688087354,5.5717248561993005,0.8497206305203894,5.15819239621113,0.7424382131571029,13997,182,4616,7067,147.8195637742471,84.19188573303497,0.0010536615136561764,False
0.03,0.6206822811297283,2.0,3103.0,9.05814,0.1,68900.0,0.33,276.0,2700.0,24.448082802997156,0.3666646933771961,989.9946721184294,12.640873801290768,3.4221804992941807,11.807209001706388,3.0555158059169845,19685,234,6470,9974,197.98800195853764,112.6408146214024,0.0017021527885474912,False
0.04,0.6219519980108199,2.0,3104.0,9.05814,0.1,68900.0,0.33,276.0,2700.0,24.245510373197156,0.4847761661773923,1308.895648678959,12.676656674848081,3.438253542923478,11.568853698349075,2.953477376746086,19756,234,6488,10018,155.99856310611707,88.90108059653811,0.001276639535876122,False
0.05,0.6294320142640091,2.0,3105.0,9.05814,0.1,68900.0,0.33,276.0,2700.0,24.388688287763845,0.6094554078062889,1645.52960107698,12.888279244362153,3.5338657344882964,11.500409043401692,2.9244103266820076,19593,234,6434,9936,126.90138483286508,72.42728711807818,0.0010403380797687836,False
0.06000000000000001,0.4073695798029144,2.0,3106.0,9.05814,0.1,68900.0,0.33,276.0,2700.0,13.086049844217673,0.3921291059844134,1058.7485861579162,7.204546000442917,1.325869106227688,5.881503843774755,0.9337400002432745,10676,162,3514,5399,61.65131040755501,35.369387754555355,0.0004859657573336809,False
0.06999999999999999,0.6118715527769074,2.0,3107.0,9.05814,0.2,68900.0,0.33,276.0,2700.0,22.892844506983636,0.8005311802243085,2161.434186605633,12.393687946029676,3.3118955702984776,10.49915656095396,2.511364390074169,5108,116,1674,2591,79.97621376591624,45.74597517652064,0.0007155266651266114,False
0.08,0.7238186646612601,2.0,3108.0,9.05814,0.1,68900.0,0.33,276.0,2700.0,28.978719941728013,1.1580764673763537,3126.806461916155,15.679464297290004,4.88031142001717,13.29925564443801,3.7222349526408163,23531,260,7744,11909,89.65107595660277,51.3969226962495,0.0008205066034073095,False
0.09,0.6296111343822313,2.0,3109.0,9.05814,0.2,68900.0,0.33,276.0,2700.0,23.333395615362146,1.0484759886616501,2830.8851693864553,12.89336410152076,3.5361747399782986,10.440031513841387,2.4876987513166484,4689,114,1530,2388,62.408201849168364,35.991730462005506,0.0005896901150310195,False
0.09999999999999999,0.5673135691034783,2.0,3110.0,9.05814,0.2,68900.0,0.33,276.0,2700.0,19.790196461002175,0.9874154279477151,2666.0216554588305,11.17349216453817,2.7870278398427986,8.616704296464006,1.7996124118950836,4239,104,1388,2151,51.13657222671537,29.45914768319124,0.0004641491358635852,False
0.11,0.7453637558726651,2.0,3111.0,9.05814,0.3,68900.0,0.33,276.0,2700.0,29.405077808226928,1.6144916395711943,4359.127426842225,16.347979637555078,5.225307574317374,13.05709817067185,3.6108159347461797,2912,90,950,1481,61.059402799426124,35.22988980725915,0.0006244898297733727,False
0.12,0.5579183494875131,2.0,3112.0,9.05814,0.2,68900.0,0.33,276.0,2700.0,18.83550752956906,1.1265113370372082,3041.580610000462,10.922579183488091,2.6832308552788544,7.912928346080969,1.5567195182416462,4123,102,1344,2101,42.158900343768295,24.288174875118624,0.00038305479003346017,False
0.13,0.580039401475491,2.0,3113.0,9.05814,0.3,68900.0,0.33,276.0,2700.0,19.717389138077056,1.2770289079349795,3447.9780514244444,11.516891538963948,2.931400533221663,8.200497599113108,1.6543716252866834,2179,74,712,1105,43.43725272089717,25.07662014028152,0.00037452073350478055,False
0.14,0.7457451881594249,2.0,3114.0,9.05814,0.3,68900.0,0.33,276.0,2700.0,28.582882199854335,1.9950547338288365,5386.647781337859,16.359920069471677,5.231545498691324,12.222962130382658,3.236490764862488,2824,88,918,1441,48.36481562330243,27.923439280939046,0.0004930288781189975,False
0.15000000000000002,0.6781388053067068,2.0,3115.0,9.05814,0.3,68900.0,0.33,276.0,2700.0,24.442601778619412,1.8261265499258805,4930.541684799878,14.300668549294532,4.1957669273405465,10.14193322932488,2.369640377414666,2505,82,822,1266,42.72561834003776,24.636036227860735,0.00040498000200738215,False
0.16,0.857578965480243,2.0,3116.0,9.05814,0.3,68900.0,0.33,276.0,2700.0,34.89952585979794,2.783383426444433,7515.135251399968,20.018487852992457,7.262783491430862,14.881038006805483,4.479400064986429,3314,98,1086,1679,49.05242152208332,28.315828306467683,0.0005402883314055561,False
0.17,0.7102012753581071,2.0,3117.0,9.05814,0.3,68900.0,0.33,276.0,2700.0,25.71840723732118,2.1757748520342455,5874.592100492463,15.262951979783521,4.669639244397768,10.45545525753766,2.4938643923635224,2496,82,818,1263,38.61229668471031,22.292763928181717,0.000383948219952854,False
0.18000000000000002,0.6173070427312704,2.0,3118.0,9.05814,0.3,68900.0,0.33,276.0,2700.0,20.444473649193043,1.8277881161902167,4935.027913713585,12.545950610662965,3.379674811381604,7.898523038530078,1.5518866951913874,2151,74,704,1089,33.38263163791108,19.266877925977443,0.0003014087170375973,False
0.19,0.6430687932209012,2.0,3119.0,9.05814,0.3,68900.0,0.33,276.0,2700.0,21.550651928630543,2.0329464772121604,5488.955488472833,13.27770593245685,3.712270301294804,8.272945996173693,1.6793238240826436,2262,76,734,1155,32.44063859678207,18.705336904170068,0.00030281534800167593,False
0.2,0.8276999767591284,2.0,3120.0,9.05814,0.3,68900.0,0.33,276.0,2700.0,31.849396778148744,3.168184516995729,8554.098195888468,19.01024497131344,6.679769824624118,12.839151806835304,3.5115853076283887,3258,96,1064,1656,38.39099355472886,22.16182758060883,0.0004090254575852737,False
0.21000000000000002,0.6335155216173495,2.0,3121.0,9.05814,0.3,68900.0,0.33,276.0,2700.0,20.580427156070094,2.1415486583440995,5782.181377529068,13.004402095760605,3.5867320692004987,7.5760250603094885,1.4451834108563992,2165,74,710,1094,28.99799525507648,16.717034563878162,0.0002711074255796814,False
0.22,0.7142557172109327,2.0,3122.0,9.05814,0.3,68900.0,0.33,276.0,2700.0,24.667300177446048,2.6911019004687806,7265.975131265708,15.38647713973249,4.731772268902248,9.280823037713558,2.0406703684334677,2381,80,782,1202,30.954268260597523,17.86847814286886,0.00030504442001987107,False
0.23,0.5471698614886371,2.0,3123.0,9.05814,0.2,68900.0,0.33,276.0,2700.0,15.88805571191679,1.8016439016596144,4864.438534480959,10.63824600560887,2.567360320646199,5.24980970630792,0.7657164189865844,3487,92,1154,1750,23.436285233136438,13.509942751626959,0.0002091756927281772,False
0.24000000000000005,0.6841167967403223,2.0,3124.0,9.05814,0.2,68900.0,0.33,276.0,2700.0,22.537648901978702,2.6755649503419585,7224.025365923288,14.478125101742211,4.2817861708690295,8.05952380023649,1.606221220527071,4635,112,1532,2331,27.399410011437766,15.803575101416047,0.0002663390644971029,False
0.25,0.7635125823829298,2.0,3125.0,9.05814,0.3,68900.0,0.33,276.0,2700.0,26.686846908201865,3.303130940050338,8918.453538135913,16.920166218934686,5.527183958053138,9.76668068926718,2.2240530180028,2508,82,824,1266,29.30403881009604,16.910692962760063,0.00029679541326545634,False
0.26,0.9071327891020273,2.0,3126.0,9.05814,0.3,68900.0,0.33,276.0,2700.0,35.13477203638829,4.530709276410813,12232.915046309196,21.74010624561178,8.29717764153847,13.39466579077651,3.7664683651276567,3271,98,1078,1648,50.71106566670138,28.322112164590607,0.00040686254942056294,False
0.27,0.6759404289204958,2.0,3127.0,9.05814,0.3,68900.0,0.33,276.0,2700.0,21.407616000198512,2.8488041812263964,7691.77128931127,14.235635668766196,4.164400180920968,7.171980331432316,1.3155959996945712,2265,76,746,1140,24.437592809448983,14.10432322169265,0.00023620954068371162,False
0.28,0.6760556558603197,2.0,3128.0,9.05814,0.3,68900.0,0.33,276.0,2700.0,21.187185409715013,2.920229796072367,7884.620449395391,14.239041322477753,4.166040705863851,6.94814408723726,1.2458109097914836,2262,76,744,1140,23.640391909610088,13.625875144918059,0.00022907380626911494,False
0.29000000000000004,0.6162577730566371,2.0,3129.0,9.05814,0.3,68900.0,0.33,276.0,2700.0,17.953992451505982,2.552248703316098,6891.0714989534645,12.516499915861976,3.3665261791463332,5.437492535644006,0.8142774758302354,1812,66,600,906,21.074081228305467,12.15119117623642,0.00019812279476949686,False
0.3,0.6312393629830916,2.0,3130.0,9.05814,0.3,68900.0,0.33,276.0,2700.0,18.480875885655344,2.715582715083681,7332.073330725939,12.939623191820635,3.5572057353158857,5.541252693834709,0.8416230202322046,1906,68,628,958,20.450382678909286,11.751622446403063,0.0001988728354564796,False
0.31,0.6323994775501416,2.0,3131.0,9.05814,0.3,68900.0,0.33,276.0,2700.0,18.330181257246384,2.778783970377763,7502.716720019959,12.972623491307758,3.5722363194668363,5.357557765938626,0.7934523490890735,1921,68,634,964,20.51392025080087,11.7872051061606,0.00019396364989010184,False
0.32,0.9084248178899657,2.0,3132.0,9.05814,0.3,68900.0,0.33,276.0,2700.0,33.53121178657337,5.296364747136522,14300.18481726861,21.785819955932816,8.325296011858244,11.745391830640557,3.028931264721722,3362,98,1112,1688,27.08602308648323,15.581505423749217,0.00030221893950295106,False
0.33,0.9384242197311834,2.0,3133.0,9.05814,0.3,68900.0,0.33,276.0,2700.0,35.15653906119291,5.725562668302066,15459.01920441558,22.85903535976276,8.994898943952746,12.297503701430148,3.26933627565068,3266,98,1082,1637,27.16951038583036,15.602601553051564,0.00030756190219053726,False
0.34,0.7184488532649134,2.0,3134.0,9.05814,0.3,68900.0,0.33,276.0,2700.0,22.07019099382857,3.6696143638463963,9907.95878238527,15.514662429425389,4.796558455710493,6.555528564403183,1.1269440918640972,2228,74,738,1115,20.661014665562735,11.906307374267733,0.00020990927392256655,False
0.3500000000000001,0.7441380301878391,2.0,3135.0,9.05814,0.2,68900.0,0.33,276.0,2700.0,23.214638757671455,3.9727645925771826,10726.464399958393,16.309634032671863,5.205292940234486,6.905004724999593,1.2325283476573032,5513,114,1598,2932,23.18179997352893,13.370704444757505,0.0002166720928448319,False
0.36000000000000004,0.8912691630344065,2.0,3136.0,9.05814,0.2,68900.0,0.33,276.0,2700.0,31.405194486396162,5.55521890965405,14999.091056065934,21.182249841114675,7.956733899237759,10.222944645281487,2.401514989583709,6947,134,1996,3719,25.37868315578357,14.621981600193573,0.00026742575217966497,False
0.37,1.067274580863948,2.0,3137.0,9.05814,0.3,68900.0,0.33,276.0,2700.0,42.5976845952933,7.7744842550077395,20991.1074885209,27.725806927006065,12.249356155142525,14.871877668287237,4.474871900134786,3989,110,1324,1997,26.96095121468684,15.440914389853551,0.0003325458907365622,False
0.38,0.8151816901640989,2.0,3138.0,9.05814,0.2,68900.0,0.33,276.0,2700.0,26.443007435164386,4.909247764622714,13254.968964481328,18.594494765877577,6.444400478537825,7.848512669286809,1.535152713915111,6957,122,1786,3874,22.62849806672006,13.036362313735692,0.0002280248603573139,False
0.39,0.83396337766796,2.0,3139.0,9.05814,0.3,68900.0,0.33,276.0,2700.0,27.275623479496502,5.194509155422985,14025.174719642058,19.219739748531868,6.799494170520515,8.055883730964634,1.6049850150975304,2735,86,906,1370,21.138826136609623,12.141766416535427,0.00022646921139420369,False
0.4,0.7434799270305278,2.0,3140.0,9.05814,0.3,68900.0,0.33,276.0,2700.0,22.087918629286712,4.2835424393041786,11565.564586121282,16.289061511327386,5.194566288599999,5.798857117959326,0.9110238492958205,2165,74,716,1085,18.333898359297258,10.468148518049494,0.0001901617317607785,False
0.4100000000000001,0.91282401808784,2.0,3141.0,9.05814,0.3,68900.0,0.33,276.0,2700.0,31.43763767230557,6.300367917970603,17010.993378520627,21.941784177921452,8.421479075925676,9.495853494384118,2.121111157955073,3038,92,1008,1520,21.990375285048557,12.605390379482243,0.00024334983755498914,False
0.42000000000000004,1.060249556472208,2.0,3142.0,9.05814,0.2,68900.0,0.33,276.0,2700.0,40.6465255388163,8.380600818805313,22627.622210774345,27.44971203577977,12.05555219798179,13.19681350303653,3.674951379176477,11102,160,2748,6260,24.954012329560975,14.327333082844383,0.0002975285179908847,False
0.43,0.9083543029180325,2.0,3143.0,9.05814,0.2,68900.0,0.33,276.0,2700.0,30.669974016160502,6.42752534206853,17354.31842358503,21.783323959304795,8.323759873378815,8.886650056855707,1.8962345313102853,8437,134,2120,4727,22.114941895846663,12.713634752641749,0.0002367537348959243,False
0.44,0.9596601056144246,2.0,3144.0,9.05814,0.3,68900.0,0.33,276.0,2700.0,33.556159840566245,7.203946212522312,19450.65477381024,23.63241238239718,9.488522426176846,9.923747458169064,2.2845762136545344,3238,96,1078,1611,21.18580261006427,12.130012265877657,0.0002449297409581981,False
0.45,1.0305478117875357,2.0,3145.0,9.05814,0.3,68900.0,0.33,276.0,2700.0,37.82678840189579,8.320175636720974,22464.47421914663,26.296093146907406,11.257434985063611,11.530695254988384,2.9372593483426375,3798,104,1218,1933,22.086016807657348,12.628041764575093,0.0002653350784001974,False
0.46,0.890872842997501,2.0,3146.0,9.05814,0.2,68900.0,0.33,276.0,2700.0,28.915866142964653,6.446789171195326,17406.330762227382,21.168393926857966,7.94834169501759,7.7474722161066865,1.501552523822264,7535,126,1864,4245,20.75641098981975,11.954568528623996,0.0002180558604306156,False
0.4700000000000001,0.9199039555649322,2.0,3147.0,9.05814,0.2,68900.0,0.33,276.0,2700.0,30.391073262869963,6.924455834058674,18696.03075195842,22.193809488018065,8.577716954489803,8.197263774851898,1.6532611204311296,8329,132,2074,4682,20.91380658553684,12.041927607550948,0.00022348420976215323,False
0.4800000000000001,0.8452323371321928,2.0,3148.0,9.05814,0.3,68900.0,0.33,276.0,2700.0,25.86507208760634,5.975993957861652,16135.18368622646,19.599140442224368,7.018215367017836,6.265931645381972,1.042221409156184,2603,80,826,1328,19.641679012069705,11.279811759025769,0.00019304647949197856,False
0.49,1.0079564272405268,2.0,3149.0,9.05814,0.3,68900.0,0.33,276.0,2700.0,35.31361099596805,8.405431204610718,22694.66425244894,25.43348697988481,10.673137714846886,9.880124016083236,2.2677065102361684,3533,98,1118,1804,21.677229642737444,12.341599077647764,0.00024042180047784768,False
0.5,1.1759512681594184,2.0,3150.0,9.05814,0.3,68900.0,0.33,276.0,2700.0,46.39094415307416,11.335936650469392,30607.02895626736,32.15498813339043,15.500491136582761,14.235956019683726,4.164554486113369,5026,116,1488,2652,23.72367845625922,13.574327200057247,0.0002927180585528956,False
0.01,0.4406783589620774,2.0,3151.0,12.07752,0.05,68900.0,0.33,276.0,2700.0,15.721006945258228,0.07860294033118922,212.2279388942109,7.978084282974643,1.5786491469157313,7.742922662283585,1.5000462065845421,50582,358,16758,25439,555.6133278123153,316.02165089932816,0.00391650905225572,True
0.02,0.6525168149344438,2.0,3152.0,12.07752,0.1,68900.0,0.33,276.0,2700.0,26.526217832858315,0.2652454231677623,716.1626425529581,13.550254711021225,3.839004112270969,12.97596312183709,3.5737586891032067,20712,244,6878,10389,376.9200298947049,214.72194421106957,0.0037195768243331127,True
0.03,0.6753747418032283,2.0,3153.0,12.07752,0.1,68900.0,0.33,276.0,2700.0,27.562940116329035,0.4133875530771759,1116.1463933083749,14.218921029875743,4.15635199322416,13.344019086453292,3.742964440146984,22217,252,7302,11258,305.8918766007541,174.36700950650982,0.0026189242541165636,True
0.04,0.5440809271243282,2.0,3154.0,12.07752,0.1,68900.0,0.33,276.0,2700.0,20.084622689686814,0.4015584125071827,1084.2077137693934,10.55707056361704,2.5346249115180033,9.527552126069773,2.1330664990108206,16090,208,5282,8161,183.21997303341436,104.56893358819782,0.0013663630564808022,False
0.05,0.661710785868418,2.0,3155.0,12.07752,0.1,68900.0,0.33,276.0,2700.0,26.20682438012686,0.6549088101153733,1768.253787311508,13.817628640891533,3.9648122466257876,12.389195739235328,3.3099034365104143,21206,244,6968,10748,187.16346561918877,106.81044179824436,0.0015099247122489254,False
0.06000000000000001,0.7213904372569183,2.0,3156.0,12.07752,0.1,68900.0,0.33,276.0,2700.0,29.413127892898643,0.8819414474448417,2381.2419081010726,15.604851173307754,4.842328733927656,13.80827671959089,3.9603872864828142,23612,262,7776,11942,164.30278231003422,93.77742554578454,0.0014570613273493327,False
0.06999999999999999,0.6515658458322275,2.0,3157.0,12.07752,0.1,68900.0,0.33,276.0,2700.0,25.081075552968006,0.8771192668337594,2368.2220204511505,13.522720392868429,3.826131332657718,11.558355160099577,2.9490120658239585,20065,238,6596,10165,125.21997335898764,71.73442737796853,0.0010462215051144762,False
0.08,0.6785816527922681,2.0,3158.0,12.07752,0.1,68900.0,0.33,276.0,2700.0,26.338313085760234,1.0524601931379818,2841.642521472551,14.313783664775896,4.202102846265508,12.024529420984338,3.1496426531275263,20911,244,6874,10594,110.51251041150391,63.252282066806906,0.0009788053817385203,False
0.09,0.4193602390208823,2.0,3159.0,12.07752,0.2,68900.0,0.33,276.0,2700.0,12.981835626240322,0.58265578915117,1573.170630708159,7.479795946379808,1.4139029656199467,5.5020396798605145,0.8312471764687767,2912,84,952,1478,58.58704324838629,33.82479701178744,0.00046195909577726244,False
0.09999999999999999,0.5122036194958426,2.0,3160.0,12.07752,0.2,68900.0,0.33,276.0,2700.0,17.04843826256108,0.8503275180256611,2295.884298669285,9.733359860186802,2.2112906080120487,7.315078402374279,1.3609630899863876,3733,98,1228,1885,62.08653659383904,35.833084869258364,0.0005410431218268274,False
0.11,0.6397693807624926,2.0,3161.0,12.07752,0.3,68900.0,0.33,276.0,2700.0,23.36715634155348,1.282405958904158,3462.4960890412267,13.183055718451484,3.668617893195537,10.184100623101994,2.386211934291379,2453,80,804,1241,70.95630468497211,40.861783840730695,0.0006664880197134106,False
0.12,0.6481697357637849,2.0,3162.0,12.07752,0.3,68900.0,0.33,276.0,2700.0,23.567307571233844,1.4104193395370659,3808.132216750078,13.42457508852933,3.780373423942776,10.142732482704513,2.36995408440571,2377,80,780,1201,66.47044920952418,38.344321070661906,0.000625256569365245,False
0.13,0.709709413903814,2.0,3163.0,12.07752,0.3,68900.0,0.33,276.0,2700.0,26.755930330491264,1.7345340854419764,4683.242030693336,15.247994721557589,4.662135665338801,11.507935608933675,2.927601579896825,2714,86,888,1376,66.54724524807347,38.42048151762045,0.0006581639770887806,False
0.14,0.5088076180624509,2.0,3164.0,12.07752,0.2,68900.0,0.33,276.0,2700.0,15.990951493469334,1.1136195843818877,3006.7728778310966,9.647112371716581,2.17838263430039,6.343839121752753,1.0647630499185023,3361,90,1102,1702,45.31143032675056,26.113748908667098,0.0003934972699946909,False
0.15000000000000002,0.5656925153037021,2.0,3165.0,12.07752,0.3,68900.0,0.33,276.0,2700.0,18.52525961328589,1.3823258875258657,3732.2798963198375,11.13004120346965,2.7689502350072437,7.3952184098162395,1.386624347481378,1899,68,620,963,48.133305087206416,27.65141366329149,0.00042458868100887255,False
0.16,0.5928675700171286,2.0,3166.0,12.07752,0.3,68900.0,0.33,276.0,2700.0,19.661361417865752,1.564330271089859,4223.691731942619,11.867171791828978,3.081383464692356,7.794189626036774,1.517053193602497,2164,74,706,1099,47.46112657145953,27.40112324128441,0.0004245592331115713,False
0.17,0.6873780134826175,2.0,3167.0,12.07752,0.3,68900.0,0.33,276.0,2700.0,24.440642953788412,2.067164887933958,5581.345197421686,14.575312891566618,4.329160877427895,9.865330062221794,2.2619959894939368,2458,80,808,1240,51.06212740820639,29.417114862830346,0.0004901648316518704,False
0.18000000000000002,0.5191406037188695,2.0,3168.0,12.07752,0.3,68900.0,0.33,276.0,2700.0,15.617542236693716,1.3933642890652778,3762.08358047625,9.910437650599391,2.2794242655677803,5.707104586094324,0.8860599765025026,1599,62,522,810,37.734190644388356,21.785844161768885,0.00032247221536399836,False
0.19,0.6242793429303455,2.0,3169.0,12.07752,0.3,68900.0,0.33,276.0,2700.0,20.569665004009632,1.9397527193735864,5237.332342308683,12.742350582908495,3.4678329152216008,7.827314421101137,1.5280801958480144,2229,76,726,1134,41.95906992676643,24.225080061815884,0.00038790938700331874,False
0.2,0.5506669805466734,2.0,3170.0,12.07752,0.2,68900.0,0.33,276.0,2700.0,16.68230203867366,1.6514750430482195,4458.982616230192,10.730437741013485,2.6047246466583007,5.951864297660176,0.9532496036100813,3750,96,1244,1878,35.2323925909745,20.337944446478296,0.00031692067165158114,False
0.21000000000000002,0.8109642211109398,2.0,3171.0,12.07752,0.3,68900.0,0.33,276.0,2700.0,30.545697896369177,3.1879020860754976,8607.335632403843,18.45531355171337,6.366272425649164,12.090384344655806,3.1783703395736667,2948,92,968,1490,48.08362332272024,27.734862734964366,0.0005053760207313017,False
0.22,0.7642263789302441,2.0,3172.0,12.07752,0.3,68900.0,0.33,276.0,2700.0,27.503727187075306,3.0031088715274725,8108.393953124176,16.94283961264875,5.539269605613809,10.560887574426555,2.5361607340863364,2568,84,844,1296,43.66329963422491,25.204824556553007,0.00044604532154776373,False
0.23,0.8611065686339644,2.0,3173.0,12.07752,0.2,68900.0,0.33,276.0,2700.0,33.07485284030058,3.778125571423749,10200.939042844122,20.1390049224319,7.33361324857235,12.935847917868678,3.555487677148601,6452,140,2140,3236,46.09913228647077,26.581578003439887,0.000505871827419774,False
0.24000000000000005,0.7058896240953535,2.0,3174.0,12.07752,0.3,68900.0,0.33,276.0,2700.0,23.7141557123524,2.8167457675868044,7605.213572484372,15.132043807216853,4.604113101290904,8.582111905135548,1.7873673337040992,2299,78,758,1156,38.21827410193732,22.057944993883673,0.00036943073904299034,False
0.25,0.557163776181034,2.0,3175.0,12.07752,0.2,68900.0,0.33,276.0,2700.0,15.94808915881918,1.9607862213775027,5294.1227977192575,10.902523450602445,2.674996536249264,5.045565708216735,0.7142103148717611,3405,92,1130,1704,28.89809114132693,16.676555151160898,0.0002657504862382351,False
0.26,0.5743242301040712,2.0,3176.0,12.07752,0.2,68900.0,0.33,276.0,2700.0,16.553636067246774,2.115161600422435,5710.936321140574,11.362167380081287,2.866022052924102,5.191468687165488,0.7508604525016671,3529,94,1174,1762,28.810895717844726,16.622288067635015,0.0002660064998119335,False
0.27,0.6141584009805335,2.0,3177.0,12.07752,0.3,68900.0,0.33,276.0,2700.0,18.270904065883055,2.4253480700937597,6548.4397892531515,12.457658219300363,3.340311173418646,5.813245846582692,0.9149631033248862,1870,68,616,940,30.148990587454335,17.33638983134703,0.0002792438842994282,False
0.28,0.6758058038538126,2.0,3178.0,12.07752,0.3,68900.0,0.33,276.0,2700.0,21.174175226484564,2.918408370420104,7879.70260013428,14.231657105647027,4.162483975332054,6.942518120837537,1.2440756049119504,2262,76,744,1140,31.50654201908588,18.159790707294047,0.0003052897508790297,False
0.29000000000000004,0.8371236458423325,2.0,3179.0,12.07752,0.3,68900.0,0.33,276.0,2700.0,29.962846615151705,4.293532557044731,11592.537904020774,19.32581689759664,6.860401252382206,10.637029717555066,2.566868695337475,2894,90,958,1451,36.66117965723396,21.124081730874813,0.00039321338889775016,False
0.3,0.6864427970407692,2.0,3180.0,12.07752,0.2,68900.0,0.33,276.0,2700.0,21.280235601574862,3.1354866724716124,8465.814015673353,14.547415093246634,4.3155428521196075,6.732820508328228,1.1800561796479951,4608,110,1494,2335,29.897399807987224,17.171145896431234,0.00029415816617669104,False
0.31,0.9493969280163581,2.0,3181.0,12.07752,0.3,68900.0,0.33,276.0,2700.0,36.42961705364707,5.5841965188199,15077.330600813732,23.257228697881413,9.247906333363131,13.172388355765658,3.663709814543231,3426,100,1128,1728,38.928576815540275,22.376849848592336,0.00044196437730523543,False
0.32,0.7417188045582818,2.0,3182.0,12.07752,0.3,68900.0,0.33,276.0,2700.0,23.76842475043823,3.734318821354896,10082.66081765822,16.23406178277141,5.165927698389599,7.534362967666819,1.4316088770347033,2340,78,772,1176,31.22969498211361,18.00693062617345,0.00030530549299311407,False
0.33,0.7341040858346759,2.0,3183.0,12.07752,0.3,68900.0,0.33,276.0,2700.0,23.127363271829378,3.740748663057135,10100.021390254264,15.997151831329665,5.04321281023489,7.130211440499712,1.3024641471777554,2390,78,788,1202,29.132580255111538,16.78630070226708,0.0002939678936467212,False
0.34,0.9572714723015805,2.0,3184.0,12.07752,0.3,68900.0,0.33,276.0,2700.0,36.089808220970106,6.052949292460459,16342.96308964324,23.544856447244427,9.432177856752599,12.544951773725678,3.3792285642921396,3571,102,1184,1789,35.85688724043,20.572683764592746,0.00041099978385510387,False
0.3500000000000001,0.6642673415467992,2.0,3185.0,12.07752,0.2,68900.0,0.33,276.0,2700.0,19.082658905860548,3.2496681185104905,8774.103919978324,13.892354470625893,4.000233268965104,5.190304435234655,0.7505651504546136,4307,100,1276,2273,27.723357732961816,16.002600002116523,0.0002513735891820014,False
0.36000000000000004,0.9563923876681724,2.0,3186.0,12.07752,0.2,68900.0,0.33,276.0,2700.0,35.47681271783608,6.2881101913132404,16977.89751654575,23.512669484320664,9.411494084209096,11.964143233515419,3.1233838928958555,8166,146,2332,4380,35.58714959409795,20.461921282425497,0.0003922428081976188,False
0.37,0.9429776787101337,2.0,3187.0,12.07752,0.3,68900.0,0.33,276.0,2700.0,34.349742799852365,6.248615022851171,16871.26056169816,23.023910481973417,9.099361802079365,11.325832317878948,2.850746779228194,3035,94,1010,1514,32.95635629939674,18.918933838040616,0.0003730791652585011,False
0.38,0.8507530863594823,2.0,3188.0,12.07752,0.3,68900.0,0.33,276.0,2700.0,28.486648431362035,5.29753955390027,14303.35679553073,19.786176536163737,7.126933243741717,8.700471895198298,1.8293936898414467,2717,86,902,1358,29.152350553262494,16.660681637786567,0.0003170717370179814,False
0.39,0.9907414341301322,2.0,3189.0,12.07752,0.3,68900.0,0.33,276.0,2700.0,36.868999118037806,7.065217404938509,19076.086993333975,24.7847787208665,10.24089485093401,12.084220397171308,3.1756774459955013,3566,102,1182,1787,32.91499871584439,18.820065256965332,0.0003812823633501436,False
0.4,1.0062823428498817,2.0,3190.0,12.07752,0.3,68900.0,0.33,276.0,2700.0,37.60796944590975,7.387552602628782,19946.39202709771,25.37007594185288,10.630612998834982,12.237893504056874,3.2430603962062,3644,104,1216,1814,32.22449936367452,18.458692123531492,0.00038093490613444654,False
0.4100000000000001,0.9274303651985885,2.0,3191.0,12.07752,0.3,68900.0,0.33,276.0,2700.0,32.329778083406815,6.483256702246357,17504.793096065165,22.46310937962948,8.74576919373746,9.866668703777336,2.262512491491104,2990,92,996,1490,29.908044623039377,17.125512874037252,0.0003315460201724492,False
0.42000000000000004,1.0282197855011763,2.0,3192.0,12.07752,0.3,68900.0,0.33,276.0,2700.0,38.49841853802332,7.9294983486387896,21409.64554132473,26.206609386842974,11.196321175687316,12.291809151180349,3.266822827048527,3638,104,1214,1811,31.317509337724086,17.875354189469505,0.0003759819736910619,False
0.43,0.7837175597811468,2.0,3193.0,12.07752,0.2,68900.0,0.33,276.0,2700.0,23.58411757384756,4.904066206971247,13240.978758822366,17.566916190385662,5.875572042735419,6.017201383461899,0.9715058357641722,6530,114,1636,3660,26.39720244903664,15.206972631601861,0.00026173066486571956,False
0.44,0.9626218433899763,2.0,3194.0,12.07752,0.3,68900.0,0.33,276.0,2700.0,33.74093244203528,7.244596184845502,19560.409699082855,23.741174732733754,9.558676443025515,9.999757709301527,2.314080258180013,3247,96,1080,1617,28.593156263425378,16.33452580912918,0.00032806522892635237,False
0.45,0.8972871782064468,2.0,3195.0,12.07752,0.3,68900.0,0.33,276.0,2700.0,29.52801101524975,6.452950724725616,17422.966956759163,21.39313332413646,8.084843093683189,8.134877691113289,1.6318923689575726,2830,88,918,1431,26.81582657940724,15.369061761954008,0.0002937320873475351,False
0.46,1.1238266309277547,2.0,3196.0,12.07752,0.3,68900.0,0.33,276.0,2700.0,43.873037008356896,9.886938470235545,26694.733869635973,29.99357583172327,13.881052072346977,13.879461176633626,3.9941136021114314,4049,110,1342,2024,30.78784508672049,17.492498537557424,0.0003923822406877647,False
0.4700000000000001,1.034895734147645,2.0,3197.0,12.07752,0.3,68900.0,0.33,276.0,2700.0,37.57229001155346,8.612041769999303,23252.51277899812,26.463581636778926,11.372132297766875,11.108708374774537,2.760090527767572,3457,100,1146,1722,28.96398394575604,16.66795553684885,0.00034295376849560933,False
0.4800000000000001,0.8846525484312261,2.0,3198.0,12.07752,0.3,68900.0,0.33,276.0,2700.0,28.094118471323142,6.510965089953688,17579.605742874955,20.951440746825174,7.817343309711751,7.142677724497968,1.306378219758063,2965,86,898,1548,26.152031558267527,15.054141517676182,0.0002754798808843215,False
0.49,0.9194840391931647,2.0,3199.0,12.07752,0.3,68900.0,0.33,276.0,2700.0,29.893831387510616,7.07758520053864,19109.480041454328,22.17882653515922,8.568400556482574,7.715004852351395,1.4908153559439343,3135,88,942,1640,53.96892585677707,27.712496892910767,0.00028538266865079596,False
0.5,1.1000904831330163,2.0,3200.0,12.07752,0.3,68900.0,0.33,276.0,2700.0,41.098172155473904,10.012743651069325,27034.407857887178,29.031954764721302,13.18056072186311,12.066217390752602,3.1678170707937845,4591,108,1324,2451,29.91736400103793,17.16679241626654,0.0003563548038125555,False
0.01,0.5564798848136849,2.0,3201.0,15.0969,0.05,68900.0,0.33,276.0,2700.0,21.504451738549154,0.10752016429764308,290.3044436036363,10.884358728535704,2.6675466065972975,10.62009301001345,2.5600264422996544,69285,430,22978,34812,900.950298626367,513.5272168435181,0.007101835511211169,True
0.02,0.6842909203732794,2.0,3202.0,15.0969,0.1,68900.0,0.33,276.0,2700.0,28.376351842724983,0.28374676326643256,766.1162608193679,14.483307419652244,4.284307605781105,13.89304442307274,4.000560842514673,22283,254,7390,11192,499.8239692644801,284.60190991143537,0.005045203952978011,True
0.03,0.5259383163442197,2.0,3203.0,15.0969,0.1,68900.0,0.33,276.0,2700.0,19.40803758779917,0.2910640151492233,785.8728409029029,10.085133560442719,2.347385681123473,9.322904027356453,2.0563216659742496,15985,206,5254,8098,284.5165087445724,162.3025250878498,0.002158638216782979,True
0.04,0.4171481003413201,2.0,3204.0,15.0969,0.1,68900.0,0.33,276.0,2700.0,13.955575696458723,0.2789774726421833,753.239176133895,7.428743669222936,1.3974131097226854,6.526832027235788,1.118435637080502,11423,168,3744,5801,164.83717098205975,94.26104354222028,0.0012131030880984793,False
0.05,0.6012685294325173,2.0,3205.0,15.0969,0.1,68900.0,0.33,276.0,2700.0,22.845132668534035,0.5708665173255506,1541.3395967789866,12.098805795338034,3.1820508254405557,10.746326873196,2.6111843081150052,18184,224,5976,9214,207.838654295969,118.71618985479346,0.0016116211795744683,False
0.06000000000000001,0.5504683121343837,2.0,3206.0,15.0969,0.2,68900.0,0.33,276.0,2700.0,19.911554380386498,0.5968942420694778,1611.61445358759,10.725192170822663,2.6025933687100937,9.186362209563836,2.005699126640616,4445,106,1462,2246,136.151519932386,78.16854834396464,0.0011934848541636602,False
0.06999999999999999,0.7593989740353513,2.0,3207.0,15.0969,0.1,68900.0,0.33,276.0,2700.0,31.42542288232564,1.099171423361275,2967.7628430754426,16.789749031292672,5.4578494094582855,14.63567385103297,4.35867798609701,24704,270,8120,12518,183.71391901826865,105.09799259424416,0.0017040053655069545,False
0.08,0.5769068695943204,2.0,3208.0,15.0969,0.2,68900.0,0.33,276.0,2700.0,20.77914364832555,0.830093415640598,2241.2522222296147,11.431984305434556,2.895456554990308,9.347159342890995,2.06536313934971,4547,108,1484,2315,107.44907640909013,62.030679959075464,0.0009741192980872312,False
0.09,0.7146698587151403,2.0,3209.0,15.0969,0.1,68900.0,0.33,276.0,2700.0,28.152504889274486,1.2653359059877058,3416.406946166806,15.399117889332604,4.738147065070114,12.753386999941881,3.4728111590824087,22570,254,7434,11413,129.41410547468584,74.1504801668459,0.001185804928905678,False
0.09999999999999999,0.5533640621224225,2.0,3210.0,15.0969,0.1,68900.0,0.33,276.0,2700.0,19.081768405281057,0.9519940251616619,2570.383867936487,10.801748669216456,2.6337616371941683,8.2800197360646,1.6817676120325065,15203,202,5002,7694,85.11925980575958,48.945124840994076,0.0007477838310110214,False
0.11,0.5724857766298133,2.0,3211.0,15.0969,0.2,68900.0,0.33,276.0,2700.0,19.81219785775307,1.0868832422951364,2934.5847541968683,11.312570298913199,2.8451788408065424,8.49962755883987,1.758295598511406,4265,104,1398,2162,78.25014139719829,45.107084601504326,0.000716350560601456,False
0.12,0.7401740623436426,2.0,3212.0,15.0969,0.3,68900.0,0.33,276.0,2700.0,28.812446416238892,1.7251276702373963,4657.84470964097,16.185883766943128,5.140887476866293,12.626562649295764,3.415759806628897,2831,88,924,1439,93.21806868827596,53.72249880848963,0.0009395078830456933,False
0.13,0.5375629554016231,2.0,3213.0,15.0969,0.3,68900.0,0.33,276.0,2700.0,17.59552518115137,1.139107750734881,3075.5909269841786,10.38656884121421,2.466370466769705,7.20895633993716,1.327262716034824,1887,68,616,957,66.73072172908755,38.52514311923656,0.0005661297066902788,False
0.14,0.7404806672570062,2.0,3214.0,15.0969,0.3,68900.0,0.33,276.0,2700.0,28.27244873627029,1.973324391377951,5327.975856720468,16.195441508772298,5.145851613521305,12.077007227497994,3.172527222143354,2846,88,926,1451,80.60688244274792,46.521041532852074,0.0008137868090574098,False
0.15000000000000002,0.5342437604172372,2.0,3215.0,15.0969,0.3,68900.0,0.33,276.0,2700.0,16.984042814409186,1.2667346276101117,3420.1834945473015,10.300153297641778,2.432038911173694,6.683889516767408,1.1653042835635825,1864,68,608,946,58.19056806676853,33.59485468945549,0.0004930828181272003,False
0.16,0.5639266028501193,2.0,3216.0,15.0969,0.3,68900.0,0.33,276.0,2700.0,18.2089615495724,1.4481382816263881,3909.9733603912478,11.082782590584916,2.7493372954572957,7.126178958987484,1.3011990138309075,1880,68,612,956,57.17884071160696,33.011530722515666,0.0004971290989597708,False
0.17,0.7715347669899657,2.0,3217.0,15.0969,0.3,68900.0,0.33,276.0,2700.0,29.2818992773153,2.4786716754337426,6692.4135236711045,17.175723695556748,5.663944638394733,12.106175581758553,3.185272962960991,3012,92,984,1530,69.53002099709227,40.11070050132422,0.0007181563805383068,False
0.18000000000000002,0.7879982749937902,2.0,3218.0,15.0969,0.3,68900.0,0.33,276.0,2700.0,29.99089676276261,2.6869661964114733,7254.808730310978,17.705256638789592,5.951066941853168,12.285640123973018,3.2641007454416946,2953,92,970,1492,67.34548741187415,38.87435799070059,0.0007016260753781241,False
0.19,0.6914548793777276,2.0,3219.0,15.0969,0.3,68900.0,0.33,276.0,2700.0,24.15855351614716,2.2806971280266626,6157.882245671989,14.697183849548347,4.3888307573240475,9.461369666598811,2.108133629297385,2445,80,800,1239,57.80496415839798,33.37354558502549,0.0005567353851742714,False
0.2,0.5322240341249297,2.0,3220.0,15.0969,0.3,68900.0,0.33,276.0,2700.0,15.809541006513435,1.5641989398321987,4223.337137546937,10.247705044942094,2.4112884035569726,5.56183596157134,0.8470894637247739,1625,62,536,815,43.89062261222418,25.230518297352585,0.0003779061009103768,False
0.21000000000000002,0.709111993392739,2.0,3221.0,15.0969,0.3,68900.0,0.33,276.0,2700.0,24.632305473234076,2.566995881646316,6930.888880445053,15.229835643450766,4.653031625288819,9.40246982978331,2.0860357436425034,2405,80,788,1217,53.31882108448589,30.78345866842424,0.000525150201349814,False
0.22,0.6838214954268627,2.0,3222.0,15.0969,0.3,68900.0,0.33,276.0,2700.0,23.00129889179586,2.5078417590472215,6771.172749427498,14.469338000641851,4.277512058985729,8.531960891154007,1.7696702999385074,2364,78,778,1191,49.030991581447765,28.29935720249305,0.00047923388721304443,False
0.23,0.6198584949203609,2.0,3223.0,15.0969,0.3,68900.0,0.33,276.0,2700.0,19.426744273152895,2.2085930862017644,5963.201332744764,12.61767971687242,3.4117766764366175,6.809064556280475,1.203183590234853,2056,72,674,1039,43.48890918024152,25.10831891448607,0.0004052861056550254,False
0.24000000000000005,0.8308145522407713,2.0,3224.0,15.0969,0.3,68900.0,0.33,276.0,2700.0,30.92513134719417,3.6820628437678202,9941.569678173115,19.114296331689136,6.739140642141367,11.810835015505035,3.0570777983735464,3164,94,1038,1601,54.09063699050081,31.202602316874483,0.0005777177351900652,False
0.25,0.6703918875422746,2.0,3225.0,15.0969,0.3,68900.0,0.33,276.0,2700.0,21.57568421971094,2.6642356039889736,7193.436130770228,14.072037583880647,4.085867390501964,7.503646635830293,1.42163178651299,2210,76,730,1109,42.937255951579466,24.787183685990744,0.0004165947204912411,False
0.26,0.6736444099273964,2.0,3226.0,15.0969,0.3,68900.0,0.33,276.0,2700.0,21.51598028289701,2.7602663484569514,7452.7191408337685,14.167843977083994,4.131792741902895,7.348136305813018,1.3715263934459432,2274,76,744,1152,42.18948688584836,24.353503434743335,0.0004053341661581096,False
0.27,0.6498970832504267,2.0,3227.0,15.0969,0.3,68900.0,0.33,276.0,2700.0,20.06198674280269,2.6671442314779297,7201.28942499041,13.4744580499618,3.803605401791178,6.587528692840891,1.1364611703132481,1973,70,652,989,39.47676184975738,22.780014416710763,0.00037387535584217844,False
0.28,0.8268977638036106,2.0,3228.0,15.0969,0.3,68900.0,0.33,276.0,2700.0,29.614570024172004,4.100063642096347,11070.171833660137,18.983484222852887,6.6645302948113745,10.631085801319117,2.5644666527150273,2926,90,968,1468,46.77393463139808,26.930917027036138,0.0004989058700089984,False
0.29000000000000004,0.7940593042302903,2.0,3229.0,15.0969,0.3,68900.0,0.33,276.0,2700.0,27.428925886596627,3.926114051403926,10600.5079387906,17.901919415000382,6.058974543064469,9.527006471596245,2.132860491660543,2689,86,884,1357,44.443216389350724,25.617214314763604,0.00045688684771741893,False
0.3,0.9342478948656074,2.0,3230.0,15.0969,0.3,68900.0,0.33,276.0,2700.0,35.733546890737976,5.303483365846085,14319.40508778443,22.708273947646532,8.899747153053504,13.025272943091444,3.596263787207419,3386,100,1116,1706,49.09130749421362,28.198833822349542,0.0005564226501681557,False
0.31,0.6211802021421408,2.0,3231.0,15.0969,0.2,68900.0,0.33,276.0,2700.0,17.782147868392958,2.6938387951054983,7273.364746784845,12.654901269312605,3.4284781480021396,5.127246599080353,0.7346393528966413,3634,96,1198,1821,33.43018606387133,19.27441721831088,0.00031662962368246594,False
0.32,0.825789783964558,2.0,3232.0,15.0969,0.3,68900.0,0.33,276.0,2700.0,28.51726244508737,4.494132852498756,12134.15870174664,18.94655009733803,6.643517440999452,9.570712347749339,2.1493845885006966,2863,88,948,1435,41.88229517144455,24.108545707097544,0.0004411503099809756,False
0.33,0.7078174779572517,2.0,3233.0,15.0969,0.3,68900.0,0.33,276.0,2700.0,21.732112758417365,3.5105323283441474,9478.437286529199,15.190518579885614,4.633341820784792,6.541594178531751,1.1228094924406444,2044,72,676,1024,34.57635520441336,19.907643436312412,0.0003507154775722053,False
0.34,0.8829312802191107,2.0,3234.0,15.0969,0.3,68900.0,0.33,276.0,2700.0,31.41849737741837,5.258826449056662,14198.831412452988,20.891577647683228,7.7813317916618505,10.526919729735141,2.5225053426051884,2933,92,972,1469,42.18093085540119,24.247299287862354,0.00045792770739788176,False
0.3500000000000001,0.9448531066953818,2.0,3235.0,15.0969,0.3,68900.0,0.33,276.0,2700.0,35.01372651126552,6.03760494945636,16301.533363532171,23.0919689232181,9.142605293664493,11.921757588047416,3.1050003442081335,3343,98,1104,1681,43.281599229465854,24.84786534210803,0.0004911414393354025,False
0.36000000000000004,0.7518011121110415,2.0,3236.0,15.0969,0.2,68900.0,0.33,276.0,2700.0,23.40254360519155,4.114741751037224,11109.802727800505,16.54998580247686,5.331194977141703,6.8525578027146885,1.2164532261044787,5911,114,1610,3224,37.909023196481336,21.798530933756535,0.0003577727312508214,False
0.37,0.7757612951538309,2.0,3237.0,15.0969,0.3,68900.0,0.33,276.0,2700.0,24.47891806774299,4.4225124474106865,11940.783608008853,17.311015987950803,5.736824068542581,7.167902079792185,1.3143116211318944,2521,82,834,1264,34.427871674893595,19.808554975736207,0.0003594209872912961,False
0.38,0.8549993876262936,2.0,3238.0,15.0969,0.3,68900.0,0.33,276.0,2700.0,28.73485550516616,5.344698897923052,14430.687024392239,19.930557099340202,7.211257691558595,8.804298405825957,1.8665587936355434,2717,86,900,1361,36.612551445593574,21.008388550783906,0.0003988524732537709,False
0.39,0.8130830072010384,2.0,3239.0,15.0969,0.3,68900.0,0.33,276.0,2700.0,26.09116853863127,4.963540441954209,13401.559193276365,18.525179993296756,6.4054492833919,7.565988545334513,1.4419088414376908,2672,84,890,1329,35.07144088098258,20.183816703427123,0.0003636678555681578,False
0.4,0.8026882238093251,2.0,3240.0,15.0969,0.3,68900.0,0.33,276.0,2700.0,25.28156020506286,4.922270754459341,13290.131037040223,18.183495659522347,6.2146622697543155,7.098064545540513,1.292391515294974,2518,82,816,1276,32.67797495429612,18.78791095072917,0.0003518324255033262,False
0.4100000000000001,0.8207061949365883,2.0,3241.0,15.0969,0.3,68900.0,0.33,276.0,2700.0,26.05826230156653,5.197595966969176,14033.509110816774,18.777485943130298,6.547630968296686,7.280776358436231,1.3500350013275106,2736,84,898,1373,33.282765315402315,19.088877584029294,0.00035607659956456215,False
0.42000000000000004,0.9969707535015547,2.0,3242.0,15.0969,0.3,68900.0,0.33,276.0,2700.0,36.45237005377605,7.499828166946864,20249.536050756535,25.0186566393915,10.396015096992615,11.433713414384549,2.896186930045751,3597,102,1184,1807,38.0600666576268,21.74471986720957,0.00045024514459703345,False
0.43,0.86964161902999,2.0,3243.0,15.0969,0.1,68900.0,0.33,276.0,2700.0,28.385477609554954,5.936358614648067,16028.16825954978,20.431890244719963,7.506749263806801,7.953587364834991,1.5703906491587345,45996,248,7338,29217,36.05187966855104,20.75421359253187,0.0003744884987476343,False
0.44,1.0049937185831175,2.0,3244.0,15.0969,0.3,68900.0,0.33,276.0,2700.0,36.43264428076407,7.836772789365834,21159.28653128775,25.321313354511197,10.597951926134984,11.111330926252876,2.76117913676915,3443,100,1150,1710,36.98979067696618,21.127895420496827,0.0004366067640065143,False
0.45,0.8043790306025687,2.0,3245.0,15.0969,0.2,68900.0,0.33,276.0,2700.0,24.270288385500145,5.269963133031951,14228.900459186269,18.238888812113892,6.245453867175911,6.031399573386253,0.9754907341439596,6610,116,1662,3699,32.6301471866198,18.7705031598465,0.00032541908250877056,False
0.46,0.7642917452917944,2.0,3246.0,15.0969,0.2,68900.0,0.33,276.0,2700.0,21.932323242385962,4.840574304062221,13069.550620967997,16.944916582759145,5.540377165274797,4.987406659626817,0.699802861212576,6020,108,1496,3388,30.936256329094725,17.76814481507746,0.00030059918206468155,False
0.4700000000000001,1.0868840414674206,2.0,3247.0,15.0969,0.3,68900.0,0.33,276.0,2700.0,41.03712846999684,9.42627880773349,25450.952780880423,28.503053904575555,12.800649178100178,12.534074565421282,3.3743703703666874,3923,106,1268,1987,36.97180737940431,21.03120686283576,0.0004583437136068072,False
0.4800000000000001,1.0098987007357718,2.0,3248.0,15.0969,0.3,68900.0,0.33,276.0,2700.0,35.694592515681,8.33507886059958,22504.712923618867,25.507144761587178,10.722608018932325,10.187447754093824,2.387529158332745,3640,100,1154,1859,36.891963120320796,21.14625044353061,0.0004080097866103336,False
0.49,1.1378691689038452,2.0,3249.0,15.0969,0.3,68900.0,0.33,276.0,2700.0,43.98504973037207,10.5299336945397,28430.82097525719,30.569146860128512,14.306273439449662,13.415902870243556,3.7763397449099614,4166,110,1332,2118,37.98987988295587,21.841132445178026,0.00047217193274499926,False
0.5,1.1039099457454873,2.0,3250.0,15.0969,0.3,68900.0,0.33,276.0,2700.0,41.35773879768117,10.077635311621014,27209.61534137674,29.18573647719296,13.291740752706536,12.172002320488211,3.214105441085522,4506,108,1318,2391,37.849195790890775,21.651953894163455,0.00044756251246234863,False
0.01,0.5493569175054711,2.0,3251.0,18.11628,0.05,68900.0,0.33,276.0,2700.0,21.129255675234898,0.10564418398107303,285.2392967488972,10.695865598407885,2.5906897473100883,10.433390076827013,2.4850455633290154,68115,426,22564,34263,1083.4899330109165,615.9161887008123,0.008341776767604074,True
0.02,0.5920516609931986,2.0,3252.0,18.11628,0.1,68900.0,0.33,276.0,2700.0,23.14564107572609,0.23143965559632113,624.887070110067,11.844769781781373,3.071710072277559,11.300871293944716,2.840270416681238,18275,226,6066,9170,556.424347552511,317.0764852711392,0.004732754955575722,True
0.03,0.5372852978906744,2.0,3253.0,18.11628,0.1,68900.0,0.33,276.0,2700.0,19.987873824923888,0.29976155870597626,809.3562085061359,10.379329390268937,2.463487563006752,9.60854443465495,2.1637260043007758,15702,206,5160,7956,348.79408464907544,198.97047452166817,0.002682928994209464,True
0.04,0.6095565478902498,2.0,3254.0,18.11628,0.1,68900.0,0.33,276.0,2700.0,23.562786121174774,0.4711216811369454,1272.0285390697527,12.329063916031016,3.2832789505968307,11.233722205143758,2.8121572694598855,18742,228,6164,9490,313.35779586478503,178.82462284861285,0.0024693564220713464,True
0.05,0.5082140137364067,2.0,3255.0,18.11628,0.1,68900.0,0.33,276.0,2700.0,18.02858982252205,0.45045294617525145,1216.222954673179,9.63206649575319,2.1726605327493114,8.396523326768861,1.72220758657406,14396,194,4730,7295,203.34315586621057,116.30062067074996,0.0015231438996314585,False
0.06000000000000001,0.5351208887048181,2.0,3256.0,18.11628,0.2,68900.0,0.33,276.0,2700.0,19.130238398471057,0.573454762612016,1548.3278590524433,10.322962495217457,2.4410834688803362,8.8072759032536,1.8676287062683201,3957,102,1300,2001,158.82031102482907,91.6708199649542,0.001379758667910815,False
0.06999999999999999,0.7536036222328839,2.0,3257.0,18.11628,0.2,68900.0,0.33,276.0,2700.0,31.069592036618488,1.086717343761529,2934.136828156128,16.606735750737773,5.3610776279794115,14.462856285880715,4.274360284217883,6189,136,2032,3135,196.18299215650984,112.01937797042098,0.002023976507046463,False
0.08,0.627374789559163,2.0,3258.0,18.11628,0.1,68900.0,0.33,276.0,2700.0,23.473576499086327,0.9378707296710279,2532.2509701117756,12.829936617728062,3.507411678205186,10.643639881358265,2.5695409485341583,18821,228,6188,9533,152.2631762831158,87.1745604337261,0.0013051807114543902,False
0.09,0.714035637701468,2.0,3259.0,18.11628,0.1,68900.0,0.33,276.0,2700.0,28.11522659576244,1.2636583827796626,3411.877633505089,15.37976145550875,4.7283867595755185,12.735465140253691,3.464728376795856,22552,254,7426,11407,155.07047177200474,88.85165023631572,0.0014204014254797833,False
0.09999999999999999,0.47228739342509396,2.0,3260.0,18.11628,0.2,68900.0,0.33,276.0,2700.0,15.157908999976673,0.7558010548964411,2040.662848220391,8.73793501986144,1.842771617748077,6.419973980115232,1.086970562851636,3192,88,1042,1623,87.2314598439518,50.192849764663464,0.0007308858760919563,False
0.11,0.5728031678866632,2.0,3261.0,18.11628,0.2,68900.0,0.33,276.0,2700.0,19.82843317922189,1.0877761849759187,2936.9956994349805,11.321126689825535,2.848770709506561,8.507306489396354,1.7609945245306424,4264,104,1398,2161,93.94769701968234,54.15676053766008,0.0008602588848638616,False
0.12,0.6071251109407652,2.0,3262.0,18.11628,0.3,68900.0,0.33,276.0,2700.0,21.364614417835142,1.278257750333173,3451.295925899567,12.261334675759606,3.2533839788331376,9.103279742075536,1.9751262284999647,2221,76,728,1123,94.78890011175716,54.51929319811629,0.0008566994878428699,False
0.13,0.5975849873196024,2.0,3263.0,18.11628,0.3,68900.0,0.33,276.0,2700.0,20.620327338852704,1.3357198909853718,3606.443705660504,11.997023602818837,3.137671928951759,8.623303736033867,1.8019520379663874,2166,74,710,1095,87.62808630348431,50.511330710786176,0.0007803925550835386,False
0.14,0.6866250640600414,2.0,3264.0,18.11628,0.3,68900.0,0.33,276.0,2700.0,25.1767620716294,1.7566263248530922,4742.891077103349,14.552850450731246,4.3181948614372905,10.623911620898156,2.5615685365841983,2545,82,838,1282,90.10177783058387,52.01935789434146,0.0008791628196425397,False
0.15000000000000002,0.5242743939772443,2.0,3265.0,18.11628,0.2,68900.0,0.33,276.0,2700.0,16.505849263674122,1.2308701113049825,3323.3493005234527,10.04226470925295,2.3306404766869426,6.463584554421173,1.0997703653819602,3503,94,1158,1760,65.06187691611417,37.546056657551105,0.0005754554728235776,False
0.16,0.48475505283360665,2.0,3266.0,18.11628,0.2,68900.0,0.33,276.0,2700.0,14.450866418794652,1.1474906711641313,3098.2248121431544,9.044551178856688,1.9536205494820362,5.406315239937964,0.806129878317905,3188,88,1052,1604,57.834414540086414,33.25048490217721,0.0004923196349833053,False
0.17,0.5400355738219741,2.0,3267.0,18.11628,0.3,68900.0,0.33,276.0,2700.0,16.821794768359936,1.4195627921725384,3832.8195388658537,10.451123649172468,2.492132266252989,6.3706711191874685,1.0725694740804503,1725,64,564,873,60.98666120017435,35.17433252362485,0.0005347222514664026,False
0.18000000000000002,0.8289955968302656,2.0,3268.0,18.11628,0.3,68900.0,0.33,276.0,2700.0,32.501914520319794,2.9129577945916263,7864.986045397391,19.053499274838984,6.7044278955830565,13.44841524548081,3.7914701009914302,3225,96,1058,1632,84.60378360720023,48.841914477173724,0.0009057972749583502,False
0.19,0.5672845038152061,2.0,3269.0,18.11628,0.3,68900.0,0.33,276.0,2700.0,17.702551807077366,1.6673769656650341,4501.917807295592,11.17271251287132,2.786703090402481,6.529839294206047,1.119326124737447,1698,64,560,852,57.65231524116111,33.28318532954959,0.0005150638692252728,False
0.2,0.8518461218137772,2.0,3270.0,18.11628,0.3,68900.0,0.33,276.0,2700.0,33.354131186083784,3.3186579577892332,8960.37648603093,19.823298056813922,7.148580521034749,13.530833129269862,3.8299225632455154,3184,96,1046,1609,78.35413742064266,45.19570340712425,0.0008526379935347555,False
0.21000000000000002,0.8437588311480676,2.0,3271.0,18.11628,0.3,68900.0,0.33,276.0,2700.0,32.560683735704856,3.3994755992057373,9178.584117855491,19.54934940839599,6.98937260668627,13.011334327308866,3.5898970074805323,3227,96,1056,1637,74.5021574097696,42.99698551979864,0.0008033879612950207,False
0.22,0.629862779440215,2.0,3272.0,18.11628,0.3,68900.0,0.33,276.0,2700.0,20.161989902489474,2.1955177702235615,5927.8979796036165,12.900509156936701,3.5394201903107967,7.261480745552772,1.3439024200872351,2173,74,712,1099,54.97506948636317,31.71924575554209,0.0005138911363828575,False
0.23,0.867625940182662,2.0,3273.0,18.11628,0.3,68900.0,0.33,276.0,2700.0,33.4842693575464,3.8252084709070155,10328.062871448941,20.36255589403715,7.465635029873662,13.121713463509252,3.640426558966646,3277,98,1078,1654,70.04605110385027,40.40202423707817,0.0007678473321907032,False
0.24000000000000005,0.8295170453420353,2.0,3274.0,18.11628,0.3,68900.0,0.33,276.0,2700.0,30.846204563417718,3.6725916297146455,9915.997400229542,19.070919751185507,6.714367856067707,11.775284812232211,3.041776226353061,3162,94,1036,1602,64.81796801747697,37.391088429188216,0.000692654836562951,False
0.25,0.7661908258640395,2.0,3275.0,18.11628,0.3,68900.0,0.33,276.0,2700.0,26.84029739295309,3.3223122506442397,8970.243076739447,17.005305411355078,5.5726142544363935,9.834991981598012,2.2503020037921537,2688,86,886,1353,58.7129615521565,33.873905008122456,0.000595672591524835,False
0.26,0.8609458611786396,2.0,3276.0,18.11628,0.3,68900.0,0.33,276.0,2700.0,32.22338403683831,4.152228836469319,11211.017858467161,20.133507711842554,7.330377202068549,12.089876324995757,3.17814836559923,3236,96,1064,1634,62.38291306196604,35.95922326558862,0.00067651542414486,False
0.27,0.8367355218194996,2.0,3277.0,18.11628,0.3,68900.0,0.33,276.0,2700.0,30.470766181676808,4.072329455725859,10995.289530459819,19.312775656696843,6.852902969515378,11.157990524979965,2.780573513789519,2892,90,958,1449,59.103711611869684,34.03029844151943,0.0006287712261123611,False
0.28,0.9752473978014512,2.0,3278.0,18.11628,0.3,68900.0,0.33,276.0,2700.0,39.01821918127038,5.416574524090118,14624.751215043318,24.207289416172067,9.861360199434419,14.810929765098315,4.444785675344301,3730,106,1232,1876,64.65573318656651,37.20204686130054,0.0007546102838497724,False
0.29000000000000004,0.8686936326312735,2.0,3279.0,18.11628,0.3,68900.0,0.33,276.0,2700.0,31.879653422009635,4.57146954403913,12342.96776890565,20.399269145766876,7.487395573717816,11.48038427624276,2.915926029678686,3201,96,1054,1614,56.73075302599012,32.63077216269967,0.0006202757305922609,False
0.3,0.6604240575687624,2.0,3280.0,18.11628,0.1,68900.0,0.33,276.0,2700.0,19.941743830239275,2.9347129067712747,7923.724848282442,13.780080870641735,3.9470568741705976,6.161662959597541,1.0123439673993229,26889,204,5330,16304,45.985520113405414,26.53728589165161,0.00042700983300483796,False
0.31,0.6544411563290757,2.0,3281.0,18.11628,0.3,68900.0,0.33,276.0,2700.0,19.42528733193355,2.9485254119543076,7961.018612276631,13.606041539045979,3.865133089845738,5.819245792887571,0.9166076778914305,1929,70,636,969,41.75891787969456,24.070421272826216,0.0004028722459694972,False
0.32,0.7898893502560049,2.0,3282.0,18.11628,0.3,68900.0,0.33,276.0,2700.0,26.445925546010162,4.162718948646406,11239.341161345295,17.7665174381361,5.984606824921066,8.679408107874064,1.8218878762746602,2580,84,852,1296,55.77446636686117,31.04176328508537,0.0005000617809001204,False
0.33,0.6447675569245573,2.0,3283.0,18.11628,0.2,68900.0,0.33,276.0,2700.0,18.527089420685535,2.9817034776184084,8050.599389569703,13.326545048301712,3.7348674589916517,5.200544372383822,0.7531639813732434,4156,100,1296,2140,42.485770186219085,24.509478414885642,0.0003796541059859327,False
0.34,1.0158391464588032,2.0,3284.0,18.11628,0.3,68900.0,0.33,276.0,2700.0,39.96565804991166,6.711843763380521,18121.978161127405,25.733015615538637,10.874802275660448,14.232642434373023,4.1629585122799275,3906,108,1288,1968,56.29559689568912,32.27618960579893,0.0006698125320350023,False
0.3500000000000001,1.0251351077928426,2.0,3285.0,18.11628,0.3,68900.0,0.33,276.0,2700.0,40.30009443989291,6.962719336966142,18799.342209808583,26.08825157034037,11.115664841233304,14.211842869552541,4.152945504267162,3881,108,1280,1955,55.08888683999995,31.598228560782434,0.0006610196321224555,False
0.36000000000000004,0.954873055664987,2.0,3286.0,18.11628,0.3,68900.0,0.33,276.0,2700.0,35.37939270281489,6.270574588609429,16930.55138924546,23.45708618075629,9.375812765072641,11.922306522058602,3.105238176463213,3337,98,1104,1675,50.98104796121737,29.249177629788818,0.0005832636930255474,False
0.37,0.9494788443637177,2.0,3287.0,18.11628,0.3,68900.0,0.33,276.0,2700.0,34.76189230377316,6.324862681076516,17077.129238906593,23.260212775034272,9.249811602808967,11.501679528738887,2.924948921732451,3305,98,1094,1658,49.42823447064472,28.31857198302145,0.0005652047086162411,False
0.38,0.891020492142214,2.0,3288.0,18.11628,0.2,68900.0,0.33,276.0,2700.0,30.876834829721037,5.751674969588478,15529.522417888891,21.17355549034618,7.951467571319314,9.703279339374859,2.1997926017308354,7984,134,2028,4466,47.98921267611528,27.58799895681989,0.0005123569909700657,False
0.39,0.9668703656611506,2.0,3289.0,18.11628,0.3,68900.0,0.33,276.0,2700.0,35.328572263957795,6.764834168392911,18265.05225466086,23.897575943423128,9.659873429024904,11.430996320534668,2.895039260631993,3561,102,1184,1779,47.37801144371955,27.117006792924137,0.0005528542374195029,False
0.4,0.9222115358345482,2.0,3290.0,18.11628,0.3,68900.0,0.33,276.0,2700.0,32.26543928543399,6.319046570533499,17061.425740440445,22.276224894093723,8.629026015719248,9.98921439134027,2.309979445185749,2988,92,996,1488,45.399899771259214,25.999684328148,0.0005044948075204489,False
0.4100000000000001,0.8622389594707487,2.0,3291.0,18.11628,0.3,68900.0,0.33,276.0,2700.0,28.43083569609964,5.683973512848383,15346.728484690635,20.177758246224585,7.356440412121627,8.253077449875054,1.6724668992732434,2800,88,930,1399,41.29488750943379,23.70182652815021,0.000452900628578897,False
0.42000000000000004,1.0232717837771994,2.0,3292.0,18.11628,0.3,68900.0,0.33,276.0,2700.0,38.17117454375032,7.860777109841465,21224.098196571955,26.0168724518516,11.067120490318509,12.154302091898717,3.206343380477043,3649,104,1218,1816,47.089839847904095,26.89180263297369,0.0005602918930084214,False
0.43,1.1035020442646963,2.0,3293.0,18.11628,0.2,68900.0,0.33,276.0,2700.0,43.33294067861195,9.150063174495592,24705.1705711381,29.16929579272695,13.279839200810894,14.163644885884999,4.129776026315302,11539,164,2834,6530,50.44835917972665,28.90798086098024,0.0006168893681903774,False
0.44,0.9534448090762777,2.0,3294.0,18.11628,0.3,68900.0,0.33,276.0,2700.0,33.16984245409648,7.118956387498964,19221.182246247205,23.404888052460638,9.3423475437552,9.764954401635844,2.223391156256235,2974,92,992,1480,42.11550413066518,24.05074056620547,0.00048503189307856745,False
0.45,0.8414194834741926,2.0,3295.0,18.11628,0.1,68900.0,0.33,276.0,2700.0,26.31441896155848,5.72989251264508,15470.709784141714,19.4704129264719,6.943732238372502,6.844006035086579,1.2138397257274223,44753,238,6948,28609,101.5222741509468,56.48136023102377,0.0004091942556033783,False
0.46,0.8473854329361263,2.0,3296.0,18.11628,0.2,68900.0,0.33,276.0,2700.0,26.42582593569216,5.874079923522653,15860.015793511164,19.67199352375239,7.060492602991834,6.753832411939769,1.1864126794691812,7173,122,1782,4036,39.817255657870675,22.89948838844559,0.0004094003164008322,False
0.4700000000000001,1.081739336570701,2.0,3297.0,18.11628,0.3,68900.0,0.33,276.0,2700.0,40.688195018413666,9.344279446611443,25229.554505850898,28.298201552620142,12.654536614748714,12.389993465793523,3.310257168137271,3916,106,1266,1981,44.354514130829614,25.212135196433103,0.0005468164263641393,False
0.4800000000000001,1.0685562411422933,2.0,3298.0,18.11628,0.2,68900.0,0.33,276.0,2700.0,39.52529919149521,9.254448462794985,24987.01084954646,27.776312047690322,12.284923581360074,11.748987143804886,3.0304751185650893,10448,154,2560,5914,45.35780505166172,26.028713266612552,0.0005355153176405322,False
0.49,1.167054639919646,2.0,3299.0,18.11628,0.3,68900.0,0.33,276.0,2700.0,46.04982700057396,11.035804125739165,29796.671139495746,31.781245663445667,15.216084159818116,14.268581337128296,4.180280034078951,4913,116,1490,2564,47.85359712113915,27.47876980356328,0.0005900187035922252,False
0.5,0.8466663723780401,2.0,3300.0,18.11628,0.2,68900.0,0.33,276.0,2700.0,25.514184167529198,6.116746654083146,16515.215966024494,19.64765012156824,7.046356001318841,5.866534045960957,0.9296093472356954,6805,116,1666,3852,38.32740115531606,22.077886638908367,0.0003816849197843819,False
0.01,0.3650470086022608,2.0,3301.0,21.135659999999998,0.05,68900.0,0.33,276.0,2700.0,12.307650582311942,0.061536158516456815,166.1476279944334,6.26190198571464,1.0410605266744732,6.045748596597302,0.9795243681580165,39529,310,13098,19876,836.3388997679316,482.26464863819615,0.005375807740825631,True
0.02,0.6955504066539595,2.0,3302.0,21.135659999999998,0.1,68900.0,0.33,276.0,2700.0,29.044143883111772,0.29042468367029833,784.1466459098056,14.820033257396245,4.449274897338114,14.224110625715527,4.158850213667816,22698,258,7528,11400,732.175556531492,416.4224179145204,0.007254704264137857,True
0.03,0.4739286267374303,2.0,3303.0,21.135659999999998,0.1,68900.0,0.33,276.0,2700.0,16.833133754188516,0.2524404576450641,681.5892356416731,8.778074452583288,1.8571455376116472,8.055059301605228,1.6047050799665832,13229,186,4366,6674,350.0366767929575,199.7423598026297,0.0026113008792407566,True
0.04,0.6725936530177385,2.0,3304.0,21.135659999999998,0.1,68900.0,0.33,276.0,2700.0,27.11501403644973,0.542166239442441,1463.8488464945908,14.136863778688024,4.116922060707548,12.978150257761705,3.574755821265107,21537,248,7088,10899,419.6627917938667,239.35756097714625,0.0034021663150998363,True
0.05,0.6257533143887923,2.0,3305.0,21.135659999999998,0.1,68900.0,0.33,276.0,2700.0,24.18480608754443,0.6043583528007823,1631.7675525621123,12.78402674895187,3.486645484326986,11.40077933859256,2.8822871315262035,19651,234,6448,9973,294.06000266183526,167.55727942593117,0.0024043844167894613,True
0.06000000000000001,0.5113434031427762,2.0,3306.0,21.135659999999998,0.1,68900.0,0.33,276.0,2700.0,17.943140464814196,0.5378418246023048,1452.1729264262228,9.711485726638012,2.202927222266896,8.231654738176184,1.665085397664591,14928,198,4900,7572,191.23025084482055,109.39100848685479,0.0015143509850328064,False
0.06999999999999999,0.6711940983500021,2.0,3307.0,21.135659999999998,0.2,68900.0,0.33,276.0,2700.0,26.192388596404058,0.9160152233540209,2473.2411030558565,14.095642827281994,4.097165598247943,12.096745769122064,3.1811503748939223,5513,124,1814,2786,202.04982874933185,115.53476194663115,0.0019320514141336924,False
0.08,0.6239610417520902,2.0,3308.0,21.135659999999998,0.2,68900.0,0.33,276.0,2700.0,23.287282745627703,0.930418979532412,2512.1312447375126,12.733357867388234,3.4637784412809016,10.553924878239469,2.5333594617484896,4958,116,1628,2510,164.11371816312203,94.13979251818459,0.001514463813471757,False
0.09,0.7728443923866966,2.0,3309.0,21.135659999999998,0.3,68900.0,0.33,276.0,2700.0,31.657875713936285,1.4230775930974826,3842.3095013632033,17.21759714920259,5.686465816918486,14.440278564733696,4.2633882238210035,3177,96,1040,1611,178.26752638941042,102.67123011827408,0.0019108642211368657,False
0.09999999999999999,0.4395885771401707,2.0,3310.0,21.135659999999998,0.2,68900.0,0.33,276.0,2700.0,13.668889599344622,0.6813500848648388,1839.645229135065,7.952334775136695,1.569968809073962,5.716554824207927,0.8886187242091232,2972,84,974,1505,95.41196106021049,55.07019404896997,0.0007786612299993853,False
0.11,0.4677704214049408,2.0,3311.0,21.135659999999998,0.2,68900.0,0.33,276.0,2700.0,14.732180623590146,0.8074822944161718,2180.2021949236637,8.627813565926994,1.8035515105319018,6.104367057663152,0.99606921611573,3123,88,1022,1584,92.0966678534,53.04188406323232,0.0007711340193874654,False
0.12,0.521620595726219,2.0,3312.0,21.135659999999998,0.2,68900.0,0.33,276.0,2700.0,17.04789450952065,1.0192545558343025,2751.9873007526166,9.974036950315904,2.3040809026626046,7.073857559204745,1.284826346828302,3821,98,1250,1940,93.97700736613062,54.24885464004444,0.000818006736999144,False
0.13,0.5118728849113383,2.0,3313.0,21.135659999999998,0.2,68900.0,0.33,276.0,2700.0,16.356218601506665,1.058552823057853,2858.092622256203,9.72494752829602,2.208072840483252,6.631271073210645,1.149520017425399,3487,94,1152,1753,85.26302881873283,49.208817756674044,0.0007416582256988724,False
0.14,0.5894898999647451,2.0,3314.0,21.135659999999998,0.3,68900.0,0.33,276.0,2700.0,19.961922405929272,1.3915875482540823,3757.286380286022,11.774541511842047,3.0414565918927603,8.187380894087225,1.649869043638678,2171,74,710,1100,94.04033312551405,54.28862246209712,0.0008345731908954456,False
0.15000000000000002,0.8381450577352745,2.0,3315.0,21.135659999999998,0.3,68900.0,0.33,276.0,2700.0,33.95836561861345,2.5398088379254333,6857.48386239867,19.360155149586365,6.880158406119885,14.598210469027084,4.340349568194451,3352,98,1098,1699,118.39377150409182,68.28258748749352,0.001294270146855362,False
0.16,0.500654678352473,2.0,3316.0,21.135659999999998,0.3,68900.0,0.33,276.0,2700.0,15.180302290040613,1.2058455408638464,3255.7829603323853,9.441237208383637,2.1005706876698493,5.739065081656976,0.8947251468060029,1623,62,530,822,70.37801351596248,40.592996701344255,0.000599400240868076,False
0.17,0.5297939201418129,2.0,3317.0,21.135659999999998,0.3,68900.0,0.33,276.0,2700.0,16.33277707652995,1.3779962883669887,3720.5899785908696,10.184735732563174,2.386461853592172,6.148041343966776,1.0084655652251835,1687,64,554,850,70.82517403169146,40.880756019073814,0.0006089792992319138,False
0.18000000000000002,0.5551851961192904,2.0,3318.0,21.135659999999998,0.3,68900.0,0.33,276.0,2700.0,17.333610867734436,1.5478104658589404,4179.0882578191395,10.850002913334245,2.6534769949937087,6.48360795440019,1.1056665291347683,1688,64,554,851,69.14020177749208,39.9172890229123,0.0006143749473501297,False
0.19,0.5313747402154436,2.0,3319.0,21.135659999999998,0.3,68900.0,0.33,276.0,2700.0,15.97996623319435,1.5037313361458613,4060.0746075938255,10.225681200296403,2.4025944437179185,5.754285032897947,0.8988631075720572,1692,64,554,855,64.34962657374741,37.15090781243695,0.0005554893609200441,False
0.2,0.6494040931410898,2.0,3320.0,21.135659999999998,0.2,68900.0,0.33,276.0,2700.0,21.645547011480293,2.147799540328885,5799.05875888799,13.460213657467433,3.7969661386667632,8.18533335401286,1.649166598337878,4682,112,1546,2357,394.87174079499533,213.072315105978,0.0006835513947225769,True
0.21000000000000002,0.6901465629501806,2.0,3321.0,21.135659999999998,0.3,68900.0,0.33,276.0,2700.0,23.58878825499447,2.4574265737310643,6635.051749073874,14.658028442492443,4.369627808776443,8.930759812502027,1.9122012350453783,2405,80,790,1214,72.48925073123249,41.85092690961834,0.0007095899440139261,False
0.22,0.8481825939979479,2.0,3322.0,21.135659999999998,0.3,68900.0,0.33,276.0,2700.0,32.55182932852162,3.5584001070870936,9607.680289135153,19.698996164434707,7.076185111903281,12.852833164086913,3.5177850048161874,3224,96,1054,1637,83.44992603230523,48.16119173381725,0.0009041625665448994,False
0.23,0.9050778759405936,2.0,3323.0,21.135659999999998,0.3,68900.0,0.33,276.0,2700.0,35.877639695228225,4.100446059740429,11071.204361299158,21.66748709101871,8.252578242285187,14.210152604209515,4.152132182544758,3385,100,1112,1711,85.1876219628215,49.12679359698957,0.000950113113044965,False
0.24000000000000005,0.7103275015514984,2.0,3324.0,21.135659999999998,0.3,68900.0,0.33,276.0,2700.0,23.95688232162921,2.8458729607000204,7683.856993890055,15.26679143494046,4.671566071041782,8.690090886688749,1.8256931103417613,2312,78,762,1163,66.8777328534339,38.60930132887531,0.0006514099821557405,False
0.25,0.7280484572716779,2.0,3325.0,21.135659999999998,0.3,68900.0,0.33,276.0,2700.0,24.688919615201215,3.0533900284252598,8244.153076748202,15.809788737518872,4.946907766419014,8.879130877682343,1.8935177379937542,2536,82,832,1282,65.27625202272192,37.625517535761496,0.0006500239776395407,False
0.26,0.6285360156778308,2.0,3326.0,21.135659999999998,0.3,68900.0,0.33,276.0,2700.0,19.200765235790183,2.4592883923330606,6640.078659299264,12.862855765541317,3.5223292457141557,6.337909470248865,1.063040853381095,2002,70,660,1006,55.35730589581777,31.941298628872964,0.0005186949768635143,False
0.27,0.5890636239579636,2.0,3327.0,21.135659999999998,0.3,68900.0,0.33,276.0,2700.0,17.051619896419314,2.260744707216151,6104.010709483608,11.762871562059878,3.0364398748274595,5.288748334359436,0.7756951676113086,1840,66,610,919,50.57224955048178,29.084709021165633,0.00046456430235657835,False
0.28,0.9357304117442962,2.0,3328.0,21.135659999999998,0.3,68900.0,0.33,276.0,2700.0,36.40521046418711,5.050753303698464,13637.033919985854,22.761741231770568,8.933452178718072,13.643469232416539,3.8826988750196083,3377,100,1114,1700,73.44872639599633,42.260995013635124,0.0008319857564482174,False
0.29000000000000004,0.8736943234725292,2.0,3329.0,21.135659999999998,0.3,68900.0,0.33,276.0,2700.0,32.187872161636534,4.616161261285029,12463.635405469578,20.57160227056765,7.589836642534857,11.616269891068885,2.973675381249828,3179,96,1046,1604,66.84898139291428,38.44173737748633,0.0007295221001282476,False
0.3,0.7324189471035086,2.0,3330.0,21.135659999999998,0.2,68900.0,0.33,276.0,2700.0,23.728594505632945,3.502740508080327,9457.399371816882,15.944920547608609,5.016299408597399,7.783673958024336,1.5135589005170718,4797,114,1586,2408,55.19924784086925,31.717540161680297,0.0005604734188006727,False
0.31,0.7050122036526159,2.0,3331.0,21.135659999999998,0.2,68900.0,0.33,276.0,2700.0,22.030120102858582,3.352274491447572,9051.141126908444,15.105461226645954,4.590847600179237,6.924658876212629,1.2385731087316652,4947,112,1582,2524,52.57430838114447,30.294014624041463,0.00051895636972343,False
0.32,0.9996491265334027,2.0,3332.0,21.135659999999998,0.3,68900.0,0.33,276.0,2700.0,39.46493276844183,6.2457601042354725,16863.552281435776,25.119515157731726,10.463159420355122,14.3454176107101,4.21739931611965,3766,106,1242,1897,68.61120974030631,39.433053065416196,0.0008045844618230943,False
0.33,0.6600419612956805,2.0,3333.0,21.135659999999998,0.3,68900.0,0.33,276.0,2700.0,19.285194410736924,3.1067908009764276,8388.335162636355,13.76893900598652,3.941793685376799,5.516255404750405,0.8350028844003714,1865,68,616,935,45.935587656544875,26.41624748357359,0.00045280367193282567,False
0.34,0.7666458236601167,2.0,3334.0,21.135659999999998,0.3,68900.0,0.33,276.0,2700.0,24.668591335788907,4.111342421979672,11100.624539345115,17.019787337847227,5.580354925345235,7.64880399794168,1.4690125033655628,2503,82,830,1252,51.72072019384914,29.76976237258071,0.0005330524355407168,False
0.3500000000000001,0.9260310243598004,2.0,3335.0,21.135659999999998,0.3,68900.0,0.33,276.0,2700.0,33.82122095029692,5.828916476286855,15738.074485974508,22.412932300906792,8.714370760573004,11.408288649390126,2.8854542842861495,3316,98,1096,1666,59.17011380790359,33.94480384537465,0.0006689384160864884,False
0.36000000000000004,0.6685801030517593,2.0,3336.0,21.135659999999998,0.2,68900.0,0.33,276.0,2700.0,19.09310777011016,3.339043300722573,9015.416911950946,14.018784909549806,4.060420144698244,5.074322860560352,0.7213768439756714,4631,100,1286,2510,49.433978371872776,28.535913768169625,0.00043537818162894885,False
0.37,0.7265899960192721,2.0,3337.0,21.135659999999998,0.3,68900.0,0.33,276.0,2700.0,21.843738005814696,3.935004135954196,10624.511167076329,15.764801192636563,4.923882614929579,6.078936813178133,0.9888784789753831,2164,74,718,1081,44.69239140878175,25.729818245246094,0.00046061791594387367,False
0.38,0.8906648867697411,2.0,3338.0,21.135659999999998,0.2,68900.0,0.33,276.0,2700.0,30.855370156186197,5.7475966816168595,15518.51104036552,21.16112505939564,7.943940351490786,9.694245096790556,2.1963436698739267,7975,134,2028,4461,56.096319240689986,32.252959154122024,0.0005975836381077548,False
0.39,0.7139822371000817,2.0,3339.0,21.135659999999998,0.3,68900.0,0.33,276.0,2700.0,20.768435675877345,3.9256075337172214,10599.140341036498,15.378132129869561,4.727565514568419,5.390303546007784,0.8019579808511978,1962,70,654,975,42.22518773345018,24.12692841269873,0.00043312909016846236,False
0.4,0.8751566858994462,2.0,3340.0,21.135659999999998,0.3,68900.0,0.33,276.0,2700.0,29.430269991376733,5.752012711722181,15530.43432164989,20.62211677367017,7.619956709462757,8.808153217706561,1.8679439977405758,2780,88,924,1388,50.13259281518803,28.67515894117863,0.0005503206943483863,False
0.4100000000000001,0.9631546768366575,2.0,3341.0,21.135659999999998,0.3,68900.0,0.33,276.0,2700.0,34.556971065662665,6.939831263608808,18737.544411743784,23.760765096152014,9.571331753870217,10.796205969510652,2.6315004902614083,3334,98,1112,1660,53.3979178157385,30.649397442787013,0.0006139360655420881,False
0.42000000000000004,0.9992921404971185,2.0,3342.0,21.135659999999998,0.3,68900.0,0.33,276.0,2700.0,36.60267649259847,7.5313925190995725,20334.759801568845,25.10606185071947,10.454194505622239,11.496614641878999,2.922801986522666,3588,102,1182,1803,53.112708996510264,30.43673322776801,0.0006321512023711178,False
0.43,1.086696301632653,2.0,3343.0,21.135659999999998,0.3,68900.0,0.33,276.0,2700.0,42.167103611578256,8.899408205083345,24028.402153725034,28.495566767353672,12.79529872230057,13.671536844224583,3.895890517217225,3887,108,1292,1941,56.37475872318826,32.11760077793454,0.0006959523820610861,False
0.44,0.9463970534557438,2.0,3344.0,21.135659999999998,0.3,68900.0,0.33,276.0,2700.0,32.73413209598905,7.023100108715328,18962.370293531385,23.148064401391014,9.178301360781525,9.586067694598032,2.155201252066197,2993,92,996,1493,49.53331595877057,28.406730109295363,0.000559942913543331,False
0.45,1.104017266009665,2.0,3345.0,21.135659999999998,0.3,68900.0,0.33,276.0,2700.0,42.78380770039579,9.435504978883472,25475.863442985374,29.190062771922896,13.294873205801922,13.593744928472894,3.85936822691845,4031,110,1338,2012,54.159093158195056,30.765349794337038,0.0006834448747202366,False
0.46,0.8713807004152625,2.0,3346.0,21.135659999999998,0.3,68900.0,0.33,276.0,2700.0,27.788012908704644,6.187382927315524,16705.933903751917,20.491792385360043,7.542334060130055,7.296220523344601,1.3549511328145307,2900,86,906,1495,44.82133386221688,25.667724669660597,0.00048805797481354615,False
0.4700000000000001,0.7914799282138966,2.0,3347.0,21.135659999999998,0.2,68900.0,0.33,276.0,2700.0,23.1566753961727,5.224372335384817,14105.805305539005,17.818113310633024,6.012906881147437,5.338562085539678,0.7885345457626203,6241,112,1560,3501,43.85784618684137,25.291134050194678,0.0004301658110700451,False
0.4800000000000001,0.9671612057019787,2.0,3348.0,21.135659999999998,0.3,68900.0,0.33,276.0,2700.0,33.012474492143454,7.691370534950556,20766.7004443665,23.908299252990886,9.666825360320352,9.104175239152568,1.9754548253697966,3516,96,1084,1820,50.607222163102286,29.08474895268015,0.0005416590793180984,False
0.49,1.1349245841688793,2.0,3349.0,21.135659999999998,0.2,68900.0,0.33,276.0,2700.0,43.77910772576528,10.47947790341104,28294.590339209808,30.448044513713484,14.216438347777252,13.331063212051795,3.736960444366213,11576,164,2826,6565,53.804002772232025,30.745014934497394,0.000668138753312394,False
0.5,1.1875710574750211,2.0,3350.0,21.135659999999998,0.3,68900.0,0.33,276.0,2700.0,47.22719907492888,11.545000380932537,31171.50102851785,32.64612488381797,15.876975491029485,14.581074191110915,4.331975110096948,5012,116,1494,2637,54.931229724047206,31.311330336384803,0.0006923652525675448,False
0.01,0.4988098383823003,2.0,3351.0,24.15504,0.05,68900.0,0.33,276.0,2700.0,18.539995818779417,0.09269788469879378,250.2842886867432,9.394883736882791,2.0831958864187032,9.145112081896626,1.9904980017199094,59468,394,19708,29900,1292.1764103263881,735.6128529870197,0.00950725900226769,True
0.02,0.5839953664617937,2.0,3352.0,24.15504,0.1,68900.0,0.33,276.0,2700.0,22.7090916468661,0.2270741613078418,613.1002355311729,11.62447029969432,2.9771736121425607,11.08462134717178,2.750099450834719,17897,224,5934,8990,724.944787154462,414.07479754573694,0.0061606429767841605,True
0.03,0.6599841450433463,2.0,3353.0,24.15504,0.1,68900.0,0.33,276.0,2700.0,26.671209119478053,0.40001158812440885,1080.031287935904,13.767253413164426,3.9409976656522647,12.903955706313628,3.540986077527856,21353,246,7036,10793,581.9656503860597,331.45715045273596,0.005032394444496576,True
0.04,0.4192258427776113,2.0,3354.0,24.15504,0.1,68900.0,0.33,276.0,2700.0,14.049381199460129,0.2808535827026497,758.3046732971542,7.476690807984183,1.4128979178088714,6.572690391475946,1.1320443351062217,11380,168,3730,5779,6949.628454858216,3759.9552710279595,0.0019530307178159327,True
0.05,0.5874281880924644,2.0,3355.0,24.15504,0.1,68900.0,0.33,276.0,2700.0,22.101196174489857,0.5522681049744481,1491.12388343101,11.71814140538053,3.0172390386061774,10.383054769109327,2.4649709336317294,17466,220,5726,8871,321.0640069972705,183.51223511222477,0.0024729375890337386,True
0.06000000000000001,0.6904093709350443,2.0,3356.0,24.15504,0.2,68900.0,0.33,276.0,2700.0,27.581924553111808,0.8270053472512375,2232.914437578341,14.665890329728613,4.3734810887388065,12.916034223383194,3.546475741487569,5478,126,1810,2757,3885.3772347598374,2002.4188872738823,0.0031365860460220124,True
0.06999999999999999,0.4285607586371266,2.0,3357.0,24.15504,0.2,68900.0,0.33,276.0,2700.0,13.814860379392098,0.48280173575860214,1303.5646865482258,7.693447285859795,1.4837021954633938,6.121413093532302,1.0009004597047917,3023,86,992,1529,151.25234149544005,87.30676589671025,0.0011987583179244095,False
0.08,0.7484479659472348,2.0,3358.0,24.15504,0.2,68900.0,0.33,276.0,2700.0,30.45953742579612,1.2173091667394167,3286.734750196425,16.44463311355897,5.2758771661810435,14.01490431223715,4.058567999441626,6064,134,1996,3064,222.3124474157259,127.22141533270744,0.0023262281947652942,False
0.09,0.5221071750598221,2.0,3359.0,24.15504,0.2,68900.0,0.33,276.0,2700.0,17.762902435152235,0.7978037955522063,2154.070247990957,9.98653339783373,2.308937102930496,7.776369037318505,1.5111333073782895,3930,100,1286,1995,139.29306960453914,80.36061223818756,0.0012236308239152848,False
0.09999999999999999,0.5567462898212926,2.0,3360.0,24.15504,0.2,68900.0,0.33,276.0,2700.0,19.25263713930974,0.9605374618630949,2593.451147030356,10.891433268907415,2.6704471965740693,8.361203870402326,1.7099097347109744,4212,104,1382,2133,134.26143757724694,77.39975370400145,0.0012071121119139874,False
0.11,0.6002501583677187,2.0,3361.0,24.15504,0.2,68900.0,0.33,276.0,2700.0,21.251564724058834,1.1660484199413543,3148.3307338416566,12.070632458253023,3.169744099367755,9.180932265805811,2.003695679426401,4469,108,1460,2273,130.89557370833265,75.35724075542515,0.0012219433326001404,False
0.12,0.6509377371046953,2.0,3362.0,24.15504,0.3,68900.0,0.33,276.0,2700.0,23.718902546286582,1.4195150380402615,3832.690602708706,13.504546623741046,3.817643302029473,10.214355922545536,2.3981282639892116,2419,80,792,1225,134.21962779930737,77.45679264777992,0.001256155144982365,False
0.13,0.607662486043541,2.0,3363.0,24.15504,0.2,68900.0,0.33,276.0,2700.0,21.145935990608734,1.3698844533494636,3698.6880240435516,12.276290814594821,3.259976933018228,8.869645176013913,1.8900924796687644,4430,108,1458,2237,113.47316357535676,65.45685024585876,0.001063220382638403,False
0.14,0.7944226762580632,2.0,3364.0,24.15504,0.3,68900.0,0.33,276.0,2700.0,31.519244473879514,2.2006000930106016,5941.620251128624,17.913739116327566,6.065481747196844,13.605505357551948,3.8648816541862425,3007,94,988,1519,137.26340944719098,79.09778703410518,0.0014492626374574074,False
0.15000000000000002,0.6784959981400608,2.0,3365.0,24.15504,0.3,68900.0,0.33,276.0,2700.0,24.462411257919463,1.8276122608731056,4934.553104357385,14.311246581572979,4.200876912761906,10.151164676346484,2.3732646518888005,2523,82,828,1275,113.88797296615779,65.66836462726106,0.001080227066446094,False
0.16,0.7320662895515342,2.0,3366.0,24.15504,0.3,68900.0,0.33,276.0,2700.0,27.235264314607953,2.170242502829235,5859.654757638935,15.93399887199425,5.010678237848204,11.301265442613703,2.8404357350189686,2661,84,872,1347,112.63687383168768,64.93369360197346,0.0011305175348808156,False
0.17,0.4986128138367613,2.0,3367.0,24.15504,0.2,68900.0,0.33,276.0,2700.0,14.876405648675497,1.2542047169993586,3386.3527358982683,9.389938351176792,2.081345350917256,5.486467297498706,0.8271406339178973,3258,88,1072,1644,74.47775531681047,42.9421003788461,0.0006444963381137916,False
0.18000000000000002,0.7907085319213322,2.0,3368.0,24.15504,0.3,68900.0,0.33,276.0,2700.0,30.15428752183766,2.701671364728234,7294.512684766231,17.793082475069212,5.999171709907371,12.361205046768447,3.2975003451791367,2950,92,970,1489,108.04973635594017,62.36964948017972,0.0011270999142541788,False
0.19,0.5633869257722465,2.0,3369.0,24.15504,0.3,68900.0,0.33,276.0,2700.0,17.512449804447336,1.6493172754151832,4453.156643620995,11.068355613620923,2.7433600650176966,6.444094190826412,1.0940427896025133,1701,64,560,855,76.36110102445853,44.04825917456008,0.0006799722667232234,False
0.2,0.5859827565201337,2.0,3370.0,24.15504,0.3,68900.0,0.33,276.0,2700.0,18.40123798686861,1.823368637867683,4923.095322242744,11.678663940994277,3.0003298043618454,6.722574045874332,1.1769611664941624,2057,72,676,1037,75.95514075312006,43.85233251891312,0.0006826813852845676,False
0.21000000000000002,0.8134292945973867,2.0,3371.0,24.15504,0.3,68900.0,0.33,276.0,2700.0,30.695279362726392,3.203608140043009,8649.741978116124,18.53660946056667,6.411866298591856,12.158669902159723,3.2082581585488468,3168,94,1040,1602,95.81069533467719,55.177240006244425,0.0010164026482387461,False
0.22,0.6038937672986036,2.0,3372.0,24.15504,0.2,68900.0,0.33,276.0,2700.0,18.847666459018047,2.0509421914417043,5537.543916892601,12.171553464367724,3.213908520623115,6.676112994650323,1.1629663291814105,3997,102,1316,2017,71.13016135057076,41.06491986077866,0.0006533598841977616,False
0.23,0.6741821381268149,2.0,3373.0,24.15504,0.3,68900.0,0.33,276.0,2700.0,22.24478321646205,2.5326675646823174,6838.202424642257,14.183708926267538,4.139415456323961,8.061074290194512,1.606747891641644,2318,78,764,1166,75.21732060902397,43.41007970490156,0.0007224492632806487,False
0.24000000000000005,0.7091542197843667,2.0,3374.0,24.15504,0.3,68900.0,0.33,276.0,2700.0,23.89261422876919,2.8381607895568206,7663.034131803415,15.231118854065452,4.653674753385645,8.661495374703739,1.8155139638288245,2300,78,758,1157,76.34547727835003,44.075129640082984,0.0007431109385621412,False
0.25,0.6730086553893785,2.0,3375.0,24.15504,0.3,68900.0,0.33,276.0,2700.0,21.713359949422713,2.6814450702029458,7239.9016895479535,14.149096267381141,4.122791430809467,7.564263682041572,1.4413463606065209,2237,76,736,1127,69.79500069030519,40.2777134897371,0.0006714939280195461,False
0.26,0.5840281280991015,2.0,3376.0,24.15504,0.3,68900.0,0.33,276.0,2700.0,17.016616789924992,2.175349094370585,5873.442554800579,11.625362863858822,2.977554463443272,5.39125392606617,0.8022053690726869,1833,66,606,918,59.67028314441846,34.43491082131767,0.0005420811988652848,False
0.27,0.6457965928976417,2.0,3377.0,24.15504,0.3,68900.0,0.33,276.0,2700.0,19.853225714953155,2.6389614927182703,7125.19603033933,13.356164900039065,3.7485961909075787,6.497060814914089,1.1096346981893084,1973,70,652,989,62.32381418707836,35.859611631694904,0.0005949785254689981,False
0.28,0.6633816824996892,2.0,3378.0,24.15504,0.1,68900.0,0.33,276.0,2700.0,20.531189348086293,2.8283903474443344,7636.653938099703,13.866448854669652,3.987940852769122,6.664740493416641,1.1595505053247877,25263,210,5520,14915,64.60847890528962,37.29417597872306,0.0006051905042104458,False
0.29000000000000004,0.9172907468931868,2.0,3379.0,24.15504,0.3,68900.0,0.33,276.0,2700.0,34.92819557172255,5.013508155747503,13536.472020518257,22.100640131718368,8.519841671936533,12.82755544000418,3.50633351618903,3423,100,1126,1728,79.5430366100499,45.84548659937161,0.0008948037908627314,False
0.3,0.9333677159966804,2.0,3380.0,24.15504,0.3,68900.0,0.33,276.0,2700.0,35.67674787563223,5.2949635135802176,14296.401486666588,22.676556243931493,8.879773770229416,13.000191631700737,3.584810256649199,3386,100,1116,1706,78.48051163166433,45.08124775970295,0.000889097029732599,False
0.31,0.6293207300737406,2.0,3381.0,24.15504,0.3,68900.0,0.33,276.0,2700.0,18.17916229303118,2.7553760309244386,7439.5152834959845,12.885120517837075,3.5324316485296814,5.2940417751941045,0.7770556176052428,1920,68,634,963,54.06555381292641,31.11017983115728,0.0005142070800629354,False
0.32,0.7537636737747415,2.0,3382.0,24.15504,0.3,68900.0,0.33,276.0,2700.0,24.426988070563098,3.839688952574875,10367.160171952162,16.611778735818014,5.3637359652017205,7.815209334745084,1.5240470126268453,2420,80,796,1220,61.66844129130674,35.535158341262544,0.0006260261435298948,False
0.33,0.8973979744685174,2.0,3383.0,24.15504,0.3,68900.0,0.33,276.0,2700.0,32.57278077064268,5.299242550361334,14307.954885975601,21.397024383535125,8.087213588444053,11.175756387107555,2.787971038082719,2962,92,982,1483,70.21785376848418,40.38276948928913,0.000769316825039918,False
0.34,1.019999866504447,2.0,3384.0,24.15504,0.3,68900.0,0.33,276.0,2700.0,40.24756274487806,6.759767561524015,18251.372416114842,25.891744914060826,10.982200212798084,14.355817830817234,4.222432651274069,3884,108,1282,1955,75.34720036268718,43.208355208837254,0.000897737006466906,False
0.3500000000000001,1.0422207074215193,2.0,3385.0,24.15504,0.3,68900.0,0.33,276.0,2700.0,41.46694864135133,7.166918822221353,19350.680819997655,26.746825063055454,11.567013878105277,14.720123578295876,4.400095055883924,3859,108,1276,1939,74.48454379764004,42.68848996264098,0.000901509911898937,False
0.36000000000000004,0.856990401846055,2.0,3386.0,24.15504,0.3,68900.0,0.33,276.0,2700.0,29.347662934063177,5.184863230234116,13999.130721632113,19.99841060272237,7.251007246265858,9.349252331340807,2.0661440160317417,2816,88,932,1412,61.84178464799008,35.52709856278823,0.0006683689333462274,False
0.37,0.9653114316257573,2.0,3387.0,24.15504,0.2,68900.0,0.33,276.0,2700.0,35.77450588210057,6.51219619306708,17582.929721281114,23.840134083146,9.622663466493748,11.934371798954569,3.110467273426668,8680,146,2334,4763,69.77612105521516,40.11897065877222,0.0007768127586353928,False
0.38,0.8658579586047898,2.0,3388.0,24.15504,0.3,68900.0,0.33,276.0,2700.0,29.37368871136845,5.466077207101485,14758.408459174008,20.30182577679943,7.429688102613081,9.071862934569022,1.9636108955115965,2861,90,946,1436,59.41387025667906,34.13165899076882,0.0006459765009303125,False
0.39,1.0099241697686057,2.0,3389.0,24.15504,0.3,68900.0,0.33,276.0,2700.0,38.127639463028636,7.31065227221173,19738.76113497167,25.508111265879748,10.723257673547685,12.619528197148888,3.4126054013359557,3659,104,1218,1826,66.02553213291476,37.76130575710731,0.0007827606380686372,False
0.4,0.9469813836053685,2.0,3390.0,24.15504,0.3,68900.0,0.33,276.0,2700.0,33.802596260721444,6.626477965591126,17891.490507096038,23.169310216597303,9.191833679584041,10.63328604412414,2.5653557139929157,3070,94,1020,1534,61.21721153265623,35.0165409544699,0.0007011907606610415,False
0.4100000000000001,0.8837382465403998,2.0,3391.0,24.15504,0.3,68900.0,0.33,276.0,2700.0,29.69304831895729,5.942727100534203,16045.363171442348,20.91963344145072,7.7982019101618825,8.773414877506568,1.8554748096276796,2793,88,928,1395,56.82244925541901,32.729150588941586,0.0006235458324953588,False
0.42000000000000004,0.8702587623283413,2.0,3392.0,24.15504,0.3,68900.0,0.33,276.0,2700.0,28.658874764606967,5.863194156221355,15830.624221797658,20.45313886101324,7.519365224171992,8.205735903593727,1.6561710679506367,2816,88,928,1414,55.27580148437729,31.712252404569305,0.0005993200151221596,False
0.43,0.8628035571330246,2.0,3393.0,24.15504,0.2,68900.0,0.33,276.0,2700.0,27.989781131062752,5.8512838717725115,15798.46645378578,20.19709226883912,7.367838184852456,7.792688862223631,1.5165543130799444,7521,126,1868,4235,56.25507659786053,32.399556470014915,0.0005903507544084388,False
0.44,0.8085831537330375,2.0,3394.0,24.15504,0.3,68900.0,0.33,276.0,2700.0,24.71587155225327,5.259082789093456,14199.523530552331,18.37693309204383,6.322422423453128,6.338938460209437,1.0633396343596724,2309,78,768,1149,48.162546756968936,27.56415063790339,0.0005231184295784369,False
0.45,1.0148964655262633,2.0,3395.0,24.15504,0.3,68900.0,0.33,276.0,2700.0,36.80584123438944,8.090462524032045,21844.24881488652,25.69711328517447,10.85056117647856,11.10872794921497,2.7600986524465156,3477,100,1158,1730,58.449328903170894,33.36670597777832,0.0006940013796810505,False
0.46,0.82543100281683,2.0,3396.0,24.15504,0.3,68900.0,0.33,276.0,2700.0,25.204849122486472,5.593255256485344,15101.789192510429,18.934596864616726,6.636721920404043,6.270252257869746,1.0434666639186991,2573,80,840,1291,48.07858194144806,27.497060437825134,0.0005205482221316869,False
0.4700000000000001,0.9258220241878095,2.0,3397.0,24.15504,0.3,68900.0,0.33,276.0,2700.0,30.744432300401357,7.00749520787855,18920.237061272088,22.40544226929282,8.70968723659536,8.338990031108537,1.7021920287168104,3111,90,986,1592,56.15989967400885,32.36765811124386,0.0005922875014258278,False
0.4800000000000001,1.0393603673824898,2.0,3398.0,24.15504,0.3,68900.0,0.33,276.0,2700.0,37.597006671935425,8.791658258100611,23737.47729687165,26.63606042627408,11.49066732473638,10.960946245661344,2.699009066635769,3521,100,1142,1778,55.835473660833465,31.92937106939329,0.0006786774594372646,False
0.49,1.0471580472957023,2.0,3399.0,24.15504,0.3,68900.0,0.33,276.0,2700.0,37.840875084039496,9.024610906188222,24366.4494467082,26.938503846205887,11.699544983566815,10.90237123783361,2.674934077378593,3560,100,1146,1805,55.736720992502875,31.7748686724736,0.0006736537012861727,False
0.5,0.8713677801920785,2.0,3400.0,24.15504,0.2,68900.0,0.33,276.0,2700.0,26.89117102282186,6.460993367906316,17444.682093347055,20.491347071858385,7.542069304475775,6.3998239509634764,1.0810759365694587,7072,120,1748,3988,50.330010854092265,28.96387530296095,0.000527618669419923,False
0.01,0.32938850250858054,2.0,3401.0,27.174419999999998,0.05,68900.0,0.33,276.0,2700.0,10.798066204460063,0.05398823662719789,145.7682388934343,5.502628816757426,0.831402691625068,5.295437387702638,0.7774144549978701,35501,290,11750,17870,882.355965466353,502.04120932892783,0.0060818874227563016,True
0.02,0.5654151838831455,2.0,3402.0,27.174419999999998,0.1,68900.0,0.33,276.0,2700.0,21.714718841556138,0.21713043325474465,586.2521697878105,11.122614187832024,2.7658645547865053,10.592104653724114,2.5487341215317607,17076,218,5660,8580,741.2444154577507,422.24382705845886,0.006567673981563032,True
0.03,0.4511052539853603,2.0,3403.0,27.174419999999998,0.1,68900.0,0.33,276.0,2700.0,15.746115938786701,0.236135190414036,637.5650141178971,8.225961336062216,1.6631257139922924,7.520154602724485,1.4269905235782563,12955,182,4258,6562,429.77904136557174,245.24944131411695,0.00315120762858283,True
0.04,0.6335236910721262,2.0,3404.0,27.174419999999998,0.1,68900.0,0.33,276.0,2700.0,24.889833550619336,0.4976626297258339,1343.6891002597515,13.004634830904928,3.586838309025977,11.885198719714408,3.0891756793001433,19994,236,6572,10130,585.1894388337274,336.6608881225971,0.004984518659569849,True
0.05,0.7449454799012825,2.0,3405.0,27.174419999999998,0.1,68900.0,0.33,276.0,2700.0,31.136751391159503,0.7781569853911281,2101.0238605560457,16.334890047067297,5.218472344938492,14.801861344092206,4.440315359547364,24363,268,8010,12342,463.52307903096283,264.18437633860304,0.004172723202708754,True
0.06000000000000001,0.39038305465109885,2.0,3406.0,27.174419999999998,0.08,68900.0,0.33,276.0,2700.0,12.344172067521972,0.36987277268354196,998.6564862455633,6.820799573864595,1.2067584288616002,5.523372493657377,0.8368856561780582,15592,194,5122,7903,180.30141836734725,103.5690584647986,0.0013827121618674592,False
0.06999999999999999,0.6642695951520092,2.0,3407.0,27.174419999999998,0.2,68900.0,0.33,276.0,2700.0,25.79812599203032,0.9022160322009395,2435.983286942537,13.892420413949683,4.000264576921824,11.905705578080639,3.0980485447208843,5210,122,1712,2636,253.64944933228833,145.08334616031814,0.0024445885480415723,False
0.08,0.41698700243996445,2.0,3408.0,27.174419999999998,0.2,68900.0,0.33,276.0,2700.0,13.08677424233015,0.5223986394007808,1410.4763263821083,7.425030616895997,1.3962166537989256,5.661743625434154,0.8738180143981448,2976,84,968,1518,146.62950167488847,84.53076769825452,0.0011510921444191637,False
0.09,0.5881744706244496,2.0,3409.0,27.174419999999998,0.2,68900.0,0.33,276.0,2700.0,21.11748362543665,0.9487599491150052,2561.651862610514,11.738544343915752,3.02599169515216,9.378939281520896,2.077231746037155,4470,108,1460,2274,176.3435599573675,101.68617126369335,0.0016127437497517579,False
0.09999999999999999,0.5971718057724233,2.0,3410.0,27.174419999999998,0.2,68900.0,0.33,276.0,2700.0,21.339426204675036,1.0648769151312922,2875.167670854489,11.985628003161848,3.1327173345514754,9.353798201513188,2.0678404194201834,4484,108,1464,2282,160.94662736634302,92.73397850408473,0.0014923519523699891,False
0.11,0.5844706043527359,2.0,3411.0,27.174419999999998,0.2,68900.0,0.33,276.0,2700.0,20.42876481083117,1.1207944247144292,3026.144946728959,11.637420412012913,2.982701077858342,8.791344398818255,1.8619066531439128,4233,106,1388,2145,144.10950039275377,83.15673005782962,0.0013251513816243913,False
0.12,0.7932295394848906,2.0,3412.0,27.174419999999998,0.3,68900.0,0.33,276.0,2700.0,32.03055016198274,1.9182138949820273,5179.177516451474,17.87494141448048,6.044131355351899,14.155608747502257,4.125917460369871,3133,96,1026,1588,178.8140592756213,102.94053645887111,0.0019084228332445095,False
0.13,0.7790380306692968,2.0,3413.0,27.174419999999998,0.3,68900.0,0.33,276.0,2700.0,30.86585477152984,2.0016791741094795,5404.533770095594,17.416214124096147,5.7937199689877605,13.449640647433693,3.792040794878281,3044,94,1000,1538,163.17876157409725,94.08870789685328,0.0016998312158276185,False
0.14,0.4859102007323334,2.0,3414.0,27.174419999999998,0.2,68900.0,0.33,276.0,2700.0,14.923608007894314,1.0389055403916345,2805.044959057413,9.073157388409602,1.964084862744294,5.850450619484713,0.9251793223526594,3240,88,1068,1632,97.3201114175979,56.17659625222094,0.0008349268587819238,False
0.15000000000000002,0.603235858431691,2.0,3415.0,27.174419999999998,0.3,68900.0,0.33,276.0,2700.0,20.430254059916827,1.525200471023184,4118.041271762597,12.153305961362369,3.2059067508682455,8.276948098554458,1.6807062798450616,2140,74,700,1084,114.28957593182626,65.93654774275358,0.0010364556044473194,False
0.16,0.8353157310259394,2.0,3416.0,27.174419999999998,0.3,68900.0,0.33,276.0,2700.0,33.48227981312455,2.6700037427105627,7209.010105318519,19.265101940819424,6.825516717785458,14.217177872305125,4.155512975074895,3347,98,1094,1700,142.21664430599535,82.09177613259247,0.0015432450979575474,False
0.17,0.8092803550621996,2.0,3417.0,27.174419999999998,0.3,68900.0,0.33,276.0,2700.0,31.56891927801542,2.6730683754928517,7217.2846138306995,18.399868954197814,6.335242840378128,13.169050323817608,3.6621744648852763,3071,94,1006,1556,130.88750971319533,75.54946567318859,0.0013823762551243082,False
0.18000000000000002,0.8739766683609224,2.0,3418.0,27.174419999999998,0.3,68900.0,0.33,276.0,2700.0,35.354128689122625,3.169657069783879,8558.074088416473,20.58135114602774,7.595646305507445,14.772777543094886,4.4259892357235655,3337,100,1098,1684,132.6711205584288,76.58861258743995,0.0014791744779386238,False
0.19,0.5572414763022007,2.0,3419.0,27.174419999999998,0.3,68900.0,0.33,276.0,2700.0,17.214260403358598,1.6209892823115097,4376.6710622410765,10.904587973906283,2.6758437438490406,6.3096724294523145,1.0548544615375308,1707,64,560,861,84.70870354193687,48.89860681889432,0.0007567547928422589,False
0.2,0.7419664430261403,2.0,3420.0,27.174419999999998,0.3,68900.0,0.33,276.0,2700.0,26.74343218817592,2.6575880579984474,7175.487756595808,16.24179080453355,5.169948833546355,10.501641383642369,2.512360775547908,2613,84,858,1320,144.62547522272928,83.45179274856856,0.0015923357188758907,False
0.21000000000000002,0.7890990450519306,2.0,3421.0,27.174419999999998,0.3,68900.0,0.33,276.0,2700.0,29.232282099373506,3.0499934273901057,8234.982253953285,17.740904812974566,5.9705759756610775,11.49137728639894,2.9205825482709717,2972,92,976,1502,106.54029956358127,61.460446003993745,0.0010940826255860891,False
0.22,0.7591044129946767,2.0,3422.0,27.174419999999998,0.3,68900.0,0.33,276.0,2700.0,27.207221615201053,2.9704932586217336,8020.331798278681,16.78042663182368,5.452905176573271,10.426794983377373,2.4824119179515374,2622,84,860,1326,98.31467107590129,56.746558741058365,0.0009929259654664056,False
0.23,0.7444410185073075,2.0,3423.0,27.174419999999998,0.3,68900.0,0.33,276.0,2700.0,26.10945017741586,2.9771042651920054,8038.181516018415,16.319109206601016,5.210236004215876,9.790340970814842,2.2331317390238703,2526,82,830,1275,93.27982577287088,53.84356142097844,0.0009283177836340602,False
0.24000000000000005,0.8657662791826017,2.0,3424.0,27.174419999999998,0.3,68900.0,0.33,276.0,2700.0,33.08307230114541,3.9410157582419627,10640.7425472533,20.298678733711856,7.427826987217661,12.78439356743355,3.4868112289756983,3281,98,1080,1655,101.51873510957363,58.534168100058594,0.0011033912752955483,False
0.25,0.6150947189640685,2.0,3425.0,27.174419999999998,0.3,68900.0,0.33,276.0,2700.0,18.746827161751458,2.310628471744039,6238.696873708905,12.483887876331298,3.3519877807725997,6.26293928542016,1.0413593090285609,1896,68,626,951,71.86794171638086,41.27768283305124,0.0006720696546993994,False
0.26,0.6332764472960148,2.0,3426.0,27.174419999999998,0.3,68900.0,0.33,276.0,2700.0,19.439261255048272,2.4902928748365976,6723.790762058813,12.997591980522754,3.5836238646856056,6.441669274525518,1.093330989849008,1987,70,656,997,71.91475189878359,41.39259778675878,0.0006752449191941193,False
0.27,0.751888310124464,2.0,3427.0,27.174419999999998,0.3,68900.0,0.33,276.0,2700.0,25.526432985653255,3.4048444742627817,9193.080080509511,16.552729251591348,5.332638222636118,8.973703734061907,1.927793748373336,2475,82,814,1248,80.80004263619392,46.59721958373337,0.0008152039933645381,False
0.28,0.9372188607649092,2.0,3428.0,27.174419999999998,0.3,68900.0,0.33,276.0,2700.0,36.50220959547862,5.06433318207927,13673.69959161403,22.815478029985726,8.967371855497746,13.686731565492892,3.903038673418475,3370,100,1112,1696,94.23774997694183,54.217732640920694,0.0010727670326055984,False
0.29000000000000004,0.6789891620754156,2.0,3429.0,27.174419999999998,0.3,68900.0,0.33,276.0,2700.0,21.115488365430565,3.0106656108351664,8128.7971492549495,14.325856579057689,4.207938305756459,6.789631786372876,1.1972726949212924,2238,76,738,1125,67.91142102223455,38.97874149843238,0.0006713530612375355,False
0.3,0.6701560428446616,2.0,3430.0,27.174419999999998,0.3,68900.0,0.33,276.0,2700.0,20.43840639704009,3.009212291791351,8124.873187836647,14.065100874179226,4.0825493930737915,6.373305522860864,1.0733371012824406,2074,72,686,1039,65.65586372323529,37.85872061392081,0.0006384905535809673,False
0.31,0.9618601460178626,2.0,3431.0,27.174419999999998,0.3,68900.0,0.33,276.0,2700.0,37.24442137858532,5.710491189185328,15418.326210800386,23.713182259451422,9.540603514442934,13.5312391191339,3.8301123252576055,3629,104,1202,1820,87.83178858619185,50.47205263335477,0.0010106239250810302,False
0.32,0.8535357848928276,2.0,3432.0,27.174419999999998,0.3,68900.0,0.33,276.0,2700.0,30.162498167004216,4.757370568005451,12844.900533614718,19.880741248130374,7.182123735582917,10.281756918873842,2.4247531675774656,2906,90,960,1460,77.63081253410589,44.55506469194724,0.0008332169697915656,False
0.33,0.9194828719943247,2.0,3433.0,27.174419999999998,0.2,68900.0,0.33,276.0,2700.0,33.953133968251194,5.52700082796674,14922.902235510197,22.1787848947449,8.56837466940627,11.774349073506293,3.0413738414395297,7145,142,2256,3667,79.25894551570137,45.56466260447468,0.0008997076816345407,False
0.34,0.8714113905781846,2.0,3434.0,27.174419999999998,0.1,68900.0,0.33,276.0,2700.0,30.719481422712622,5.1399937367560655,13877.983089241377,20.492850181423975,7.542962972809175,10.226631241288647,2.402969236053109,43148,264,8004,26578,78.75408360210726,44.45371959012934,0.0008226046754517279,False
0.3500000000000001,0.6646058223202489,2.0,3435.0,27.174419999999998,0.2,68900.0,0.33,276.0,2700.0,19.099493080308477,3.252614099038875,8782.058067404963,13.902260274045608,4.004937240232142,5.197232806262869,0.7523231411932665,4303,100,1276,2269,62.29781876799998,35.948820499437524,0.0005659433767656796,False
0.36000000000000004,0.7948334111448311,2.0,3436.0,27.174419999999998,0.2,68900.0,0.33,276.0,2700.0,25.76743177905177,4.54042162233206,12259.138380296561,17.927103423903716,6.072842289252933,7.840328355148053,1.5324206669208733,6239,120,1738,3376,70.92399690099155,40.899620948662374,0.0006914435953053365,False
0.37,0.7007453371455772,2.0,3437.0,27.174419999999998,0.3,68900.0,0.33,276.0,2700.0,20.507401757841695,3.687781930079193,9957.011211213821,14.976466850780906,4.526669977187594,5.530934907060789,0.838888047108401,1941,70,646,966,57.68213541733391,33.165865555122636,0.0005687800427713073,False
0.38,0.7557201284093995,2.0,3438.0,27.174419999999998,0.3,68900.0,0.33,276.0,2700.0,23.16885355083617,4.287158526600354,11575.328021820957,16.67347573523257,5.396296494705148,6.4953778156036,1.1091379681047941,2152,74,714,1075,58.785533047293455,33.80353337071346,0.0006078200887375692,False
0.39,0.9294645658301914,2.0,3439.0,27.174419999999998,0.2,68900.0,0.33,276.0,2700.0,32.972341010679685,6.305369074003678,17024.49649980993,22.53613881070115,8.791537925653179,10.436202199978535,2.4861688516495013,8702,140,2194,4883,72.80305371374526,41.92242868649771,0.0007958501482479285,False
0.4,0.8915568807850045,2.0,3440.0,27.174419999999998,0.3,68900.0,0.33,276.0,2700.0,30.405786377556673,5.947115988958169,16057.213170187057,21.192311337592,7.962829855900337,9.213475039964674,2.0157138669421686,2865,90,950,1434,65.45533819119863,37.49299323504904,0.0007228393172426774,False
0.4100000000000001,1.0970323250051,2.0,3441.0,27.174419999999998,0.3,68900.0,0.33,276.0,2700.0,43.47408783553364,8.76784020143236,23673.168543867374,28.909089500071513,13.091964344035544,14.564998335462125,4.324124142603184,4005,110,1332,2001,76.6022984396282,43.42349044562016,0.0012380188236202228,False
0.42000000000000004,0.9375205433150438,2.0,3442.0,27.174419999999998,0.3,68900.0,0.33,276.0,2700.0,32.69535105822815,6.710854177881804,18119.30628028087,22.82637632440935,8.97425653094749,9.8689747338188,2.263402353065687,2970,92,990,1479,66.41457851100462,37.95320568766991,0.0007409441002651955,False
0.43,0.8812096835438215,2.0,3443.0,27.174419999999998,0.3,68900.0,0.33,276.0,2700.0,29.060235353764792,6.081431529653454,16419.865130064325,20.831777608792855,7.745416407503047,8.228457744971937,1.6639848778495931,2809,88,924,1411,60.458567075075656,34.62807021570728,0.0006716780426962353,False
0.44,1.112425696352675,2.0,3444.0,27.174419999999998,0.2,68900.0,0.33,276.0,2700.0,43.66183760588955,9.427195320893441,25453.427366412292,29.529923238407715,13.541743416759484,14.131914367481837,4.114548095866043,11576,164,2834,6557,74.33611551670664,42.489674346994775,0.0009169583902049919,False
0.45,1.0597292674507905,2.0,3445.0,27.174419999999998,0.3,68900.0,0.33,276.0,2700.0,39.76319394557133,8.75586688404693,23640.840586926708,27.429313162863462,12.041275721118959,12.333880782707869,3.28540883707203,3854,106,1268,1934,67.76362763894382,38.681506635695165,0.0008293751605136545,False
0.46,1.053038798235098,2.0,3446.0,27.174419999999998,0.3,68900.0,0.33,276.0,2700.0,39.0394826942569,8.77522097799254,23693.096640579857,27.167607449995806,11.85863684003452,11.87187524426109,3.0834158620419814,3956,106,1274,2005,65.90516988346276,37.48653322672529,0.000806976369402531,False
0.4700000000000001,1.0862827856538049,2.0,3447.0,27.174419999999998,0.3,68900.0,0.33,276.0,2700.0,40.99628035712429,9.416679501208272,25425.034653262333,28.479078714546954,12.783518759301305,12.517201642577337,3.3668392580930337,3934,106,1272,1992,66.65753830532815,37.98869605240757,0.0008245039011597762,False
0.4800000000000001,0.9839758338283948,2.0,3448.0,27.174419999999998,0.3,68900.0,0.33,276.0,2700.0,34.05677131540013,7.942001772532161,21443.404785836836,24.53187111203323,10.074067129039953,9.524900203366897,2.132065356507792,3434,96,1094,1749,63.72062730046134,36.53008051933523,0.0007103179236992404,False
0.49,0.9527491420721522,2.0,3449.0,27.174419999999998,0.3,68900.0,0.33,276.0,2700.0,31.885481293372145,7.565539427474273,20426.956454180538,23.379482077627735,9.326074373156498,8.50599921574441,1.7605349456822248,3051,90,968,1559,61.2623558154548,35.055105407631096,0.0006697928207087628,False
0.5,0.87597525038837,2.0,3450.0,27.174419999999998,0.3,68900.0,0.33,276.0,2700.0,27.15140965149616,6.526053025074893,17620.343167702213,20.650415975236143,7.636848823152127,6.500993676260016,1.110795798077234,2805,82,844,1467,59.661835558515655,34.2958415225437,0.0005905275020149718,False
0.01,0.6702352437354717,2.0,3451.0,30.1938,0.08,68900.0,0.33,276.0,2700.0,27.84200482176985,0.13920792971374452,375.8614102271102,14.067430190141856,4.083663453833249,13.774574631627996,3.9444555241195043,34557,314,11504,17295,1961.9884768849254,1132.0382436426196,0.019580890706801364,True
0.02,0.36112933032721184,2.0,3452.0,30.1938,0.08,68900.0,0.33,276.0,2700.0,11.926016942351877,0.11924341426269916,321.9572185092877,6.176920603288799,1.0166950000969668,5.749096339063078,0.8974515858342677,15436,192,5088,7798,533.2927533282013,304.25522812554453,0.003883482549900739,True
0.03,0.7018202480815097,2.0,3453.0,30.1938,0.1,68900.0,0.33,276.0,2700.0,29.122998726773798,0.4367884322338448,1179.328767031381,15.008920056087439,4.542785784738561,14.114078670686359,4.1059973525047155,23592,262,7794,11895,791.1741787096378,450.43207890534813,0.007024829410937251,True
0.04,0.4113935866503229,2.0,3454.0,30.1938,0.1,68900.0,0.33,276.0,2700.0,13.696904808207087,0.2738040548775896,739.2709481694918,7.296515691027978,1.3550451555290426,6.400389117179109,1.081241100651453,11215,166,3688,5677,332.3504946093732,190.00016395213265,0.0023839084365548917,True
0.05,0.4721407992913126,2.0,3455.0,30.1938,0.1,68900.0,0.33,276.0,2700.0,16.27849392797576,0.40670054881159534,1098.0914817913074,8.73435307938163,1.8414909502851315,7.544140848594129,1.4347904014735362,13114,184,4312,6640,299.0513849273832,170.93038468630897,0.0023090422403276595,True
0.06000000000000001,0.43011133298559073,2.0,3456.0,30.1938,0.08,68900.0,0.33,276.0,2700.0,14.10199145232082,0.42260735422731627,1141.039856413754,7.729663682429016,1.4956595277759643,6.372327769891805,1.073052173548648,18369,212,6024,9327,232.76633581787678,133.32802359146916,0.0017337307309057996,False
0.06999999999999999,0.551451299628554,2.0,3457.0,30.1938,0.1,68900.0,0.33,276.0,2700.0,19.71407809969606,0.6892743559692384,1861.0407611169435,10.751156311828588,2.613148857710228,8.962921787867472,1.9238745017409897,15755,206,5168,7997,254.41604072799626,145.7083993616219,0.002071751255071675,False
0.08,0.7554086956228067,2.0,3458.0,30.1938,0.2,68900.0,0.33,276.0,2700.0,30.883572285556163,1.2342705611298233,3332.530515050523,16.66364823214697,5.391105358061333,14.219924053409194,4.15683479693151,6251,136,2048,3173,290.1843325623756,165.81753402776917,0.002957411000621997,True
0.09,0.4256419160707755,2.0,3459.0,30.1938,0.1,68900.0,0.33,276.0,2700.0,13.2589079319063,0.5951240429061391,1606.8349158465755,7.625436508582778,1.461345542501648,5.633471423323522,0.8662214995955089,10926,164,3594,5529,141.20981380136016,81.43170984938041,0.0011761311525856628,False
0.09999999999999999,0.4987512418396394,2.0,3460.0,30.1938,0.2,68900.0,0.33,276.0,2700.0,16.402353736897332,0.8180232917424735,2208.6628877046783,9.393412841027708,2.082645421808148,7.008940895869625,1.2646221300656744,3709,94,1198,1906,153.33268689990533,88.44457736095853,0.0013068742905456266,False
0.11,0.7232057652918795,2.0,3461.0,30.1938,0.3,68900.0,0.33,276.0,2700.0,28.09161156661817,1.542250996282714,4164.077689963327,15.660617509362858,4.870707262311366,12.430994057255312,3.3284562660286516,2854,88,928,1456,199.2453036144611,114.88578238723338,0.001980436412866811,False
0.12,0.5361148855084388,2.0,3462.0,30.1938,0.2,68900.0,0.33,276.0,2700.0,17.753775182547244,1.061607396215898,2866.339969782925,10.348834160892636,2.4513573167240694,7.404941021654608,1.3897499205081714,3871,100,1264,1969,137.81728678216405,79.56710063224207,0.0012121002241702703,False
0.13,0.7901564375539598,2.0,3463.0,30.1938,0.3,68900.0,0.33,276.0,2700.0,31.54745362210066,2.0459830993965866,5524.154368370784,17.775176892183566,5.989353192432874,13.772276729917095,3.943370093036287,3033,94,994,1536,226.50827891286647,130.13549533525918,0.001937245550230791,False
0.14,0.4541530084247291,2.0,3464.0,30.1938,0.2,68900.0,0.33,276.0,2700.0,13.486896024251118,0.9383357015366108,2533.5063941488493,8.298931225838768,1.6883075620327734,5.1879647984123505,0.7499718604961626,2898,84,956,1458,102.95702125116556,59.41225677319218,0.0008527728996644525,False
0.15000000000000002,0.6105350061656449,2.0,3465.0,30.1938,0.3,68900.0,0.33,276.0,2700.0,20.80884785379046,1.5535950055637104,4194.706515022018,12.356361427638262,3.2953557779894727,8.452486426152198,1.7417607724257622,2185,74,716,1105,128.12363627236988,73.92254173275825,0.0011718062198057852,False
0.16,0.6180746475863086,2.0,3466.0,30.1938,0.3,68900.0,0.33,276.0,2700.0,20.9606803975895,1.6682757894677391,4504.344631562895,12.567513118305103,3.389313418776932,8.393167279284397,1.7210376293091927,2208,74,720,1122,123.015017869224,71.02271300400972,0.0011201479037516353,False
0.17,0.7923881143799825,2.0,3467.0,30.1938,0.3,68900.0,0.33,276.0,2700.0,30.53655852949557,2.5853177118690653,6980.357822046476,17.847601973261877,6.0291024341907775,12.688956556233691,3.443784722321712,3013,94,990,1522,492.22722715017505,251.773721237269,0.001555802863610297,True
0.18000000000000002,0.5981930866777341,2.0,3468.0,30.1938,0.3,68900.0,0.33,276.0,2700.0,19.466647657372558,1.739783776926375,4697.416197701213,12.013802864731169,3.144972412562328,7.45284479264139,1.4051886356359529,2076,72,682,1047,105.66963763065213,61.00204686424155,0.0009622040810094605,False
0.19,0.7277242140587983,2.0,3469.0,30.1938,0.3,68900.0,0.33,276.0,2700.0,26.190556821434683,2.4737374420289786,6679.091093478242,15.799782543484435,4.941783172015435,10.390774277950248,2.468045729986456,2640,84,866,1335,119.34061135120268,68.89848985634248,0.0011938377343022433,False
0.2,0.8249372302913367,2.0,3470.0,30.1938,0.3,68900.0,0.33,276.0,2700.0,31.679096952107127,3.1511545343915683,8508.117242857235,18.918151519087075,6.627376597073044,12.760945433020051,3.476222062681476,3248,96,1064,1646,127.42014512002982,73.51240437210863,0.0013565422198903278,False
0.21000000000000002,0.8115338096842423,2.0,3471.0,30.1938,0.3,68900.0,0.33,276.0,2700.0,30.58023358303427,3.1915283331753317,8617.126499573396,18.474084503878977,6.3767897068378385,12.106149079155294,3.185261373662507,2936,92,964,1484,120.26696071164984,69.34155295120081,0.0012647325214175437,False
0.22,0.7024333247253511,2.0,3472.0,30.1938,0.3,68900.0,0.33,276.0,2700.0,24.01459987124062,2.6193048667861856,7072.123140322701,15.027442782214884,4.551993080516997,8.987157089025736,1.9326882137308115,2349,80,774,1182,100.43941504297955,57.97329587317368,0.000993967358168747,False
0.23,0.913019878184549,2.0,3473.0,30.1938,0.3,68900.0,0.33,276.0,2700.0,36.39423510273547,4.159854531603765,11231.607235330164,21.948739287804386,8.425777276995241,14.445495814931085,4.265922745391476,3499,102,1154,1762,148.22608505892612,80.57390551441847,0.002145687059229514,False
0.24000000000000005,0.7017269088555514,2.0,3474.0,30.1938,0.3,68900.0,0.33,276.0,2700.0,23.48737870623574,2.789532526852809,7531.737822502584,15.006100850766831,4.541384995330979,8.48127785546891,1.7518524684781704,2296,78,758,1153,93.28741707530278,53.83207780183409,0.0009159078122275897,False
0.25,0.6431298342985481,2.0,3475.0,30.1938,0.08,68900.0,0.33,276.0,2700.0,20.16182077425253,2.4875026733066754,6716.257217928023,13.27945959495918,3.7130808402954916,6.8823611792933495,1.2255781669888162,44318,256,8416,27176,86.702967729715,49.38326427643457,0.000800823769712647,False
0.26,0.6067775203360466,2.0,3476.0,30.1938,0.2,68900.0,0.33,276.0,2700.0,18.12056377834366,2.3188622028650108,6260.927947735529,12.251664454534382,3.249123734825511,5.868899323809277,0.9302615319605003,3829,98,1268,1921,76.55990688144253,44.1032202561704,0.000712171542564381,False
0.27,0.9584873020484539,2.0,3477.0,30.1938,0.3,68900.0,0.33,276.0,2700.0,38.197836879146,5.115483999884305,13811.806799687625,23.589405063626586,9.460831471609273,14.608431815519417,4.345347471724968,3795,106,1252,1911,110.46353264595501,63.56956001682186,0.0012684714171157542,False
0.28,0.7672550901225947,2.0,3478.0,30.1938,0.2,68900.0,0.33,276.0,2700.0,26.145692191454774,3.614420745515933,9758.936012893018,17.03918756276033,5.590730420448202,9.106504628694445,1.9763096749322693,5596,124,1862,2797,87.66039645200797,50.492477744600336,0.0009010789596621348,False
0.29000000000000004,0.6951996499745403,2.0,3479.0,30.1938,0.2,68900.0,0.33,276.0,2700.0,21.964616061017608,3.1337891266952855,8461.230642077271,14.809495456497405,4.444078519876275,7.155120604520203,1.3102893931809891,4476,110,1490,2235,80.26341821979304,46.24202068429915,0.0007703274722833416,False
0.3,0.6188989115596537,2.0,3480.0,30.1938,0.3,68900.0,0.33,276.0,2700.0,17.87604172396456,2.6248575908300684,7087.115495241184,12.590683705134627,3.399681915241983,5.285358018829932,0.7748243244119144,1829,66,606,914,67.864603656802,39.12679682372299,0.0006458294331303661,False
0.31,0.6631465367582067,2.0,3481.0,30.1938,0.3,68900.0,0.33,276.0,2700.0,19.86452759111235,3.0166076521265976,8144.840660741814,13.859574130046685,3.984681024680543,6.004953461065664,0.9680733725539454,1943,70,642,974,70.8819157515717,40.85396888271649,0.0006842739462574491,False
0.32,0.6338084677757736,2.0,3482.0,30.1938,0.2,68900.0,0.33,276.0,2700.0,18.19366506244978,2.8423572712767444,7674.36463244721,13.012748727535808,3.590542881341258,5.180916334913974,0.7481856100645135,3636,96,1188,1830,66.91254986159316,38.3656189057659,0.0006331302766783263,False
0.33,0.8628795817568298,2.0,3483.0,30.1938,0.3,68900.0,0.33,276.0,2700.0,30.464413328087037,4.951361922339656,13368.67719031707,20.19969626003438,7.369373760176957,10.264717068052658,2.4180118378373017,2998,92,994,1501,84.46664104008656,48.59034086805277,0.0009139588199455214,False
0.34,0.7645529164744602,2.0,3484.0,30.1938,0.3,68900.0,0.33,276.0,2700.0,24.553333198043678,4.091748538562963,11047.72105412,16.953216184873405,5.54480377295002,7.600117013170273,1.4530552343870573,2459,80,812,1235,75.65440807781394,42.985447076503874,0.0007573095668694541,False
0.3500000000000001,0.9842439058803489,2.0,3485.0,30.1938,0.3,68900.0,0.33,276.0,2700.0,37.56702936261987,6.484432948443373,17507.968960797105,24.541870132369215,10.080644778255838,13.025159230250654,3.5962118298124652,3653,104,1206,1838,88.95148161559479,50.95308335152766,0.001039799164119232,False
0.36000000000000004,0.877315898425462,2.0,3486.0,30.1938,0.3,68900.0,0.33,276.0,2700.0,30.560542751607237,5.403181597392047,14588.590312958528,20.69680089175198,7.664564850671454,9.863741859855256,2.2613832532794067,2854,90,948,1426,79.93926089725456,45.96166147747547,0.0008612796024628772,False
0.37,0.6979185824044276,2.0,3487.0,30.1938,0.3,68900.0,0.33,276.0,2700.0,20.36327716475316,3.6611188803578125,9885.020976966094,14.89126139658276,4.484455653279031,5.472015768170401,0.8233367729212189,1964,70,654,977,61.78873300949699,35.574190946602116,0.0006287244433941232,False
0.38,0.7472842900504654,2.0,3488.0,30.1938,0.3,68900.0,0.33,276.0,2700.0,22.71874319267809,4.201637558550316,11344.421408085853,16.408137565074277,5.2567621807909415,6.310605627603813,1.0551246222406254,2184,74,724,1092,64.49281510639089,37.108023214576335,0.000670446892422526,False
0.39,0.9485640561834188,2.0,3489.0,30.1938,0.3,68900.0,0.33,276.0,2700.0,34.166650850928,6.538259492852095,17653.300630700658,23.226898127811676,9.228548674617203,10.939752723116325,2.690289181765108,3057,94,1016,1527,79.13685824971144,45.38346449305156,0.000898557113128264,False
0.4,1.0759833845154267,2.0,3490.0,30.1938,0.3,68900.0,0.33,276.0,2700.0,42.30670419053414,8.327299551553676,22483.708789194923,28.06979896287553,12.492311259941168,14.23690522765861,4.1650117083874925,4010,110,1332,2006,84.62890538472634,48.37014711497142,0.001045699260906441,False
0.4100000000000001,0.780275318920898,2.0,3491.0,30.1938,0.3,68900.0,0.33,276.0,2700.0,23.83192109673723,4.741196019979095,12801.229253943557,17.456006898082254,5.815293459709667,6.375914198654975,1.074097439730572,2319,78,774,1152,62.53137700037023,35.836226657550895,0.0006633129541017573,False
0.42000000000000004,1.0743983092925422,2.0,3492.0,30.1938,0.3,68900.0,0.33,276.0,2700.0,41.61184602213363,8.583318120301957,23174.958924815284,28.007047635540374,12.447868258221655,13.60479838659326,3.8645501379196983,3848,108,1284,1916,81.31067976461058,46.31077103236968,0.000998639961790814,False
0.43,1.0567890975386107,2.0,3493.0,30.1938,0.2,68900.0,0.33,276.0,2700.0,40.12751225330392,8.460896063054369,22844.419370246796,27.314166333621948,11.960798208698884,12.813345919681971,3.4999021456445156,10522,156,2604,5934,81.61006560510194,46.83759257702667,0.0009667625955101283,False
0.44,0.9402062034647755,2.0,3494.0,30.1938,0.3,68900.0,0.33,276.0,2700.0,32.35345768005804,6.939351737210511,18736.24969046838,22.923496726647578,9.035690795831112,9.429960953410465,2.096339058620601,3007,92,1002,1498,69.78152443975685,39.945165574973934,0.0007923914261783113,False
0.45,1.0901861629336516,2.0,3495.0,30.1938,0.2,68900.0,0.33,276.0,2700.0,41.82988544702664,9.220872471875419,24896.35567406363,28.634888599971955,12.894987315928917,13.194996847054686,3.6741148440534985,11463,162,2812,6485,79.80608598897096,45.73763618367115,0.0009712238688052154,False
0.46,0.9894384750383386,2.0,3496.0,30.1938,0.3,68900.0,0.33,276.0,2700.0,34.91152069602624,7.825789718399497,21129.63223967864,24.73598284393807,10.208633092310187,10.175537852088166,2.3828433739106902,3397,98,1120,1701,71.89525381315549,41.180887409670156,0.0008234176747583999,False
0.4700000000000001,1.0518210994673087,2.0,3497.0,30.1938,0.3,68900.0,0.33,276.0,2700.0,38.68539118168739,8.873620544980767,23958.775471448072,27.12009671613933,11.82558380858154,11.565294465548064,2.9519632636007724,4062,106,1272,2092,72.17465012696597,41.21381960403528,0.0008785121689463363,False
0.4800000000000001,0.8106439680772684,2.0,3498.0,30.1938,0.2,68900.0,0.33,276.0,2700.0,23.973581664490904,5.52203625631395,14909.497892047664,18.444763103711253,6.360363744972154,5.528818560779651,0.8383274886582042,6565,114,1632,3693,74.1996615210137,42.047458083031486,0.0006240257968777333,False
0.49,1.0345532844814342,2.0,3499.0,30.1938,0.1,68900.0,0.33,276.0,2700.0,37.01984104047255,8.82345756551432,23823.33542688866,26.450372725117624,11.363072114846423,10.569468315354925,2.5396145493321036,66950,292,9798,43295,78.60135512095832,44.69177227587725,0.0008447767452442391,False
0.5,1.1445251088191206,2.0,3500.0,30.1938,0.3,68900.0,0.33,276.0,2700.0,44.16325990233007,10.77901558778336,29103.342087015073,30.843689625390343,14.510652896715944,13.319570276939725,3.7316373089325836,4287,110,1334,2212,85.20628233049838,48.271334182036576,0.0009493743450085642,False
0.01,0.6789894929917906,2.0,3501.0,33.21318,0.08,68900.0,0.33,276.0,2700.0,28.35667702771028,0.14178129074344922,382.8094850073129,14.325866384518127,4.20794304641861,14.030810643192153,4.066161755675161,35765,320,11910,17894,2211.293074612778,1275.4405919893068,0.022014262464366142,True
0.02,0.4928515852880857,2.0,3502.0,33.21318,0.1,68900.0,0.33,276.0,2700.0,17.997486594929864,0.17995811078848042,485.88689912889714,9.245760843057743,2.0276634903073747,8.75172575187212,1.8477053795188942,14079,194,4666,7074,773.4419647309237,444.33064905449504,0.006439040690747341,True
0.03,0.5242912143273426,2.0,3503.0,33.21318,0.1,68900.0,0.33,276.0,2700.0,19.32440778479386,0.2898095681041452,782.4858338811921,10.042697716108552,2.330809394736786,9.281710068685307,2.040999826632641,15538,204,5118,7855,634.4696326909451,361.7615858156297,0.004726173218869905,True
0.04,0.43868325671430153,2.0,3504.0,33.21318,0.1,68900.0,0.33,276.0,2700.0,14.938371743163605,0.2986333935767187,806.3101626571405,7.930966442824938,1.5627790721165875,7.007405300338667,1.2641456785398688,12093,176,3960,6147,395.08990118216235,226.11448030973543,0.002842980193276752,True
0.05,0.6559276327700548,2.0,3505.0,33.21318,0.1,68900.0,0.33,276.0,2700.0,25.877231094691936,0.6466689779795002,1746.0062405446504,13.649198335916388,3.8853902189503025,12.228032758775548,3.2387212409708024,21298,244,7000,10792,512.2125747821569,292.656612357151,0.004093469675727427,True
0.06000000000000001,0.5757718706651027,2.0,3506.0,33.21318,0.2,68900.0,0.33,276.0,2700.0,21.22557525559871,0.6363148683258428,1718.0501444797756,11.401281042090313,2.882498692192596,9.824294213508397,2.2461838238667533,4650,112,1528,2352,312.94650959009715,179.814830692648,0.0027832847499596274,True
0.06999999999999999,0.4298206759652445,2.0,3507.0,33.21318,0.2,68900.0,0.33,276.0,2700.0,13.87148979259075,0.48478376522055555,1308.9161660955,7.722870273625321,1.4934138340891223,6.14861951896543,1.0086300688685668,3047,86,996,1547,209.33389249245127,120.83065360697302,0.0016533224185464645,False
0.08,0.6849783193708758,2.0,3508.0,33.21318,0.2,68900.0,0.33,276.0,2700.0,26.705431353541545,1.0671449238492359,2881.291294392937,14.503773429300416,4.294270450260238,12.201657924241129,3.227125526411002,5351,124,1762,2702,301.7466838063404,172.8128344746527,0.0027418960548024063,True
0.09,0.6094915826805769,2.0,3509.0,33.21318,0.1,68900.0,0.33,276.0,2700.0,22.246681438897134,0.999573850720727,2698.849396945963,12.32725233639326,3.282478049219855,9.919429102503875,2.282904198499128,18125,222,5966,9170,232.71237085212897,133.56195337052648,0.0020653430440229627,False
0.09999999999999999,0.5041675813130205,2.0,3510.0,33.21318,0.2,68900.0,0.33,276.0,2700.0,16.661393239818228,0.8309752668885182,2243.6332205989993,9.529738965407725,2.1338921960585613,7.1316542744105025,1.302916929170043,3642,94,1188,1854,169.86988524542102,98.0471783789512,0.001457256350368813,False
0.11,0.5497529699461492,2.0,3511.0,33.21318,0.2,68900.0,0.33,276.0,2700.0,18.66252990428163,1.0236515048542043,2763.8590631063516,10.706312746049374,2.5949279396645517,7.956217158232256,1.5712764348103474,4191,102,1368,2133,166.48129397208413,95.86363761551395,0.0014942782243944693,False
0.12,0.7237276034469993,2.0,3512.0,33.21318,0.3,68900.0,0.33,276.0,2700.0,27.84360733011784,1.6669973250701362,4500.892777689368,15.676663548147921,4.878883756480503,12.16694378196992,3.211886431410367,2888,88,932,1484,200.0529905286184,115.37465674659185,0.0020052056418300747,False
0.13,0.7323800080122616,2.0,3513.0,33.21318,0.3,68900.0,0.33,276.0,2700.0,28.073299173919068,1.8201630602647567,4914.440262714843,15.943714464661344,5.015678551363284,12.129584709257724,3.1955154910985275,2923,88,952,1489,188.23395203160533,108.55128459973402,0.0018910224976544066,False
0.14,0.670785288257837,2.0,3514.0,33.21318,0.3,68900.0,0.33,276.0,2700.0,24.294017692853252,1.6948342183387595,4576.052389514651,14.083611472298129,4.091405616617361,10.210406220555123,2.396571398278601,2494,82,822,1255,214.33864995922787,123.46325479651078,0.0017777163401726948,False
0.15000000000000002,0.5565898463322632,2.0,3515.0,33.21318,0.2,68900.0,0.33,276.0,2700.0,18.074050669161675,1.3484852167164612,3640.910085134445,10.887278604626193,2.668743627746114,7.186772064535482,1.3202584110296527,3972,100,1298,2019,127.44680070584224,73.48691095928716,0.0011409296452542519,False
0.16,0.8314861085460802,2.0,3516.0,33.21318,0.3,68900.0,0.33,276.0,2700.0,33.24100286649941,2.6507015869805532,7156.8942848474935,19.136763554643654,6.751984511732757,14.104239311855753,4.101282924752203,3324,98,1092,1680,174.08502205487744,100.50378510815395,0.001871073156672662,False
0.17,0.6595904773461911,2.0,3517.0,33.21318,0.3,68900.0,0.33,276.0,2700.0,22.920298327813743,1.9379355947261099,5232.426105760496,13.755778537395743,3.935580201476688,9.164519790418,1.9976446067505782,2305,78,756,1165,133.79399930055925,77.24447472577009,0.0012708930928675675,False
0.18000000000000002,0.578102584136932,2.0,3518.0,33.21318,0.3,68900.0,0.33,276.0,2700.0,18.458659279065348,1.6490648228787241,4452.475021772555,11.464365029441401,2.9091453003460424,6.994294249623946,1.2600804774673182,2071,72,680,1045,114.12312822350877,65.88812607626532,0.0010138651722437669,False
0.19,0.78601085631847,2.0,3519.0,33.21318,0.3,68900.0,0.33,276.0,2700.0,29.59460352264532,2.7971218786439915,7552.229072338777,17.640971688305065,5.915943081154408,11.953631834340253,3.1188212025104165,3010,92,988,1522,140.90927436887068,81.32596497995395,0.0014601634302950387,False
0.2,0.8332521461565383,2.0,3520.0,33.21318,0.3,68900.0,0.33,276.0,2700.0,32.19280108089941,3.202524947270457,8646.817357630234,19.195901246360872,6.785832964071133,12.996899834538535,3.583308016800676,3250,96,1062,1651,141.71707181516967,81.80754845276294,0.0015142242024306753,False
0.21000000000000002,0.7754200304793157,2.0,3521.0,33.21318,0.3,68900.0,0.33,276.0,2700.0,28.42281931750549,2.9649998352948153,8005.499555296001,17.300075353022002,5.7309182972151325,11.122743964483487,2.765918461920317,2794,88,918,1411,126.62158786972405,73.08641202341974,0.0013051307504358936,False
0.22,0.9156780529807471,2.0,3522.0,33.21318,0.3,68900.0,0.33,276.0,2700.0,36.86709691922333,4.033079542064285,10889.31476357357,22.043228009305672,8.484246407009696,14.823868909917657,4.451166864945411,3488,102,1150,1757,140.88261714380735,81.12768396952143,0.001590710773043296,False
0.23,0.8267256621128867,2.0,3523.0,33.21318,0.3,68900.0,0.33,276.0,2700.0,30.951073370353274,3.5338909323798124,9541.505517425494,18.977745248375907,6.6612636989350715,11.973328121977367,3.127372766555259,3205,94,1052,1621,123.78424543784348,71.31914838979932,0.0013126105257504671,False
0.24000000000000005,0.5968283887842318,2.0,3524.0,33.21318,0.3,68900.0,0.33,276.0,2700.0,18.060229539207857,2.1382746268094595,5773.341492385541,11.976159784025526,3.1286028921394933,6.08406975518233,0.9903282653300338,1911,68,626,966,90.29910139134007,52.00481080534342,0.0008207174467411333,False
0.25,0.9375539240746226,2.0,3525.0,33.21318,0.3,68900.0,0.33,276.0,2700.0,37.408145161895014,4.643293221761984,12536.891698757356,22.8275823462608,8.975018512856517,14.580562815634213,4.331725291094533,3535,102,1162,1786,128.1031033936876,73.80017165801985,0.0014531695457391217,False
0.26,0.6838330119999994,2.0,3526.0,33.21318,0.3,68900.0,0.33,276.0,2700.0,22.05307608132151,2.830088802252133,7641.239766080759,14.469680651214743,4.277678698147634,7.583395430106767,1.4475898958955007,2271,76,748,1143,92.36123648792953,53.2844038339196,0.00090899009890391,False
0.27,0.8797492544238209,2.0,3527.0,33.21318,0.3,68900.0,0.33,276.0,2700.0,33.11554591497335,4.429374719721001,11959.311743246702,20.781107679806667,7.715030079305482,12.334438235166687,3.2856553595844806,3160,96,1042,1591,112.3048543086903,64.72659111089774,0.0012354427076923513,False
0.28,0.7866005978212922,2.0,3528.0,33.21318,0.3,68900.0,0.33,276.0,2700.0,27.251253649045108,3.7691993495785785,10176.838243862161,17.660037081005637,5.926352315706206,9.59121656803947,2.157152966127627,2669,86,880,1343,100.11677260006662,57.72064752402448,0.0010236033684179091,False
0.29000000000000004,0.6378015797570438,2.0,3529.0,33.21318,0.2,68900.0,0.33,276.0,2700.0,19.017442049064805,2.7064488949621306,7307.412016397752,13.126735677879404,3.642731692172983,5.8907063711854,0.9362827972108523,3990,100,1328,1992,80.74916882623052,46.54912252990771,0.000759828847700724,False
0.3,0.6007493434388598,2.0,3530.0,33.21318,0.08,68900.0,0.33,276.0,2700.0,17.000397245817467,2.4935109191080023,6732.479481591606,12.08443920621214,3.175773024690668,4.915958039605327,0.6822621055826659,40141,230,7138,24898,78.91034421678336,45.53790947340241,0.0007000776391259435,False
0.31,0.8668376799537842,2.0,3531.0,33.21318,0.3,68900.0,0.33,276.0,2700.0,31.2293300708433,4.7781520364853165,12901.010498510355,20.335469472752422,7.449594713504223,10.893860598090878,2.6714426770189066,2969,92,984,1487,98.59031405474006,56.75444110512255,0.0010676795822441537,False
0.32,0.8886271579929848,2.0,3532.0,33.21318,0.3,68900.0,0.33,276.0,2700.0,32.29870636480078,5.099163879652866,13767.742475062738,21.089956130946497,7.900892247216907,11.208750233854282,2.801728367564041,2919,92,968,1461,97.42280486594146,56.062382848130596,0.0010740926349916053,False
0.33,0.8691192742822103,2.0,3533.0,33.21318,0.2,68900.0,0.33,276.0,2700.0,30.841096176054826,5.013514592254329,13536.489399086688,20.413913079320142,7.496081468687453,10.427183096734684,2.4825668764331237,6169,134,2012,3117,92.75322232380927,53.34646006954904,0.0010138180582909787,False
0.34,0.695677134636855,2.0,3534.0,33.21318,0.1,68900.0,0.33,276.0,2700.0,20.88313610308926,3.4678150324207118,9363.100587535922,14.82384131308166,4.451153251548613,6.0592947900076,0.983338219127901,29697,208,5512,18285,80.19318964334887,46.28295818501181,0.0007534728988346562,False
0.3500000000000001,0.9939693597165262,2.0,3535.0,33.21318,0.3,68900.0,0.33,276.0,2700.0,38.2094364733166,6.596854192815298,17811.506320601307,24.905848467771964,10.32109360394551,13.303588005544636,3.7242394111302115,3667,104,1212,1843,98.55870305689541,56.55072403072985,0.0011589621033368661,False
0.36000000000000004,0.7355940527460267,2.0,3536.0,33.21318,0.3,68900.0,0.33,276.0,2700.0,22.535996351053768,3.958763245292426,10688.66076228955,16.043393166170084,5.067082479241161,6.492603184883684,1.1083192339487344,2198,74,730,1097,73.97219053428303,42.57238158361939,0.0007544445018591383,False
0.37,0.7311067778058187,2.0,3537.0,33.21318,0.2,68900.0,0.33,276.0,2700.0,22.080731480994423,3.978847928862447,10742.889407928607,15.904298965174583,4.9954036293291875,6.17643251581984,1.0165557004667405,5332,108,1454,2903,81.11738510385067,46.77739294412259,0.0007433172812622145,False
0.38,0.7732498532055365,2.0,3538.0,33.21318,0.1,68900.0,0.33,276.0,2700.0,24.115625335389204,4.467045165665377,12061.021947296518,17.23056993456034,5.69344950779565,6.885055400828865,1.226404342130273,36709,228,6466,22810,80.20477139946779,46.27569955630744,0.0007859465483676609,False
0.39,0.7672797284981104,2.0,3539.0,33.21318,0.3,68900.0,0.33,276.0,2700.0,23.569706298257906,4.4718553050814345,12074.009323719873,17.039972292651914,5.591150248017058,6.529734005605992,1.1192949429356238,2335,78,780,1159,70.7590955921253,40.74795540602887,0.000744779202194825,False
0.4,0.7951105956677404,2.0,3540.0,33.21318,0.2,68900.0,0.33,276.0,2700.0,24.862996964475176,4.838558106341874,13064.10688712306,17.936124725786573,6.077812655100661,6.926872238688603,1.2392545487587867,6754,118,1696,3786,77.57013170471956,44.7361772128296,0.0007762426767272591,False
0.4100000000000001,0.800349501112745,2.0,3541.0,33.21318,0.1,68900.0,0.33,276.0,2700.0,24.92704305175793,4.965696020758334,13407.379256047501,18.106994317005796,6.172225600256564,6.820048734752135,1.2065295794982296,39723,232,6700,24923,77.6233496756524,44.74143707882263,0.0007714601544935887,False
0.42000000000000004,0.9894373298997173,2.0,3542.0,33.21318,0.3,68900.0,0.33,276.0,2700.0,35.966457675515116,7.397786567512072,19974.023732282596,24.73593997721127,10.208604766205442,11.230517698303846,2.8108181986933696,3312,98,1106,1647,83.40246972505598,47.742560292989204,0.0009802008942818908,False
0.43,0.9892784066060921,2.0,3543.0,33.21318,0.3,68900.0,0.33,276.0,2700.0,35.688755371491126,7.506563333464615,20267.72100035446,24.72999121675907,10.204674121860057,10.958764154732055,2.698110788395442,3335,98,1114,1658,81.9072978252853,46.685561507787526,0.000960384322433945,False
0.44,0.9874216411444723,2.0,3544.0,33.21318,0.3,68900.0,0.33,276.0,2700.0,35.30540966309156,7.588781173477882,20489.70916839028,24.660536461149324,10.15882082230524,10.644873201942236,2.5700396488273576,3357,98,1122,1668,81.13973507386035,46.335763472239435,0.0009387616198393885,False
0.45,0.8629324354010661,2.0,3545.0,33.21318,0.2,68900.0,0.33,276.0,2700.0,27.53330072582917,6.004140909605917,16211.180455935977,20.20150668572218,7.370441435580604,7.331794040106992,1.3663005259746868,7392,124,1822,4171,76.00562569863025,43.75907272281731,0.0007814788006093169,False
0.46,0.8621562548332575,2.0,3546.0,33.21318,0.2,68900.0,0.33,276.0,2700.0,27.260926095943656,6.066152960380483,16378.612993027305,20.174926790107627,7.354771735028953,7.0859993058360295,1.2886187746484694,7344,124,1834,4121,75.08956027334293,43.0880327465385,0.0007677257311634214,False
0.4700000000000001,1.1634100532767175,2.0,3547.0,33.21318,0.3,68900.0,0.33,276.0,2700.0,46.3844916016555,10.682909143673278,28843.85468791785,31.628712956641078,15.100532717102356,14.75577864501442,4.417623573429077,4578,116,1478,2317,87.26435646712231,50.16046066462038,0.0011112917811272115,False
0.4800000000000001,1.1768449895649327,2.0,3548.0,33.21318,0.3,68900.0,0.33,276.0,2700.0,47.051596077839584,11.060759715517634,29864.05123189761,32.19264283296362,15.529245562682066,14.858953244875963,4.468485847164432,4604,116,1476,2338,86.44235136948167,49.684070232693735,0.001109391672096726,False
0.49,1.1816372407766356,2.0,3549.0,33.21318,0.3,68900.0,0.33,276.0,2700.0,47.097539672501256,11.292493730361342,30489.73307197562,32.394894679185505,15.684005184630413,14.70264499331575,4.391511454269072,4724,116,1484,2426,84.80908135441757,48.500699787024764,0.001095873028594992,False
0.5,1.1328830043939142,2.0,3550.0,33.21318,0.3,68900.0,0.33,276.0,2700.0,43.35059584911903,10.575849574480468,28554.793851097264,30.364208099315675,14.15436183309718,12.986387749803356,3.578512258616712,4484,110,1346,2353,84.89368409751425,48.38838232889028,0.0010178556916344132,False
0.01,0.6060734555493159,2.0,3551.0,36.23256,0.05,68900.0,0.33,276.0,2700.0,24.187442395920634,0.1209351175845027,326.52481747815733,12.232086169120976,3.2405046622258706,11.955356226799658,3.119569544641368,78396,462,25988,39408,2504.0487812165493,1423.743678918175,0.019646480461650122,True
0.02,0.6964710070888955,2.0,3552.0,36.23256,0.1,68900.0,0.33,276.0,2700.0,29.099025846631015,0.29097350330549315,785.6284589248315,14.84770561128093,4.462930962357075,14.251320235350086,4.1719574590515816,22716,258,7538,11403,1261.585536329182,718.1034976175303,0.012467222633950994,True
0.03,0.6028075124881593,2.0,3553.0,36.23256,0.1,68900.0,0.33,276.0,2700.0,23.462675204166267,0.3518835793947313,950.0856643657745,12.141431372853447,3.2007034749397105,11.32124383131282,2.8488198955449793,18305,226,6038,9242,763.694520169451,434.52817030083446,0.0064752605978601364,True
0.04,0.34223777846786696,2.0,3554.0,36.23256,0.05,68900.0,0.33,276.0,2700.0,10.7184849192784,0.21423565709901532,578.4362741673414,5.772544245933384,0.9038371535237727,4.9459406733450155,0.6896014964247574,34403,284,11312,17429,336.72880622263403,192.99315644001044,0.002280880638087239,True
0.05,0.3907315221272291,2.0,3555.0,36.23256,0.1,68900.0,0.33,276.0,2700.0,12.569287731540058,0.3139703939007019,847.7200635318952,6.828599023749231,1.2091366145129805,5.740688707790827,0.8951662206122786,10516,160,3444,5344,292.29636151616495,167.27592651178261,0.00218404942859994,True
0.06000000000000001,0.7162949309794416,2.0,3556.0,36.23256,0.1,68900.0,0.33,276.0,2700.0,29.108631897126333,0.8728065675716747,2356.5777324435217,15.448761254200567,4.76321207248617,13.659870642925766,3.8904055049144954,23470,260,7718,11887,506.55972410944304,288.9980865347469,0.004316488354325655,True
0.06999999999999999,0.6719379226092299,2.0,3557.0,36.23256,0.2,68900.0,0.33,276.0,2700.0,26.234883305239915,0.9175025381632558,2477.2568530407907,14.11754448369184,4.107658423962042,12.117338821548076,3.190155885798786,5428,124,1786,2743,346.7356145037166,198.26771370453207,0.0033192347716906076,True
0.08,0.5775164212534272,2.0,3558.0,36.23256,0.2,68900.0,0.33,276.0,2700.0,20.810923199348252,0.8313645976815055,2244.684413740065,11.448486869110459,2.9024299690987627,9.362436330237793,2.0710653714172573,4568,108,1488,2330,258.14561933316105,149.02801684709175,0.0023411264493118163,False
0.09,0.5619505352177403,2.0,3559.0,36.23256,0.2,68900.0,0.33,276.0,2700.0,19.759697708557965,0.8876595828554658,2396.6808737097576,11.029992813260522,2.727489141749344,8.729704895297443,1.8398295588938782,4222,104,1384,2140,225.1815347709353,129.83933668131306,0.0020223695466622385,False
0.09999999999999999,0.6432506366098156,2.0,3560.0,36.23256,0.2,68900.0,0.33,276.0,2700.0,23.8182223193802,1.1888167208666196,3209.805146339873,13.282930427092406,3.714685239345526,10.535291892287795,2.525868518478906,5316,120,1744,2694,243.68521163440099,140.1011052117795,0.002201048026849599,False
0.11,0.4488010579259736,2.0,3561.0,36.23256,0.2,68900.0,0.33,276.0,2700.0,13.87089387053274,0.760111522998015,2052.3011120946403,8.17094882370082,1.644234891726399,5.699945046831919,0.8841233687283839,3103,86,1016,1573,152.77575665001078,88.085518050064,0.0012553103604341094,False
0.12,0.45738193121752413,2.0,3562.0,36.23256,0.08,68900.0,0.33,276.0,2700.0,14.046546582043911,0.8391736801855605,2265.7689365010133,8.376493362658803,1.7152293207925662,5.6700532193851085,0.8760556406070057,17638,208,5844,8866,139.2399845053124,80.3167592799308,0.0011867195039497117,False
0.13,0.606447259043258,2.0,3563.0,36.23256,0.2,68900.0,0.33,276.0,2700.0,21.082283140508533,1.3657470180930968,3687.5169488513616,12.242479160472259,3.2450790011329356,8.839803980036274,1.8793319830398387,4438,108,1458,2245,169.87067701855645,97.9321016276712,0.0015905835965175285,False
0.14,0.5693221927807375,2.0,3564.0,36.23256,0.3,68900.0,0.33,276.0,2700.0,18.938647593220114,1.3199583113644382,3563.887440683983,11.22742322187921,2.8095253273886853,7.711224371340904,1.4895670160242471,1825,68,598,922,155.40916531021276,89.71394217241452,0.0013669546624720955,False
0.15000000000000002,0.7259100274214998,2.0,3565.0,36.23256,0.3,68900.0,0.33,276.0,2700.0,27.148861863389158,2.029096056283611,5478.5593519657505,15.743845223948707,4.913170170527236,11.40501663944045,2.884074114243625,2879,88,940,1463,178.4329988771836,102.84886228109288,0.001780032316382706,False
0.16,0.8573936948208745,2.0,3566.0,36.23256,0.3,68900.0,0.33,276.0,2700.0,34.8876289884788,2.7824316767389012,7512.565527195034,20.012166908569757,7.259075238542867,14.875462079909045,4.476643561803966,3308,98,1084,1676,196.40272229787632,113.38448471704409,0.0021606132528171253,False
0.17,0.8357329074084379,2.0,3567.0,36.23256,0.3,68900.0,0.33,276.0,2700.0,33.21437034880703,2.8129317165105476,7594.915634578479,19.279104627595334,6.833556583964764,13.935265721211696,4.020624867454217,3207,96,1052,1623,178.7307798673572,103.18702932149897,0.0019335163772515606,False
0.18000000000000002,0.8307597607712327,2.0,3568.0,36.23256,0.3,68900.0,0.33,276.0,2700.0,32.61186259731479,2.9228531215211726,7891.7034281071665,19.11246375815968,6.7380933919612,13.49939883915511,3.815240270440027,3231,96,1060,1635,169.4800031258149,97.84040495339204,0.0018164557375525085,False
0.19,0.7000167141129844,2.0,3569.0,36.23256,0.3,68900.0,0.33,276.0,2700.0,24.632271406189613,2.3257003275806984,6279.390884467885,14.954485120369782,4.515765787500943,9.677786285819831,2.1900654599202443,2379,80,784,1197,138.90463394864705,80.18887560520949,0.0013582738032423772,False
0.2,0.5441726993784386,2.0,3570.0,36.23256,0.3,68900.0,0.33,276.0,2700.0,16.373028034081624,1.6205476425890186,4375.478634990351,10.559478829910692,2.5355938681848214,5.813549204170933,0.9150462255958027,1666,64,544,844,106.52892312498962,61.44342372646017,0.0009354396834408625,False
0.21000000000000002,0.7399238529975456,2.0,3571.0,36.23256,0.3,68900.0,0.33,276.0,2700.0,26.36618459276033,2.749053189196572,7422.443610830745,16.17808578510733,5.13683859306974,10.188098807652999,2.387785403873168,2641,84,864,1339,133.30303344554653,76.95028860444539,0.0013349660236799637,False
0.22,0.5322983324060548,2.0,3572.0,36.23256,0.2,68900.0,0.33,276.0,2700.0,15.39969044141342,1.6716648295051948,4513.495039664026,10.249632606351094,2.41204986203368,5.150057835062325,0.7403850325284853,3207,90,1060,1611,94.16190385722578,54.318700867695085,0.000838742748258315,False
0.23,0.5667685821848361,2.0,3573.0,36.23256,0.3,68900.0,0.33,276.0,2700.0,16.816026471708255,1.9083605390356309,5152.573455396203,11.158876886706823,2.7809424156842026,5.657149585001433,0.8725818766485718,1685,64,548,857,97.50334394110787,56.175689662797076,0.0008725470557609384,False
0.24000000000000005,0.7589297428355384,2.0,3574.0,36.23256,0.3,68900.0,0.33,276.0,2700.0,26.679936883958042,3.1726395081794814,8566.1266720846,16.77489962250418,5.449974619495106,9.905037261453863,2.2773351113156246,2516,82,828,1268,120.5693680118486,69.5771542467275,0.0012219709359603495,False
0.25,0.7291211974847385,2.0,3575.0,36.23256,0.3,68900.0,0.33,276.0,2700.0,24.74842690036075,3.0608284390698426,8264.236785488574,15.842912492870882,4.96388532656478,8.90551440748987,1.9030568874949374,2546,82,838,1283,112.07215111189062,64.65565177592359,0.0011163629837841183,False
0.26,0.9486293971737563,2.0,3576.0,36.23256,0.3,68900.0,0.33,276.0,2700.0,37.841953453407946,4.8826428606233705,13183.1357236831,23.22927701075133,9.230066420862043,14.612676442656618,4.347423560238672,3483,102,1148,1755,135.17218242225331,77.8539167859919,0.0015551308525587942,False
0.27,0.7565013829222906,2.0,3577.0,36.23256,0.3,68900.0,0.33,276.0,2700.0,25.785950017379182,3.4398792735457855,9287.674038573621,16.69813955471541,5.409332356230315,9.087810462663771,1.9694530826845291,2483,82,820,1247,109.07537837853036,62.9252199030525,0.001096031855140397,False
0.28,0.8979473711013515,2.0,3578.0,36.23256,0.3,68900.0,0.33,276.0,2700.0,33.980260045838335,4.71126024512963,12720.402661850001,21.416323228932313,8.098974342606065,12.563936816906022,3.387714097476435,3170,96,1046,1595,120.95729702097864,69.63658791695016,0.0013426405053752236,False
0.29000000000000004,0.6403152132922361,2.0,3579.0,36.23256,0.2,68900.0,0.33,276.0,2700.0,19.143040335760862,2.7246606465330587,7356.583745639258,13.198695123899086,3.6758179017556154,5.944345211861776,0.9511572552225567,4100,102,1368,2040,86.29446720981537,49.75343478589767,0.0008298041336456334,False
0.3,0.7024261712492856,2.0,3580.0,36.23256,0.2,68900.0,0.33,276.0,2700.0,22.119346815945622,3.26135335462723,8805.65405749352,15.027226601623676,4.551885582837952,7.092120214321946,1.2905322282107217,4837,112,1588,2435,92.40721868539538,53.20870828843757,0.0009099877048356258,False
0.31,0.9599272552214431,2.0,3581.0,36.23256,0.3,68900.0,0.33,276.0,2700.0,37.11754376531143,5.690825159127881,15365.227929645278,23.642213731961963,9.494837125031113,13.475330033349469,3.804011965903232,3631,104,1202,1822,116.94216871315548,67.13977100484182,0.0013445430724469249,False
0.32,0.986164795099463,2.0,3582.0,36.23256,0.3,68900.0,0.33,276.0,2700.0,38.56149319535283,6.101209772541106,16473.266385860985,24.61357165717571,10.127855842508623,13.94792153817712,4.0266460699675175,3624,104,1200,1818,116.50071863939043,66.85061409725964,0.0013568120409210875,False
0.33,0.8344082982658338,2.0,3583.0,36.23256,0.3,68900.0,0.33,276.0,2700.0,28.77047349744017,4.671861850282924,12614.026995763894,19.234658713640215,6.808048747313376,9.535814783799957,2.136186897030452,2870,88,950,1439,99.04747499816943,56.96743007666081,0.001044859669848239,False
0.34,0.6535393838907372,2.0,3584.0,36.23256,0.1,68900.0,0.33,276.0,2700.0,18.755301096323223,3.1060830812704836,8386.424319430305,13.579887488170035,3.852875330627904,5.175413608153187,0.7467922493574206,27206,196,5104,16698,83.5294400736549,48.21511607713784,0.00076273210138263,False
0.3500000000000001,0.9240974173170584,2.0,3585.0,36.23256,0.3,68900.0,0.33,276.0,2700.0,33.69972259482846,5.807654264079875,15680.666513015662,22.343678675219987,8.67109992661796,11.35604391960847,2.8634456625380844,3191,96,1058,1598,100.82812911200205,57.89981441970099,0.0011406602585649808,False
0.36000000000000004,1.0248296154845742,2.0,3586.0,36.23256,0.3,68900.0,0.33,276.0,2700.0,39.985354241012054,7.099647665484916,19169.048696809274,26.07654297059034,11.107696869545686,13.908811270421715,4.00804920406077,3751,106,1242,1882,107.98791928851787,61.81436799447243,0.0012875484942878536,False
0.37,1.047492958000624,2.0,3587.0,36.23256,0.3,68900.0,0.33,276.0,2700.0,41.233078375806734,7.522032104402697,20309.486681887283,26.951528031688778,11.70856915777041,14.281550344117957,4.186537053367713,3883,108,1280,1957,107.49929622924445,61.4293655938109,0.0012960243509998332,False
0.38,0.9440528335343208,2.0,3588.0,36.23256,0.3,68900.0,0.33,276.0,2700.0,34.149074679029574,6.3734005409571,17208.18146058417,23.062916556463012,9.124137036687307,11.086158122566562,2.750736495730207,3059,94,1018,1526,97.77006199607568,55.72589833081763,0.0010952062735095748,False
0.39,0.8723884230644,2.0,3589.0,36.23256,0.3,68900.0,0.33,276.0,2700.0,29.512586312523318,5.630716907863183,15202.935651230595,20.526537875962088,7.563001608203829,8.98604843656123,1.932284700340646,2845,90,942,1426,88.24406104619308,50.63967143396859,0.0009569255620168844,False
0.4,0.9805126507178776,2.0,3590.0,36.23256,0.3,68900.0,0.33,276.0,2700.0,35.93259802990894,7.052478319428622,19041.69146245728,24.402857633072994,9.989332252979208,11.529740396835944,2.9368539335505863,3563,102,1184,1781,94.62611812651721,54.23295555566228,0.0011025439147774295,False
0.4100000000000001,0.7463457959715893,2.0,3591.0,36.23256,0.3,68900.0,0.33,276.0,2700.0,22.02698954267876,4.371185051397107,11802.199638772188,16.378729027391756,5.241377042441204,5.648260515287003,0.8701919910440976,2136,74,706,1071,72.18432949934592,41.45018552566213,0.0007543875943140694,False
0.42000000000000004,1.0434011297917993,2.0,3592.0,36.23256,0.3,68900.0,0.33,276.0,2700.0,39.51014130983912,8.14196013072011,21983.292352944296,26.792596020238534,11.59861343982967,12.717545289600587,3.4566533091095604,3734,106,1238,1869,95.50362928697842,54.481473451158465,0.0011514563269801594,False
0.43,0.7587514078345323,2.0,3593.0,36.23256,0.3,68900.0,0.33,276.0,2700.0,22.25861124137885,4.619082345490478,12471.52233282429,16.769257439335814,5.446983570865301,5.489353802043038,0.8279012253748235,2069,72,690,1028,68.58267800808098,39.20506125166199,0.0007376318366886715,False
0.44,0.9431028128724974,2.0,3594.0,36.23256,0.3,68900.0,0.33,276.0,2700.0,32.53132992820074,6.978483631801905,18841.905805865143,23.02844879234961,9.102243163776595,9.50288113585113,2.1237595319746907,3002,92,1000,1496,84.67647245839593,48.385412036935904,0.0009554225138814765,False
0.45,1.0095045658648891,2.0,3595.0,36.23256,0.3,68900.0,0.33,276.0,2700.0,36.45697586383329,8.011967815656913,21632.313102273663,25.492190125639272,10.712557710925118,10.96478573819402,2.7005898952682053,3465,100,1152,1727,87.21960212066193,49.764593094450284,0.0010337253018076983,False
0.46,1.0969270904423947,2.0,3596.0,36.23256,0.3,68900.0,0.33,276.0,2700.0,42.006604083173414,9.457658897443341,25535.679023097022,28.904865755387835,13.088922330888197,13.10173832778558,3.6312634334448557,3881,108,1282,1942,90.73741029280666,51.74035461528067,0.0011375288469482347,False
0.4700000000000001,0.8111034883052339,2.0,3597.0,36.23256,0.3,68900.0,0.33,276.0,2700.0,24.208452438364592,5.47153994029991,14773.157838809757,18.45990238830299,6.368842964918871,5.748550050061603,0.897303024618961,2358,78,756,1200,75.96884065922522,43.811477184815736,0.0007486361247084928,False
0.4800000000000001,1.1738174712776546,2.0,3598.0,36.23256,0.3,68900.0,0.33,276.0,2700.0,46.833167848644436,11.008336940510803,29722.50973937917,32.065167158283,15.431974773376702,14.768000690361433,4.423637832865898,4633,116,1480,2357,96.74363730784346,55.51310501706994,0.001205608629159181,False
0.49,1.1703564023038904,2.0,3599.0,36.23256,0.3,68900.0,0.33,276.0,2700.0,46.28611183066604,11.093693909111726,29952.97355460166,31.919718751694173,15.321246808504183,14.366393078971864,4.227552899392457,4958,116,1490,2599,95.0184422483431,54.57654886896871,0.0011844550634959735,False
0.5,1.0394248568994986,2.0,3600.0,36.23256,0.3,68900.0,0.33,276.0,2700.0,37.07372031137189,9.006630690043755,24317.90286311814,26.63855547126899,11.492385151859853,10.435164840102903,2.4857544618160983,3787,100,1146,1980,87.74300718011378,50.30903695232989,0.0009851413335060812,False
0.01,0.5222607582303096,2.0,3601.0,39.25194,0.05,68900.0,0.33,276.0,2700.0,19.725292472559616,0.09862436796769715,266.2857935127823,9.990478993273468,2.3104711693728555,9.734813479286148,2.211846801405158,64010,410,21214,32183,2221.412617904425,1263.1554869486718,0.016657152297244567,True
0.02,0.3408719662840258,2.0,3602.0,39.25194,0.08,68900.0,0.33,276.0,2700.0,11.069671247404997,0.11067995731323117,298.8358847457242,5.7436565249306275,0.8959726751977619,5.32601472247437,0.7852927178845307,14153,184,4662,7154,660.8988787260574,377.18124568543175,0.00470332165374959,True
0.03,0.5372672534262548,2.0,3603.0,39.25194,0.1,68900.0,0.33,276.0,2700.0,19.986946606326438,0.2997476504271319,809.3186561532561,10.378858978367541,2.463300277811048,9.608087627958897,2.1635526273839165,15702,206,5160,7956,755.6965418026356,431.0889769754367,0.005812727486502295,True
0.04,0.7066008284681685,2.0,3604.0,39.25194,0.1,68900.0,0.33,276.0,2700.0,29.11430844978472,0.5821521277091418,1571.810744814683,15.153604856165826,4.614882743418944,13.960703593618893,4.032730615709802,23327,260,7668,11819,787.578278776978,448.6382382536023,0.006883654894104513,True
0.05,0.49590918796548356,2.0,3605.0,39.25194,0.1,68900.0,0.33,276.0,2700.0,17.424269402062926,0.43534493566377436,1175.4313262921908,9.322174935474504,2.056050115513504,8.102094466588422,1.6207051798497296,14118,192,4646,7143,430.29633789176114,246.08756637268974,0.003197271135872863,True
0.06000000000000001,0.48184025886306475,2.0,3606.0,39.25194,0.1,68900.0,0.33,276.0,2700.0,16.509694656815412,0.49483845036234464,1336.0638159783305,8.972517975920153,1.9273625790783095,7.537176680895259,1.432524128715965,13382,186,4394,6785,338.29352393220523,193.5205990924371,0.0026038033814906503,True
0.06999999999999999,0.559383167217645,2.0,3607.0,39.25194,0.2,68900.0,0.33,276.0,2700.0,20.120917584484914,0.7035137379368522,1899.487092429501,10.96155328936822,2.6992589813234713,9.159364295116694,1.9957452433866192,4363,106,1434,2206,307.424033524666,177.46154399582176,0.0027487727160231124,True
0.08,0.38691746536029736,2.0,3608.0,39.25194,0.08,68900.0,0.33,276.0,2700.0,11.783968101112324,0.4702863937520672,1269.7732631305814,6.743398350515457,1.1832545465036641,5.040569750596867,0.712968152751597,15329,192,5050,7748,188.9891689934923,108.80295911295445,0.0015132200998052745,False
0.09,0.780259522873423,2.0,3609.0,39.25194,0.3,68900.0,0.33,276.0,2700.0,32.11690605453903,1.44373395842461,3898.081687746447,17.455498634510466,5.81501772781027,14.661407420028564,4.37128376938566,3144,96,1034,1587,338.1403115690073,194.81428805362341,0.003602838771913059,True
0.09999999999999999,0.6997788141041985,2.0,3610.0,39.25194,0.3,68900.0,0.33,276.0,2700.0,27.004912332316337,1.3481512215134226,3640.008298086241,14.947310836415342,4.512208968768727,12.057601495900995,3.1640577472553044,2680,86,882,1351,275.34341194946813,158.85209004374843,0.0026816389720676903,False
0.11,0.6946367410961068,2.0,3611.0,39.25194,0.3,68900.0,0.33,276.0,2700.0,26.434539354491854,1.4511120246157652,3918.0024664625657,14.792590419224883,4.435746881770047,11.64194893526697,2.984634857154282,2708,86,886,1373,250.30700162003015,144.50229327748065,0.0024256798769697516,False
0.12,0.7975467855762165,2.0,3612.0,39.25194,0.3,68900.0,0.33,276.0,2700.0,32.29863984175477,1.9342992757683501,5222.608044574546,18.015496508096536,6.121605113239808,14.283143333658234,4.187305837471458,3156,96,1034,1599,257.90186109482846,148.89125894379367,0.002783578247526015,False
0.13,0.7742403472309408,2.0,3613.0,39.25194,0.3,68900.0,0.33,276.0,2700.0,30.573658442235402,1.9826864127053452,5353.253314304432,17.262278328585985,5.710531985822566,13.311380113649417,3.727845573117221,3106,94,1018,1573,236.58783610692393,135.92877263367248,0.0024248186257881227,False
0.14,0.6935528263803737,2.0,3614.0,39.25194,0.3,68900.0,0.33,276.0,2700.0,25.566807638012445,1.7839295144999032,4816.609689149739,14.760061189961132,4.419730607453112,10.806746448051314,2.635801092953209,2491,82,820,1255,199.27454837693793,115.05004817032935,0.001929568880314844,False
0.15000000000000002,0.5296441192095532,2.0,3615.0,39.25194,0.2,68900.0,0.33,276.0,2700.0,16.762794328198225,1.2501409911442891,3375.3806760895804,10.180858935119971,2.3849364610655917,6.581935393078254,1.1347954699213025,3467,94,1142,1748,143.0673912789354,82.36050434969596,0.0012634210624580815,False
0.16,0.6461212013042454,2.0,3616.0,39.25194,0.3,68900.0,0.33,276.0,2700.0,22.443900227586013,1.7869333758674804,4824.720114842197,13.365513975459404,3.7529332316367188,9.07838625212661,1.9659998557692384,2309,78,756,1169,164.05855912520897,94.71018109828515,0.0015456835816488512,False
0.17,0.8179578604174844,2.0,3617.0,39.25194,0.3,68900.0,0.33,276.0,2700.0,32.10481712346667,2.7186196923566115,7340.273169362851,18.686355484135216,6.496149427468063,13.41846163933145,3.777529735111451,3260,96,1066,1655,190.8524066130393,110.18478564507662,0.002029770581361691,False
0.18000000000000002,0.5460870475965511,2.0,3618.0,39.25194,0.3,68900.0,0.33,276.0,2700.0,16.89429004272304,1.5082715916079157,4072.333297341372,10.609762973705127,2.5558565036542245,6.284527069017912,1.0475849120463088,1715,64,564,863,126.38046585573456,72.95729143892044,0.001117572801550886,False
0.19,0.714701010768028,2.0,3619.0,39.25194,0.3,68900.0,0.33,276.0,2700.0,25.453318227890247,2.403699775642259,6489.989394234099,15.400068910876008,4.738626794018101,10.053249317014238,2.334927018375842,2380,80,780,1204,153.6380960484657,88.6944435595632,0.001514905550762041,False
0.2,0.6885717279410722,2.0,3620.0,39.25194,0.3,68900.0,0.33,276.0,2700.0,23.75014909406998,2.358259748587489,6367.301321186221,14.61095370175881,4.346580908076021,9.13919539231117,1.9883211594885317,2432,80,798,1229,141.20901801434894,81.52315730527341,0.001373382169794862,False
0.21000000000000002,0.8759489595981622,2.0,3621.0,39.25194,0.3,68900.0,0.33,276.0,2700.0,34.59110301359501,3.612669623384213,9754.207983137376,20.649506795028895,7.636305919349592,13.941596218566115,4.023636295965379,3260,98,1070,1649,167.0641654854387,96.32730861660657,0.001835502701867495,False
0.22,0.7384858424661314,2.0,3622.0,39.25194,0.3,68900.0,0.33,276.0,2700.0,26.02697161717571,2.8406657588390476,7669.797548865428,16.133299501074944,5.113606543134627,9.893672116100767,2.2729407842955793,2515,82,828,1267,137.11699934700218,79.1357209583388,0.001380975304399532,False
0.23,0.5584471116660932,2.0,3623.0,39.25194,0.3,68900.0,0.33,276.0,2700.0,16.419658474166805,1.862778219318363,5029.501192159581,10.936641630939253,2.689010019579176,5.483016843227553,0.8262318002608131,1591,62,526,796,102.42316473282258,58.979757406326705,0.0009228935360304241,False
0.24000000000000005,0.8313286170973493,2.0,3624.0,39.25194,0.3,68900.0,0.33,276.0,2700.0,30.956425095456535,3.6858180935593015,9951.708852610114,19.13149358890214,6.748971050111967,11.824931506554396,3.0631529565526656,3141,94,1034,1584,141.08245374876557,81.35388969439799,0.0015051394964512705,False
0.25,0.8269319402168549,2.0,3625.0,39.25194,0.3,68900.0,0.33,276.0,2700.0,30.417286837635984,3.769435931229603,10177.477014319928,18.98462397231819,6.665179101689181,11.432662865317795,2.895743170459578,3163,94,1036,1603,135.71031149710396,78.27619843627318,0.0014377713863991794,False
0.26,0.7958209494638966,2.0,3626.0,39.25194,0.3,68900.0,0.33,276.0,2700.0,28.30043388746881,3.642245317051236,9834.062356038337,17.959252855180846,6.090561863215296,10.341181032287963,2.44831654616406,2726,88,900,1370,126.54463371013834,72.99959045274258,0.0013136786878864177,False
0.27,0.8431747597146941,2.0,3627.0,39.25194,0.3,68900.0,0.33,276.0,2700.0,30.86077569837728,4.124980740479944,11137.447999295848,19.529628234510255,6.977960149860615,11.331147463867026,2.852979409380671,2855,90,946,1430,128.58845509378236,74.10079181123744,0.001378761404822059,False
0.28,0.6841727046595201,2.0,3628.0,39.25194,0.2,68900.0,0.33,276.0,2700.0,21.61155966508629,2.979642191824345,8045.033917925732,14.479788966344955,4.2825956592285905,7.1317706987413345,1.3029534674042456,4508,110,1500,2252,103.8466705789053,59.860577705007756,0.0010111020449314946,False
0.29000000000000004,0.6511907509229684,2.0,3629.0,39.25194,0.2,68900.0,0.33,276.0,2700.0,19.69011611007443,2.803986633808526,7570.763911283021,13.511866161640345,3.8210610648729872,6.178249948434086,1.017074431064461,4086,104,1362,2037,96.61104673454722,55.56727120688429,0.0009220281753117323,False
0.3,0.651087470139092,2.0,3630.0,39.25194,0.2,68900.0,0.33,276.0,2700.0,19.469734532145644,2.8639115120572294,7732.561082554519,13.508878116220535,3.819665703050323,5.960856415925109,0.9557541909930936,4135,104,1374,2064,92.33792811234967,53.22309414454507,0.0008964659256340421,False
0.31,0.652814254740911,2.0,3631.0,39.25194,0.3,68900.0,0.33,276.0,2700.0,19.343622560808875,2.9358673724299784,7926.841905560942,13.558871436507548,3.843035778833264,5.7847511243013265,0.9071684064032857,1950,70,644,978,88.88640882206387,51.031591508321966,0.0008724979653501286,False
0.32,0.9725529040337547,2.0,3632.0,39.25194,0.3,68900.0,0.33,276.0,2700.0,37.658776957301946,5.956775174453092,16083.29297102335,24.107476876424276,9.796268322075145,13.55130008087767,3.8394931476220524,3620,104,1198,1817,124.45962861851937,71.45048481654972,0.0014412136746282487,False
0.33,0.8116498114469173,2.0,3633.0,39.25194,0.1,68900.0,0.33,276.0,2700.0,27.445727261156254,4.453278721296075,12023.852547499404,18.47790837410204,6.378932954988668,8.967818887054214,1.925654233692593,38235,246,7104,23549,107.80842699144742,62.162962774670234,0.0011097309196785002,False
0.34,0.6517974213585436,2.0,3634.0,39.25194,0.08,68900.0,0.33,276.0,2700.0,18.669258074061357,3.091455767485968,8346.930572212113,13.529423327135305,3.8292636398416766,5.139834746926052,0.7378078723557087,48274,244,7898,30493,300.294109866211,162.5939902192687,0.0008248393446247601,True
0.3500000000000001,0.8812891226082583,2.0,3635.0,39.25194,0.2,68900.0,0.33,276.0,2700.0,31.05799727777177,5.34535233359495,14432.451300706365,20.83453530285382,7.747071373960112,10.22346197491795,2.401719040365162,6769,134,2012,3575,110.8595705393764,63.803208678380095,0.0011661810147312807,False
0.36000000000000004,0.6862063568530842,2.0,3636.0,39.25194,0.3,68900.0,0.33,276.0,2700.0,19.97679034354874,3.4981061639415167,9444.886642642095,14.540365489880768,4.3121040919970826,5.436424853667971,0.8139979280555658,2026,70,674,1009,81.70550606281981,46.953089869347444,0.000819179826693236,False
0.37,0.8368098501691277,2.0,3637.0,39.25194,0.3,68900.0,0.33,276.0,2700.0,27.919734300811626,5.059063450528632,13659.471316427307,19.315272848568878,6.854338549061791,8.604461452242749,1.7952750985331587,2719,86,904,1357,96.14274445821074,55.21180724751089,0.0010321272319955231,False
0.38,0.7923237402853669,2.0,3638.0,39.25194,0.3,68900.0,0.33,276.0,2700.0,25.163343568127058,4.666111629885491,12598.501400690826,17.845511073887845,6.027953578273423,7.317832494239212,1.3618419483879318,2494,82,830,1243,88.30878907084548,50.79571536601498,0.0009381291583025496,False
0.39,0.7533522686249119,2.0,3639.0,39.25194,0.2,68900.0,0.33,276.0,2700.0,22.8239100052116,4.3264250279373995,11681.347575430978,16.598817273360297,5.356904460234018,6.225092731851305,1.0304794322966186,5987,110,1508,3353,92.21048581753645,53.18277783696176,0.000874703823242096,False
0.4,0.8969867633822486,2.0,3640.0,39.25194,0.3,68900.0,0.33,276.0,2700.0,30.73174575561339,6.012307864569513,16233.231234337685,21.382584593464127,8.07841786385089,9.349161162149262,2.0661099992813767,2867,90,950,1436,94.94916607835117,54.3358422135346,0.0010526656930982127,False
0.4100000000000001,0.7309760303293181,2.0,3641.0,39.25194,0.3,68900.0,0.33,276.0,2700.0,21.228415489994738,4.207477370596882,11360.188900611582,15.90025371080993,4.993324446832063,5.328161779184809,0.7858470762351812,2165,72,724,1073,76.78584841728122,43.72146313154559,0.0007924175133513914,False
0.42000000000000004,0.782822825324736,2.0,3642.0,39.25194,0.2,68900.0,0.33,276.0,2700.0,23.75166730428428,4.832680589553592,13048.237591794697,17.538059127303452,5.859867228731497,6.213608176980827,1.0271866391779056,6522,114,1628,3660,88.01791291572924,50.776090031757214,0.0008652268219360805,False
0.43,0.8939864894321357,2.0,3643.0,39.25194,0.3,68900.0,0.33,276.0,2700.0,29.81331573417966,6.243343811442734,16857.02829089538,21.27735777256632,8.014422163518102,8.535957961613342,1.7710783520753681,2790,88,924,1396,87.71736520360449,50.23225822424062,0.0009869941747221054,False
0.44,0.7523005012061702,2.0,3644.0,39.25194,0.2,68900.0,0.33,276.0,2700.0,21.71580242510256,4.599067581120299,12417.482469024808,16.565700313311282,5.339463783142828,5.150102111791277,0.740396202022529,5706,106,1428,3202,82.1130370968134,47.29430102486718,0.0007941291345272505,False
0.45,1.096915667054466,2.0,3645.0,39.25194,0.3,68900.0,0.33,276.0,2700.0,42.29281390369062,9.325031374624814,25177.584711486998,28.904407277578798,13.088592142012336,13.388406626111824,3.7635607673875224,3868,108,1284,1932,101.33750705947875,57.6693505514962,0.0012582713809286728,False
0.46,1.0221923450836645,2.0,3646.0,39.25194,0.3,68900.0,0.33,276.0,2700.0,37.012009255471575,8.308902087071921,22434.035635094187,25.975561867881037,11.039059170264842,11.036447387590538,2.730157083192921,3466,100,1150,1729,95.36643304478442,54.48168916317408,0.0011174415313816451,False
0.4700000000000001,0.9276679565224413,2.0,3647.0,39.25194,0.2,68900.0,0.33,276.0,2700.0,30.855010360729,7.033481052055542,18990.398840549962,22.47163373428426,8.751107246261082,8.38337662644474,1.7176261942055397,8370,134,2092,4704,90.7173687758158,52.196991715123154,0.0009773996945924878,False
0.4800000000000001,1.1656263952826653,2.0,3648.0,39.25194,0.2,68900.0,0.33,276.0,2700.0,46.24451074357728,10.867059235294683,29341.05993529564,31.72143119934138,15.17073548708844,14.523079544235898,4.303676251793757,12153,170,3010,6854,103.645434930714,59.15715859871489,0.00130958367095787,False
0.49,1.0286512076575776,2.0,3649.0,39.25194,0.3,68900.0,0.33,276.0,2700.0,36.63814380126761,8.729941741909036,23570.842703154398,26.223181939981448,11.207630862337044,10.414961861286162,2.4776891204280087,3688,100,1148,1902,95.40888365852858,54.90432587649384,0.0010684427314299491,False
0.5,0.9455116034072415,2.0,3650.0,39.25194,0.3,68900.0,0.33,276.0,2700.0,31.208531001500187,7.540333362575898,20358.900078954925,23.115886441841184,9.157819153476458,8.092644559659004,1.6174857909005604,3241,90,962,1708,88.53208714526703,50.744752447570484,0.000946637579499604,False
0.01,0.3916384962018985,2.0,3651.0,42.271319999999996,0.05,68900.0,0.33,276.0,2700.0,13.474990158177913,0.06737285639578719,181.9067122686254,6.848913358531268,1.215339187518746,6.626076799646645,1.1479663311229589,43372,326,14370,21811,1693.9771881555807,964.4308269903162,0.011747316215169223,True
0.02,0.5616852683731592,2.0,3652.0,42.271319999999996,0.1,68900.0,0.33,276.0,2700.0,21.517192921084238,0.21515517405002466,580.9189699350666,11.0229137975829,2.7245641893131816,10.494279123501338,2.5094090152631567,17178,218,5688,8640,1147.188420500412,653.1264931628666,0.010107069127749153,True
0.03,0.7046761958946162,2.0,3653.0,42.271319999999996,0.1,68900.0,0.33,276.0,2700.0,29.29357840693139,0.439347127436208,1186.2372440777617,15.095286563126479,4.5857737574806885,14.19829184380491,4.1464266300444805,23563,262,7782,11884,1109.1993575368856,631.5111042061491,0.009861048943139872,True
0.04,0.517392846886031,2.0,3654.0,42.271319999999996,0.1,68900.0,0.33,276.0,2700.0,18.728730042375147,0.37444055956094985,1010.9895108145646,9.8657093476708,2.2621423287275992,8.863020694704348,1.8877017691666493,15138,200,4986,7653,626.6809611895242,358.17755520212177,0.004470374673589648,True
0.05,0.41189754091457714,2.0,3655.0,42.271319999999996,0.1,68900.0,0.33,276.0,2700.0,13.501616415901065,0.3372786110096841,910.652249726147,7.308062367755276,1.3587251749561788,6.193554048145789,1.0214465639464947,11026,164,3612,5602,367.8824072391529,210.6251430162439,0.0027210120796245718,True
0.06000000000000001,0.5990803312972253,2.0,3656.0,42.271319999999996,0.2,68900.0,0.33,276.0,2700.0,22.46446732730105,0.6734816304769113,1818.4004022876607,12.03830124322669,3.155642461078128,10.426166084074362,2.4821608306012166,4592,112,1504,2330,414.8007877145523,239.44842609711446,0.0037350740243829415,True
0.06999999999999999,0.7260622991903074,2.0,3657.0,42.271319999999996,0.1,68900.0,0.33,276.0,2700.0,29.401647924363434,1.0283392998326002,2776.5161095480207,15.748537081530849,4.915567870898652,13.653110842832586,3.8872285710660517,23714,262,7818,11981,486.1701334637543,277.8788449221151,0.004408687486375168,True
0.08,0.41609098827061725,2.0,3658.0,42.271319999999996,0.2,68900.0,0.33,276.0,2700.0,13.047296166710709,0.5208195163760037,1406.21269421521,7.404390807396058,1.3895729694458505,5.642905359314651,0.8687534530698469,2980,84,968,1522,254.36080509014334,146.77258951785907,0.0018876616049980993,False
0.09,0.47431974517059483,2.0,3659.0,42.271319999999996,0.2,68900.0,0.33,276.0,2700.0,15.473228209027978,0.6947684553766137,1875.874829516857,8.787649974848984,1.860580676794067,6.685578234178994,1.165812221417453,3418,92,1112,1744,225.3245247503939,130.08666072469094,0.0018913944721081928,False
0.09999999999999999,0.717227464178052,2.0,3660.0,42.271319999999996,0.3,68900.0,0.33,276.0,2700.0,28.020994672789424,1.3989553385370774,3777.1794140501092,15.477278627006715,4.777631850233113,12.543716045782709,3.3786765116960353,2883,88,938,1470,302.1052280223912,174.2451793063035,0.003009660235574784,True
0.11,0.7031859275503958,2.0,3661.0,42.271319999999996,0.3,68900.0,0.33,276.0,2700.0,26.92611120739534,1.478148476525457,3991.0008866187336,15.050193892674573,4.563311336790287,11.875917314720768,3.08516286026483,2719,86,888,1381,271.2081817548134,156.42011333485155,0.0026596666513433675,False
0.12,0.7226132262610857,2.0,3662.0,42.271319999999996,0.3,68900.0,0.33,276.0,2700.0,27.77845268026756,1.6630880460791322,4490.337724413657,15.642405782016116,4.861433131206183,12.136046898251443,3.1983450851270505,2886,88,934,1479,254.3654742281284,146.67680735991553,0.0025466110119691174,False
0.13,0.7967746316956597,2.0,3663.0,42.271319999999996,0.3,68900.0,0.33,276.0,2700.0,31.956123224016306,2.0725466235211076,5595.87588350699,17.990323361591102,6.107704097436511,13.965799862425204,4.035157473915404,3022,94,994,1525,256.83201526859983,148.28201550390713,0.0027492322541757,False
0.14,0.5097592146489602,2.0,3664.0,42.271319999999996,0.2,68900.0,0.33,276.0,2700.0,16.035879731343933,1.116764561033109,3015.264314789394,9.671250626807279,2.187574276638811,6.364629104536654,1.0708097156057022,3467,92,1136,1757,157.61528795915075,90.89218858226394,0.001380244738101213,False
0.15000000000000002,0.6918915696059738,2.0,3665.0,42.271319999999996,0.3,68900.0,0.33,276.0,2700.0,25.209943436760906,1.8836771742864928,5085.928370573531,14.710262728338755,4.395251729428751,10.49968070842215,2.5115745551422584,2503,82,820,1267,201.05627547949086,116.04183506881978,0.0019407745383400086,False
0.16,0.7183659111420647,2.0,3666.0,42.271319999999996,0.3,68900.0,0.33,276.0,2700.0,26.44660422624067,2.1071496957598503,5689.304178551596,15.512122582586548,4.795271742004655,10.934481643654122,2.6881220462448043,2667,84,870,1356,194.0947052896784,112.05328788697656,0.0019267259377580177,False
0.17,0.8210018539701878,2.0,3667.0,42.271319999999996,0.3,68900.0,0.33,276.0,2700.0,32.29370217614494,2.7346749218342636,7383.622288952512,18.787300842166623,6.553184152521701,13.506401333978317,3.8185092306874373,3261,96,1068,1653,205.88169161487767,118.86238357665049,0.002198725940495769,False
0.18000000000000002,0.6619468641518382,2.0,3668.0,42.271319999999996,0.3,68900.0,0.33,276.0,2700.0,22.799670860141955,2.039755865175621,5507.340835974176,13.82452211336076,3.968075102348283,8.975148746781194,1.928319237172662,2278,78,744,1156,161.87213334664287,93.3914219251314,0.0015422330285785118,False
0.19,0.8786156847386868,2.0,3669.0,42.271319999999996,0.3,68900.0,0.33,276.0,2700.0,35.35408197268365,3.344272331397635,9029.535294773614,20.741815166299673,7.691495519067952,14.612266806383978,4.347223187670317,3366,100,1106,1701,197.06989621423045,113.754258282003,0.0021936164332754257,False
0.2,0.6566966250044584,2.0,3670.0,42.271319999999996,0.3,68900.0,0.33,276.0,2700.0,22.03155592320281,2.186400431501134,5903.281165053061,13.67154624495111,3.895894938208296,8.3600096782517,1.7094945067071623,2293,76,748,1165,145.37908005756026,83.93333709077532,0.001385402761755049,False
0.21000000000000002,0.7497823783356494,2.0,3671.0,42.271319999999996,0.3,68900.0,0.33,276.0,2700.0,26.931031432158953,2.8083621073334286,7582.577689800257,16.48652524025967,5.297849034040577,10.444506191899283,2.489486926707148,2613,84,858,1320,157.21588903470828,90.75521686979747,0.0015866334224223578,False
0.22,0.7104795481678233,2.0,3672.0,42.271319999999996,0.3,68900.0,0.33,276.0,2700.0,24.458058720143267,2.6680853401654723,7203.830418446775,15.271416808347498,4.6738876866504455,9.18664191179577,2.0058023464849732,2402,80,788,1214,143.68424788182756,82.94319232198302,0.001413616544649768,False
0.23,0.8298094459606189,2.0,3673.0,42.271319999999996,0.3,68900.0,0.33,276.0,2700.0,31.139139405296646,3.555518526398297,9599.900021275402,19.08069121911438,6.719945633339182,12.058448186182265,3.164427106940885,3156,94,1036,1596,158.169209973217,91.11786660444106,0.0016810239181671717,False
0.24000000000000005,0.839206934190116,2.0,3674.0,42.271319999999996,0.3,68900.0,0.33,276.0,2700.0,31.43768013928467,3.743568698818648,10107.63548681035,19.395881555393416,6.9007354650421595,12.041798583891254,3.1571667662235114,3115,94,1024,1573,153.61799142759583,88.52370033709927,0.0016400445041102863,False
0.25,0.6141274285458553,2.0,3675.0,42.271319999999996,0.3,68900.0,0.33,276.0,2700.0,18.69871096550624,2.3046139472133853,6222.45765747614,12.456790945736941,3.339925342843964,6.241920019769299,1.0353113956305786,1902,68,626,957,109.86541962810871,63.41185130875249,0.0010437304930670064,False
0.26,0.7089114357137338,2.0,3676.0,42.271319999999996,0.3,68900.0,0.33,276.0,2700.0,23.397322584604716,3.004840847678952,8113.070288733171,15.223741542227133,4.649977775926833,8.173581042377583,1.6451369282478807,2307,78,758,1164,122.16436700520185,70.47727421992819,0.0012114782659930967,False
0.27,0.6985242647764215,2.0,3677.0,42.271319999999996,0.3,68900.0,0.33,276.0,2700.0,22.60209690751466,3.0100591037139313,8127.1595800276145,14.90950127226417,4.493480551123978,7.692595635250489,1.4834214474100471,2215,76,728,1117,115.60008683209024,66.69232076182936,0.0011498524446117424,False
0.28,0.7837732926798018,2.0,3678.0,42.271319999999996,0.3,68900.0,0.33,276.0,2700.0,27.088504424905448,3.7464144581990273,10115.319037137373,17.568714358946405,5.87655114800335,9.519790065959043,2.130136689804323,2689,86,884,1357,125.96091787509502,72.61243516149827,0.0012967113620146508,False
0.29000000000000004,0.7726686594171976,2.0,3679.0,42.271319999999996,0.3,68900.0,0.33,276.0,2700.0,26.20494431843735,3.7486367240210527,10121.319154856843,17.211975827504478,5.683440611381031,8.99296849093287,1.9348038873599784,2648,86,876,1328,121.30650530843226,69.92793908076926,0.0012339269714324143,False
0.3,0.6721594983219414,2.0,3680.0,42.271319999999996,0.3,68900.0,0.33,276.0,2700.0,20.541241739198814,3.024637593115205,8166.521501411054,14.124071394469693,4.110787252022419,6.41717034472912,1.086149658907214,2055,72,682,1026,101.61300010187831,58.50014706956645,0.0009967721269242083,False
0.31,0.7788918034698757,2.0,3681.0,42.271319999999996,0.3,68900.0,0.33,276.0,2700.0,26.066618246545357,3.97793170371912,10740.415600041624,17.411513812453993,5.791173588435137,8.655104434091363,1.8132418847160165,2586,84,856,1296,113.84057372324366,65.65655435496693,0.001178121532350432,False
0.32,0.9951515985961108,2.0,3682.0,42.271319999999996,0.3,68900.0,0.33,276.0,2700.0,39.16258611795766,6.197384640158005,16732.938528426614,24.950256199558936,10.350564513145905,14.212329918398723,4.1531798729878995,3763,106,1242,1894,137.0070201587222,78.73161274692134,0.0016023345399386996,False
0.33,0.8022160240333434,2.0,3683.0,42.271319999999996,0.3,68900.0,0.33,276.0,2700.0,26.904229665053183,4.363931617939074,11782.6153684355,18.168038581301616,6.206079676812217,8.736191083751567,1.8421480588731427,2565,84,846,1290,109.65012766184772,63.162918071748415,0.0011603478374178366,False
0.34,0.9126349300904971,2.0,3684.0,42.271319999999996,0.3,68900.0,0.33,276.0,2700.0,33.25166140060388,5.57046433299816,15040.253699095032,21.93507046405618,8.417330782652893,11.316590936547698,2.8468664496547333,3064,94,1018,1531,119.98441016439571,68.98215054896032,0.001342957407033833,False
0.3500000000000001,0.8984430083209467,2.0,3685.0,42.271319999999996,0.3,68900.0,0.33,276.0,2700.0,32.1055135277029,5.528667677332901,14927.402728798834,21.433740157689087,8.109593385489271,10.67177337001381,2.5809257081563697,2966,92,982,1487,115.42107881346233,66.29291774805559,0.001282784086735176,False
0.36000000000000004,0.798225295670042,2.0,3686.0,42.271319999999996,0.2,68900.0,0.33,276.0,2700.0,25.95779412971177,4.574686845450859,12351.65448271732,18.037629123322684,6.13383631741302,7.920165006389084,1.5591494719621606,6550,122,1810,3549,109.81517122724725,63.293845354927626,0.0010814897991626227,False
0.37,0.7921718353164915,2.0,3687.0,42.271319999999996,0.3,68900.0,0.33,276.0,2700.0,25.38543769475982,4.5902185784090435,12393.590161704416,17.8405775454358,6.025243131189965,7.54486014932402,1.4350245527809218,2460,82,816,1230,98.35552767197112,56.375960585537456,0.0010340578227566388,False
0.38,0.701637685258925,2.0,3688.0,42.271319999999996,0.3,68900.0,0.33,276.0,2700.0,20.34522561498144,3.750669218787955,10126.80689072748,15.003406158048834,4.540046217258311,5.3418194569326065,0.789376998470356,1966,70,654,979,85.59415606471973,48.90618553844234,0.0008664354215839805,False
0.39,1.006707990569349,2.0,3689.0,42.271319999999996,0.3,68900.0,0.33,276.0,2700.0,37.915325109378955,7.269250973250033,19626.97762777509,25.386191966140686,10.64141514351532,12.529133143238269,3.372164170265288,3651,104,1216,1821,116.15615712542,66.4749040371727,0.001363245606186431,False
0.4,1.073422560070147,2.0,3690.0,42.271319999999996,0.3,68900.0,0.33,276.0,2700.0,42.12975094444298,8.291908902335434,22388.154036305674,27.96845023220687,12.420559235908527,14.161300712236113,4.128650333573093,3979,110,1322,1990,118.37469807384501,67.43129703482649,0.0014592513326068402,False
0.4100000000000001,0.9161102841339122,2.0,3691.0,42.271319999999996,0.3,68900.0,0.33,276.0,2700.0,31.63742440869316,6.341324198930062,17121.575337111168,22.058609085314902,8.493777500792625,9.578815323378258,2.152453301862563,3041,92,1010,1520,103.35213496579642,59.2020642480413,0.0011412151511366324,False
0.42000000000000004,0.8639804340034329,2.0,3692.0,42.271319999999996,0.2,68900.0,0.33,276.0,2700.0,28.293707256399486,5.786508979497784,15623.574244644016,20.23741887067034,7.391631401901727,8.056288385729147,1.6051224224039435,7517,126,1858,4244,100.41715993722421,57.849770383423035,0.0010551698258519052,False
0.43,0.9766657319391534,2.0,3693.0,42.271319999999996,0.3,68900.0,0.33,276.0,2700.0,34.88488367836956,7.333730919443457,19801.073482497333,24.25990228614797,9.895731529733748,10.624981392221592,2.5620006102902915,3331,98,1112,1657,102.92084102344438,58.72304269141803,0.001191826374725702,False
0.44,1.1054981590194575,2.0,3694.0,42.271319999999996,0.3,68900.0,0.33,276.0,2700.0,43.1781788305334,9.320790390315087,25166.134053850736,29.249790090037067,13.338144783798318,13.928388740496331,4.017354393483231,4041,110,1342,2020,111.0142261921156,63.1951021866068,0.0013956000622325209,False
0.45,1.0959925330713582,2.0,3695.0,42.271319999999996,0.3,68900.0,0.33,276.0,2700.0,42.229175999070385,9.31071284608525,25138.924684430178,28.867368125577375,13.061926599090375,13.36180787349301,3.751213753005125,3874,108,1286,1935,109.48497783526463,62.2878415957518,0.0013534315136387383,False
0.46,1.0090486959909053,2.0,3696.0,42.271319999999996,0.2,68900.0,0.33,276.0,2700.0,36.16263595118729,8.11354622708653,21906.574813133633,25.474897951505525,10.70094053111401,10.687737999681765,2.5873943040274803,9599,146,2384,5409,106.29911592214536,61.05745628252348,0.0012005805154484644,False
0.4700000000000001,1.037640053009348,2.0,3697.0,42.271319999999996,0.3,68900.0,0.33,276.0,2700.0,37.75179277559543,8.654224919548923,23366.407282782093,26.56954149891283,11.444902154537719,11.182251276682603,2.790677234988795,3456,100,1142,1729,100.75173342794156,57.49788445167037,0.0012065838861602157,False
0.4800000000000001,0.9782536852609995,2.0,3698.0,42.271319999999996,0.3,68900.0,0.33,276.0,2700.0,33.69979374849156,7.8563271564741095,21212.083322480095,24.318867141566955,9.934301930489262,9.380926606924604,2.0779747740151526,3476,96,1088,1788,100.81594347124724,57.801763466757265,0.0010977620309963905,False
0.49,0.862126677358583,2.0,3699.0,42.271319999999996,0.2,68900.0,0.33,276.0,2700.0,26.59036515517704,6.2682359736169255,16924.2371287657,20.173914224517578,7.3541750266173995,6.416450930659462,1.085939053000474,7013,120,1752,3935,89.7973561003489,51.77668491797785,0.000926051557824968,False
0.5,1.1058459809246493,2.0,3700.0,42.271319999999996,0.3,68900.0,0.33,276.0,2700.0,41.48958975245523,10.11059805031466,27298.614735849584,29.263826422371867,13.348320942497692,12.225763330083364,3.237722892183031,4464,108,1316,2362,105.35245044012649,60.36750099923175,0.0012545057028208759,False
0.01,0.6046481138888211,2.0,3701.0,45.2907,0.05,68900.0,0.33,276.0,2700.0,24.108606512469404,0.12054093816724516,325.4605330515619,12.192489113679784,3.223097985945423,11.91611739878962,3.102557047778178,77186,458,25600,38780,3113.7948837471463,1771.2887045984503,0.02446732432469885,True
0.02,0.4375025892680575,2.0,3702.0,45.2907,0.1,68900.0,0.33,276.0,2700.0,15.340046403623957,0.15338370887541908,414.1360139636315,7.90313002746238,1.5534316744420105,7.436916376161577,1.4000479655665914,12283,178,4058,6190,937.9900325270852,540.244334657119,0.007425575481414747,True
0.03,0.5605079838967002,2.0,3703.0,45.2907,0.1,68900.0,0.33,276.0,2700.0,21.194740873484985,0.3178645644345093,858.234323973175,10.991517660920014,2.7116055685235536,10.203223212564971,2.393741004089044,17081,216,5618,8648,919.5562604596728,524.0934550106418,0.007181136687114144,True
0.04,0.664269221458102,2.0,3704.0,45.2907,0.1,68900.0,0.33,276.0,2700.0,26.6344740688182,0.5325554400898113,1437.8996882424904,13.89240947918697,4.000259385411001,12.74206458963123,3.4677039453211895,21524,246,7076,10904,876.7518639422616,499.79004891879816,0.007137570506068574,True
0.05,0.5453845534966614,2.0,3705.0,45.2907,0.1,68900.0,0.33,276.0,2700.0,19.90034670949296,0.4972468683494912,1342.5665445436264,10.59129987816676,2.548409693597894,9.309046831326201,2.051162825248403,16111,208,5286,8176,549.8718777379631,314.32392945089794,0.004173714024389545,True
0.06000000000000001,0.5086718003822075,2.0,3706.0,45.2907,0.1,68900.0,0.33,276.0,2700.0,17.811535830317304,0.5338936855674024,1441.5129510319864,9.64366906836415,2.177072619713,8.167866761953153,1.6431789341455976,14380,194,4726,7285,424.4815391462021,243.22655984564207,0.0032240834765792856,True
0.06999999999999999,0.5601374203068448,2.0,3707.0,45.2907,0.2,68900.0,0.33,276.0,2700.0,20.159769214336627,0.704873544981661,1903.1585714504847,10.981642579963989,2.707534342060461,9.178126634372639,2.0026607970788,4388,106,1442,2219,356.4308511411243,205.04920755532189,0.0031772313749775863,True
0.08,0.575076561058954,2.0,3708.0,45.2907,0.2,68900.0,0.33,276.0,2700.0,20.683831020653734,0.8262809105337255,2230.958458441059,11.382487964767126,2.8745778061692637,9.301343055886608,2.0482968956355383,4546,108,1484,2314,321.9342100129519,184.64462319242648,0.0029093813189723108,True
0.09,0.6757768588196631,2.0,3709.0,45.2907,0.2,68900.0,0.33,276.0,2700.0,25.903846513820266,1.1641462790922672,3143.1949535491212,14.230801755016325,4.162072051910254,11.673044758803941,2.997925772817987,5402,124,1780,2726,339.8731781726133,194.77099036750607,0.0032407089558883725,True
0.09999999999999999,0.6512754439626551,2.0,3710.0,45.2907,0.3,68900.0,0.33,276.0,2700.0,24.26082620425503,1.2109469151103585,3269.556670797968,13.51431663986028,3.822205529658009,10.74650956439475,2.6112586145476504,2418,80,794,1221,297.0601922291981,171.0449972083051,0.002799640122604328,True
0.11,0.5126849741245627,2.0,3711.0,45.2907,0.2,68900.0,0.33,276.0,2700.0,16.84359898962113,0.9236103045478776,2493.7478222792697,9.74560816964231,2.215978753490384,7.097990819978818,1.2923684489425065,3775,98,1240,1909,215.77174403840368,124.52199630603458,0.0018580904291461643,False
0.12,0.5623617487524701,2.0,3712.0,45.2907,0.2,68900.0,0.33,276.0,2700.0,19.05888841728916,1.1399141903004146,3077.7683138111197,11.040970115582267,2.732027080944134,8.017918301706894,1.5921128906437194,4142,102,1346,2117,213.56758093374984,123.2889867693664,0.0019347599753141468,False
0.13,0.632746254233976,2.0,3713.0,45.2907,0.3,68900.0,0.33,276.0,2700.0,22.47638800421845,1.4563638342342389,3932.182352432445,12.982494371972951,3.5767366342300666,9.493893632245499,2.1203727999958275,2375,78,770,1214,225.6577418502745,130.18704744125574,0.0021054548473797446,False
0.14,0.6303534367948127,2.0,3714.0,45.2907,0.3,68900.0,0.33,276.0,2700.0,22.097947920220008,1.5411093342544369,4160.99520248698,12.91444515776624,3.545753338659959,9.183502762453768,2.004644004405522,2333,78,766,1178,215.57021501635768,124.39340459992816,0.0019538797462258853,False
0.15000000000000002,0.7605020211411319,2.0,3715.0,45.2907,0.3,68900.0,0.33,276.0,2700.0,29.18011893502622,2.181440336656387,5889.888908972245,16.824678131772806,5.476388554944761,12.355440803253412,3.2949482182883743,2825,88,920,1439,231.39466135394673,133.55406520300133,0.00237533207737881,False
0.16,0.676459695013051,2.0,3716.0,45.2907,0.3,68900.0,0.33,276.0,2700.0,24.092845479128037,1.9188489959908435,5180.892289175277,14.250985762162617,4.171796248927993,9.84185971696542,2.25294725293715,2441,80,798,1238,196.7893407765398,113.45468814778644,0.001901992002396786,False
0.17,0.49034994059706966,2.0,3717.0,45.2907,0.2,68900.0,0.33,276.0,2700.0,14.498664100078312,1.2220966853685995,3299.6610504952187,9.183415741208398,2.004611897216014,5.315248358869914,0.7825152118474146,3186,88,1052,1602,138.33167555054882,79.8064408424953,0.0011839941800967752,False
0.18000000000000002,0.8395758747863618,2.0,3718.0,45.2907,0.3,68900.0,0.33,276.0,2700.0,33.16365401447079,2.9725143490652144,8025.788742476079,19.408301046834342,6.907893684070021,13.755352967636444,3.9353793350048063,3181,96,1042,1612,213.25247095883577,122.92472121496868,0.0023047355485663642,False
0.19,0.6920268471880016,2.0,3719.0,45.2907,0.3,68900.0,0.33,276.0,2700.0,24.190085076917974,2.2836926262998913,6165.970091009706,14.714315266235602,4.397241972305213,9.475769810682372,2.113549346005322,2438,80,800,1232,171.15758998028974,98.81782519087025,0.001672925169587976,False
0.2,0.8795245027274672,2.0,3720.0,45.2907,0.3,68900.0,0.33,276.0,2700.0,35.11503760893547,3.4947486000744035,9435.821220200889,20.773314626753127,7.710360365877061,14.34172298218234,4.215611765802658,3368,100,1108,1700,201.5038838323612,116.20044089616603,0.0022314584124107054,False
0.21000000000000002,0.5641538219789534,2.0,3721.0,45.2907,0.3,68900.0,0.33,276.0,2700.0,17.115423272117667,1.7777232505287666,4799.85277642767,11.08885894072342,2.7518562059696876,6.026564331394248,0.974132955440921,1680,64,550,849,130.72217770865245,75.37346183736638,0.0011688400474035136,False
0.22,0.6578581385054825,2.0,3722.0,45.2907,0.2,68900.0,0.33,276.0,2700.0,21.616838578128306,2.3555511245438328,6359.988036268349,13.705329507405283,3.9117942403274615,7.911509070723023,1.5562431157836287,4530,110,1494,2283,141.77383935131724,81.70648580264303,0.0013668219797689978,False
0.23,0.5821165626074913,2.0,3723.0,45.2907,0.3,68900.0,0.33,276.0,2700.0,17.556211126069677,1.9934817742871949,5382.400790575426,11.573328948227328,2.9553815687134186,5.982882177842349,0.9618997944262238,1877,68,620,941,124.02574002952477,71.55882243269915,0.0011237471569174548,False
0.24000000000000005,0.8676968855699918,2.0,3724.0,45.2907,0.3,68900.0,0.33,276.0,2700.0,33.20405870141859,3.955534126274748,10679.94214094182,20.364994505538302,7.467079745791961,12.839064195880287,3.5115456195172126,3289,98,1082,1660,169.56041067043947,97.7637617667979,0.0018446125154700534,False
0.25,0.8693729200502449,2.0,3725.0,45.2907,0.3,68900.0,0.33,276.0,2700.0,33.026657887606405,4.095607312475905,11058.139743684944,20.42264176775913,7.501260478312302,12.604016119847273,3.405653165836397,3192,96,1052,1608,163.12598686557666,94.05945306454875,0.0017791303797880201,False
0.26,0.8952387741625119,2.0,3726.0,45.2907,0.2,68900.0,0.33,276.0,2700.0,34.37478293978161,4.4319106938519095,11966.158873400156,21.321250901354567,8.04109495299406,13.053532038427043,3.6091842591421504,6898,144,2298,3445,160.28631870826487,92.37210854034727,0.001787823078384958,False
0.27,0.7888093123970801,2.0,3727.0,45.2907,0.3,68900.0,0.33,276.0,2700.0,27.633472338697665,3.68929478692378,9961.095924694206,17.731518937576602,5.9654372159580475,9.901953401121062,2.2761424290342673,2658,86,874,1341,140.11588752915196,80.80562355730817,0.0014455456407257781,False
0.28,0.8144627511062477,2.0,3728.0,45.2907,0.3,68900.0,0.33,276.0,2700.0,28.87658357108522,3.996745538664153,10791.212954393213,18.57073736242772,6.431040710830909,10.3058462086575,2.434295172166756,2938,90,974,1471,137.77941345266822,79.40630311092335,0.0014683907453905114,False
0.29000000000000004,0.9475343878135585,2.0,3729.0,45.2907,0.3,68900.0,0.33,276.0,2700.0,36.88533457837861,5.297293311712628,14302.691941624096,23.189424947200962,9.204651967045818,13.69590963117765,3.90735865533319,3364,100,1112,1690,153.5759157929398,88.33346165765214,0.0017563163109191849,False
0.3,0.7677716671503456,2.0,3730.0,45.2907,0.3,68900.0,0.33,276.0,2700.0,25.68348755072004,3.7959744648433924,10249.13105507716,17.05564368485243,5.599536723453269,8.62784386586761,1.803562258609877,2611,84,862,1312,124.83226497555701,71.96771336424324,0.0012742845876608608,False
0.31,0.8654454632100381,2.0,3731.0,45.2907,0.3,68900.0,0.33,276.0,2700.0,31.14457384311975,4.765014821188167,12865.540017208052,20.287667874301643,7.421316613156893,10.856905968818108,2.656301791968726,2975,92,986,1490,134.29238297277695,77.30922881612415,0.0014507718250523706,False
0.32,0.6426132914781795,2.0,3732.0,45.2907,0.3,68900.0,0.33,276.0,2700.0,18.626600372987653,2.9116269209628056,7861.392686599575,13.26462267971307,3.706225263023017,5.361977693274582,0.7945983420602114,1952,68,644,980,101.3698265771628,58.421424925941636,0.0009630698132060313,False
0.33,0.8584299914392883,2.0,3733.0,45.2907,0.3,68900.0,0.33,276.0,2700.0,30.19699221715128,4.907237439035261,13249.541085395203,20.047533688232445,7.2798321023436054,10.149458528918835,2.3725946633083446,2893,90,956,1453,126.70398450458313,72.89510154102533,0.0013573423123345433,False
0.34,0.9832651775412962,2.0,3734.0,45.2907,0.3,68900.0,0.33,276.0,2700.0,37.78872078574199,6.341764428471675,17122.763956873525,24.505372551082473,10.056642817036053,13.283348234659513,3.7148783885643777,3646,104,1206,1831,137.30565375160913,78.68308662028642,0.0015972508192401104,False
0.3500000000000001,0.7573158308986682,2.0,3735.0,45.2907,0.2,68900.0,0.33,276.0,2700.0,23.927187916850947,4.097460695433807,11063.14387767128,16.72386760692674,5.422942598148467,7.203320309924209,1.3254819027146594,5400,114,1590,2863,113.91039363962841,65.7031645372875,0.001106025069577955,False
0.36000000000000004,0.9487485265165436,2.0,3736.0,45.2907,0.3,68900.0,0.33,276.0,2700.0,34.987862682570785,6.200099184965488,16740.267799406818,23.23361445351183,9.23283396772057,11.754248229058955,3.0327347827550817,3309,98,1092,1665,127.01652361536526,72.83845943235748,0.0014456947131645738,False
0.37,0.8241688611497671,2.0,3737.0,45.2907,0.3,68900.0,0.33,276.0,2700.0,27.191884165070636,4.924411175416512,13295.910173624581,18.892572780107198,6.6128503011375805,8.299311384963438,1.688439125721069,2771,86,918,1388,110.94515335277086,63.82441105089441,0.001166775517935648,False
0.38,0.9209929262885477,2.0,3738.0,45.2907,0.2,68900.0,0.33,276.0,2700.0,32.70884483483479,6.0997568705600935,16469.343550512254,22.232685484868032,8.60190652797434,10.47615934996676,2.502149657414246,8275,138,2164,4583,124.21021140441088,71.42874703290525,0.0013371794832636554,False
0.39,0.7074580116276518,2.0,3739.0,45.2907,0.2,68900.0,0.33,276.0,2700.0,20.435337024739226,3.8606532967452862,10423.763901212273,15.179608328549808,4.627883301857316,5.2557286961894185,0.7672300051120295,5542,104,1404,3102,100.29958321597454,57.88615279591784,0.0009356627825084206,False
0.4,0.8111995860342508,2.0,3740.0,45.2907,0.3,68900.0,0.33,276.0,2700.0,25.755141501599375,5.016987013766712,13545.864937170121,18.46306908065124,6.370617071770373,7.292072420948134,1.3536300580036613,2488,82,818,1251,100.22591281069435,57.56429319810085,0.0010651875107106144,False
0.4100000000000001,0.8756930647843882,2.0,3741.0,45.2907,0.3,68900.0,0.33,276.0,2700.0,29.217999249021485,5.845342041197364,15782.423511232884,20.640658424884396,7.631022949814863,8.577340824137089,1.7856809086174987,2795,88,926,1400,104.2287676146688,59.813832003334056,0.0011551735579569203,False
0.42000000000000004,1.0187808108863743,2.0,3742.0,45.2907,0.3,68900.0,0.33,276.0,2700.0,37.87522226247805,7.798627130774288,21056.29325309058,25.845193514714097,10.950665113864993,12.03002874776395,3.152037983090705,3662,104,1222,1823,118.11693993547357,67.369313474056,0.0013913379814442502,False
0.43,1.1285235094483355,2.0,3743.0,45.2907,0.3,68900.0,0.33,276.0,2700.0,45.095016891234984,9.528909560209545,25728.05581256577,30.18553837110758,14.022378849777006,14.909478520127404,4.493469289567461,4144,112,1376,2074,123.59882384441626,70.5419653934054,0.00157294672142497,False
0.44,0.9788337114011987,2.0,3744.0,45.2907,0.2,68900.0,0.33,276.0,2700.0,34.76014721481926,7.468823434857976,20165.823274116534,24.34042082950899,9.948413759573915,10.419726385310273,2.4795903247159394,9084,142,2228,5140,114.01933408805937,65.56388239858092,0.0012805808258920803,False
0.45,0.8500265441074334,2.0,3745.0,45.2907,0.2,68900.0,0.33,276.0,2700.0,26.79928638674382,5.838987683311302,15765.266744940516,19.76151842028216,7.112566708866934,7.037767966461658,1.273579025555632,7160,122,1782,4025,102.2752565826518,58.84737831243692,0.0010443311787109383,False
0.46,0.9728029562805207,2.0,3746.0,45.2907,0.2,68900.0,0.33,276.0,2700.0,33.865343091771514,7.585168869420906,20479.955947436447,24.116731918537187,9.802297607921247,9.748611173234327,2.2171287385003406,9022,142,2244,5076,110.60564274794643,63.45389112559172,0.0012232880793857238,False
0.4700000000000001,0.9739860392399388,2.0,3747.0,45.2907,0.3,68900.0,0.33,276.0,2700.0,33.68569971860895,7.698693051157334,20786.471238124803,24.16054200420431,9.83085561450562,9.525157714404642,2.1321625633482855,3367,96,1098,1694,102.85996602164933,59.19232086888107,0.0011879772400171479,False
0.4800000000000001,0.9400491241759652,2.0,3748.0,45.2907,0.3,68900.0,0.33,276.0,2700.0,31.35857111808685,7.294433725176712,19694.971057977124,22.917811342962843,9.032090435804841,8.440759775124008,1.737656710628129,3076,90,980,1568,97.47149563763587,55.747570892710485,0.0011161586642048813,False
0.49,0.9100248411200264,2.0,3749.0,45.2907,0.3,68900.0,0.33,276.0,2700.0,29.33764689300902,6.941319999385751,18741.563998341528,21.842489071444597,8.360199157245265,7.495157821564423,1.4188791578595144,3149,88,944,1647,101.77412432619909,58.37694940746187,0.0010557181306538267,False
0.5,0.9567408044211042,2.0,3750.0,45.2907,0.2,68900.0,0.33,276.0,2700.0,31.88649612528503,7.709824643521906,20816.526537509148,23.525424154555136,9.419688514045522,8.361071970729895,1.7098638705236153,8696,136,2134,4919,103.3467679598237,59.44250098575487,0.0011173699857831337,False
0.01,0.4017616132273007,2.0,3751.0,48.31008,0.05,68900.0,0.33,276.0,2700.0,13.928725811250098,0.06964153466114843,188.03214358510075,7.077053293470498,1.285824109865665,6.8516725177796,1.2161825752045166,45260,334,14990,22769,2023.026220936644,1152.6396139300834,0.013868623988466463,True
0.02,0.45124345848880687,2.0,3752.0,48.31008,0.1,68900.0,0.33,276.0,2700.0,15.98540983501151,0.15983734318929627,431.5608266110999,8.229265200259986,1.6642628071930405,7.756144634751523,1.5044254640037442,12818,184,4246,6443,1035.2106402736724,597.4623002844577,0.00824422168262231,True
0.03,0.5289167405423851,2.0,3753.0,48.31008,0.1,68900.0,0.33,276.0,2700.0,19.559610066342334,0.2933376023273693,792.0115262838971,10.162042639183927,2.3775379655548776,9.397567427158407,2.0842003632275086,15879,206,5222,8040,940.1146504226706,536.243514046984,0.006975040477670105,True
0.04,0.5840119688212693,2.0,3754.0,48.31008,0.1,68900.0,0.33,276.0,2700.0,22.180183729143742,0.44346963329632166,1197.3680099000685,11.624922614104753,2.977366609531923,10.55526111503899,2.5338969762356016,17826,222,5860,9030,793.4417086280889,452.8212012193742,0.006130483379139366,True
0.05,0.5158200264851002,2.0,3755.0,48.31008,0.1,68900.0,0.33,276.0,2700.0,18.40594607133451,0.45988685239556193,1241.6945014680173,9.8255236189143,2.2466569504117784,8.580422452420212,1.7867700980162164,15172,200,4994,7675,570.8995884142842,326.3588199128803,0.004140343110840875,True
0.06000000000000001,0.455837786983642,2.0,3756.0,48.31008,0.2,68900.0,0.33,276.0,2700.0,15.282606898503113,0.4580258176129772,1236.6697075550385,8.33936869485243,1.7023234774985114,6.943238203650683,1.2442976598855342,3455,92,1130,1754,371.75246476468584,214.4969889787371,0.0029939125803797283,True
0.06999999999999999,0.39163871727099014,2.0,3757.0,48.31008,0.05,68900.0,0.33,276.0,2700.0,12.190759080542511,0.42595819029886606,1150.0871138069383,6.848918312539811,1.2153407016023483,5.3418407680027,0.7893825113034822,39850,310,13168,20092,273.8213605900511,157.55708180696035,0.002139900163876882,False
0.08,0.5175523368807564,2.0,3758.0,48.31008,0.2,68900.0,0.33,276.0,2700.0,17.77409001824565,0.7098912704374009,1916.7064301809824,9.869787805936943,2.263716135887568,7.904302212308709,1.5538248654501672,3929,100,1286,1994,310.4465993429348,178.52067058451635,0.0026980342885526433,True
0.09,0.6449806313225326,2.0,3759.0,48.31008,0.2,68900.0,0.33,276.0,2700.0,24.177254456477,1.0864496365118186,2933.41401858191,13.332676013601914,3.7377076577105175,10.844578442875088,2.651258021198699,5225,120,1718,2642,360.56764609329554,207.2009772875779,0.003246890583328593,True
0.09999999999999999,0.43126031451080965,2.0,3760.0,48.31008,0.2,68900.0,0.33,276.0,2700.0,13.29822955297542,0.6628170825463787,1789.6061228752226,7.756539148474668,1.50455620507332,5.541690404500751,0.8417391225269414,2989,84,978,1516,215.80260780472443,124.47649686722544,0.0017376806386280948,False
0.11,0.4866279462737546,2.0,3761.0,48.31008,0.2,68900.0,0.33,276.0,2700.0,15.606317170299056,0.8555598044851632,2310.0114721099408,9.090948610382263,1.9706034650171538,6.5153685599167925,1.1150436605319904,3366,90,1106,1701,219.86027860238053,126.87858375399325,0.0018540676582726805,False
0.12,0.7329730826122314,2.0,3762.0,48.31008,0.3,68900.0,0.33,276.0,2700.0,28.386572998381627,1.6995752651659657,4588.853215948107,15.962088236403533,5.025139811513201,12.424484761978094,3.325564546347235,2898,88,944,1476,294.95282362562784,170.19158840837375,0.0029689930034352556,True
0.13,0.5973018821323388,2.0,3763.0,48.31008,0.3,68900.0,0.33,276.0,2700.0,20.60563523636407,1.334764904323708,3603.8652416740115,11.989215062962849,3.134276614704633,8.61642017340122,1.7995117103809248,2203,74,722,1114,233.86606167127218,134.79378588807802,0.0020787189491843724,False
0.14,0.5760917045811573,2.0,3764.0,48.31008,0.3,68900.0,0.33,276.0,2700.0,19.27984147081465,1.3438418827958392,3628.373083548766,11.409929707858948,2.886146591556284,7.8699117629557005,1.542304708760445,2151,74,704,1089,212.89025510410423,122.9055003629611,0.0018490710330524983,False
0.15000000000000002,0.7560300481759623,2.0,3765.0,48.31008,0.3,68900.0,0.33,276.0,2700.0,28.914137439771434,2.1614917245122816,5836.027656183161,16.68325791369676,5.401465450195689,12.230879526074673,3.239973725683407,2837,88,922,1448,243.98156283483644,140.85829200676423,0.002509926959636866,False
0.16,0.7243678391091599,2.0,3766.0,48.31008,0.3,68900.0,0.33,276.0,2700.0,26.790942976163233,2.134696795753658,5763.681348534877,15.696359549745466,4.888926820039394,11.094583426417767,2.7542300242857363,2643,84,866,1338,222.00180391163087,127.88529038806334,0.0022261795307194103,False
0.17,0.6876835323829353,2.0,3767.0,48.31008,0.3,68900.0,0.33,276.0,2700.0,24.457574579424122,2.068604076112994,5585.231005505083,14.58443137921876,4.333615303869751,9.873143200205362,2.265011227756757,2458,80,808,1240,204.33295414849803,117.71650295508576,0.0019618433261224446,False
0.18000000000000002,0.8749661522343376,2.0,3768.0,48.31008,0.3,68900.0,0.33,276.0,2700.0,35.41801429501894,3.1754067743145473,8573.598290649277,20.615532108768544,7.616028129286226,14.802482186250398,4.440621354971679,3339,100,1100,1683,236.15136215378433,136.32538786107946,0.0026359674951607426,False
0.19,0.7834861947344952,2.0,3769.0,48.31008,0.3,68900.0,0.33,276.0,2700.0,29.443620469847353,2.7827784886281863,7513.501919296103,17.55945225360947,5.871508535824484,11.884168216237882,3.0887300471962975,2986,92,980,1510,203.91964343595467,117.69866821086849,0.002115791670364581,False
0.2,0.8811852134631541,2.0,3770.0,48.31008,0.3,68900.0,0.33,276.0,2700.0,35.22191705695111,3.5054365448759652,9464.678671165106,20.830928172078526,7.744906662617438,14.390988884872588,4.239470117741472,3372,100,1108,1704,215.16373418270481,124.16566458423438,0.0023871492609172157,False
0.21000000000000002,0.7086985287702473,2.0,3771.0,48.31008,0.3,68900.0,0.33,276.0,2700.0,24.60936301159649,2.564586923174368,6924.384692570793,15.217273305198722,4.646737224233149,9.392089706397767,2.0821503010587814,2387,80,784,1205,170.94145471872957,98.68049236434567,0.0016791997954647855,False
0.22,0.5996080776121326,2.0,3772.0,48.31008,0.3,68900.0,0.33,276.0,2700.0,18.63402123419028,2.027441216710649,5474.091285118752,12.052882627667408,3.161999477525092,6.58113860652287,1.134558260814443,1913,68,632,959,141.21476155712915,81.44943265095786,0.0012933873900802062,False
0.23,0.7627424494173636,2.0,3773.0,48.31008,0.3,68900.0,0.33,276.0,2700.0,27.156875160846788,3.097558138286563,8363.40697337372,16.895717687941914,5.51416259553157,10.261157472904873,2.4166044572450067,2601,84,854,1314,169.18385344089765,97.64457161379626,0.0017063551687185802,False
0.24000000000000005,0.766700297891173,2.0,3774.0,48.31008,0.3,68900.0,0.33,276.0,2700.0,27.12630980139924,3.2262042582724266,8710.751497335552,17.021521523154792,5.581282112407053,10.104788278244449,2.3550778541346267,2751,88,908,1383,160.55110644437377,92.63459587135341,0.0016523811001713294,False
0.25,0.7340536955898913,2.0,3775.0,48.31008,0.3,68900.0,0.33,276.0,2700.0,25.022787991617093,3.095123575477243,8356.833653788555,15.995588938310357,5.042406749215803,9.027199053306736,1.94728317373856,2585,82,846,1310,149.4570361592784,86.21090096415651,0.0015018769375590064,False
0.26,0.6357381749457267,2.0,3776.0,48.31008,0.3,68900.0,0.33,276.0,2700.0,19.563558917393127,2.5064515709414446,6767.4192415419,13.067783907014638,3.6157067617019285,6.495775010378489,1.109255190760484,1976,70,652,992,127.9155348782589,73.63055466454202,0.0012032318977312105,False
0.27,0.6777137165336449,2.0,3777.0,48.31008,0.3,68900.0,0.33,276.0,2700.0,21.500479420322126,2.861340742942923,7725.6200059458915,14.288084001953113,4.189690548628994,7.212395418369013,1.3283498056860714,2265,76,746,1140,130.75978848780053,75.46624129648619,0.001263923744868218,False
0.28,0.8951674162910028,2.0,3778.0,48.31008,0.3,68900.0,0.33,276.0,2700.0,33.80467403119257,4.686678203079226,12654.03114831391,21.31874871772679,8.039573603187494,12.485925313465778,3.3528954001082676,3164,96,1044,1592,161.06640954826293,92.71946441977813,0.0017822289581353582,False
0.29000000000000004,0.7477005278125513,2.0,3779.0,48.31008,0.2,68900.0,0.33,276.0,2700.0,24.80534841995338,3.5456953187409748,9573.377360600633,16.421187827627868,5.263594583106031,8.384160592325511,1.7178992643650566,5062,118,1682,2533,132.43452042939103,76.3247828680011,0.0013529332596987041,False
0.3,0.6375113385152262,2.0,3780.0,48.31008,0.3,68900.0,0.33,276.0,2700.0,18.791213874254037,2.7621334133734896,7457.760216108422,13.118436976826285,3.6389229764726827,5.672776897427752,0.8767895630991931,1934,70,636,974,112.31515095051054,64.55361573174916,0.001069724040645314,False
0.31,0.6175628240401378,2.0,3781.0,48.31008,0.08,68900.0,0.33,276.0,2700.0,17.606796914114835,2.666659397192464,7199.980372419653,12.553134024870213,3.3828847497063355,5.053662889244622,0.7162253525138715,43586,238,7598,27137,113.5672106472339,65.52675783901073,0.0010247413055742664,False
0.32,0.7332351563107218,2.0,3782.0,48.31008,0.3,68900.0,0.33,276.0,2700.0,23.30895120752369,3.6608030544885706,9884.16824711914,15.970210237541115,5.029324119256685,7.338740969982576,1.3685210647681147,2456,78,808,1238,120.5702389920992,69.47237375098958,0.001206798103991923,False
0.33,1.0182034526771053,2.0,3783.0,48.31008,0.3,68900.0,0.33,276.0,2700.0,40.423113554407536,6.594547459682541,17805.278141142862,25.823159291184187,10.935749540442128,14.59995426322335,4.341202080759587,3919,108,1296,1969,155.1197084120064,88.96510924825716,0.0018393861676611542,False
0.34,0.7542954628165837,2.0,3784.0,48.31008,0.3,68900.0,0.33,276.0,2700.0,23.991630599458016,3.9962590968034024,10789.899561369186,16.62853923774425,5.372574383309588,7.363091361713767,1.3763152865061854,2347,78,776,1177,117.82452465780254,67.84969628283699,0.001185938703197602,False
0.3500000000000001,1.0351528633393088,2.0,3785.0,48.31008,0.3,68900.0,0.33,276.0,2700.0,40.98247355618973,7.082135682318096,19121.76634225886,26.473501518611112,11.37893813243166,14.50897203757862,4.296802450113564,3899,108,1290,1958,149.61867603825854,85.68484601669174,0.001786487939256414,False
0.36000000000000004,0.6771222267646866,2.0,3786.0,48.31008,0.2,68900.0,0.33,276.0,2700.0,19.5194122160499,3.415778100991736,9222.600872677687,14.270580789787418,4.181244470042442,5.248831426262482,0.765466369050706,4725,102,1344,2529,116.39027876796713,66.10176016400395,0.0010056944288552314,False
0.37,1.0491748013792193,2.0,3787.0,48.31008,0.3,68900.0,0.33,276.0,2700.0,41.348332807184065,7.543354174207528,20367.05627036033,27.01697507424543,11.753952432607504,14.331357732938635,4.210598258399975,3876,108,1280,1950,146.11070518394436,81.7836655958593,0.0017319265171734995,False
0.38,0.8814375604862583,2.0,3788.0,48.31008,0.3,68900.0,0.33,276.0,2700.0,30.300622452959573,5.6421946180037965,15233.92546861025,20.839688687076336,7.750164390641445,9.460933765883237,2.1079697726376487,2895,90,958,1452,120.85791976437707,69.50281144864721,0.0013233875603925103,False
0.39,0.9565820268451788,2.0,3789.0,48.31008,0.3,68900.0,0.33,276.0,2700.0,34.673486946923326,6.637092531571186,17920.149835242202,23.519611324264527,9.415953665707452,11.153875622658799,2.7788611341362657,3184,96,1062,1585,127.34973360236704,73.00438045483762,0.0014519649754498214,False
0.4,1.0167341560530465,2.0,3790.0,48.31008,0.3,68900.0,0.33,276.0,2700.0,38.296990545544034,7.525356822555642,20318.463420900232,25.767123034991226,10.897848833257434,12.529867510552808,3.3724920107017926,3660,104,1220,1824,129.89699682029533,74.23735634524273,0.0015452516142202377,False
0.4100000000000001,1.0704183152912385,2.0,3791.0,48.31008,0.3,68900.0,0.33,276.0,2700.0,41.629675925965316,8.389735759970854,22652.286551921305,27.849762526351945,12.336713505573618,13.77991339961337,3.946977745602764,3858,108,1286,1923,132.4026561537819,75.52360842849535,0.00162446697875926,False
0.42000000000000004,0.8547454619324788,2.0,3792.0,48.31008,0.3,68900.0,0.33,276.0,2700.0,27.760172600539242,5.674466701767137,15321.060094771268,19.921910508444338,7.206197908849118,7.838262092094904,1.5317312070819815,2757,86,900,1393,107.68029133599036,61.67384116387487,0.0011707578591654765,False
0.43,1.0138971153808378,2.0,3793.0,48.31008,0.1,68900.0,0.33,276.0,2700.0,37.28087076725419,7.848868143553677,21191.94398759493,25.659077076600088,10.824899770415605,11.621793690654105,2.9760316268619285,60796,294,9662,38631,137.05400135745765,77.51937384905763,0.0014688611362659238,False
0.44,0.7938078504128253,2.0,3794.0,48.31008,0.3,68900.0,0.33,276.0,2700.0,23.912880897675716,5.082424845086397,13722.547081733272,17.89374211227206,6.054474065227495,6.019138785403655,0.9720492201410984,2299,78,754,1156,96.92687193082905,55.66175583228673,0.0010197789282080309,False
0.45,1.1370356860971516,2.0,3795.0,48.31008,0.2,68900.0,0.33,276.0,2700.0,45.09994459363375,9.956635779862015,26882.91660562744,30.534845985305857,14.28080887693385,14.565098608327894,4.324173097071835,11656,166,2864,6590,132.59618073441504,75.80821442454199,0.0016477579689221018,False
0.46,0.9389990290952706,2.0,3796.0,48.31008,0.3,68900.0,0.33,276.0,2700.0,31.78232803295703,7.106075405893576,19186.403595912656,22.879819757603837,9.008044504666474,8.902508275353192,1.9019690987728977,2985,92,982,1498,108.38949935569168,61.99838553153347,0.001217456651968607,False
0.4700000000000001,1.010947922526056,2.0,3797.0,48.31008,0.2,68900.0,0.33,276.0,2700.0,36.021956293773314,8.247713346320957,22268.826035066584,25.546974352056168,10.749391563642089,10.474981941717147,2.501678217321132,9306,144,2292,5256,118.55533860740302,68.13779295005021,0.001345608786765397,False
0.4800000000000001,0.9948012585581105,2.0,3798.0,48.31008,0.3,68900.0,0.33,276.0,2700.0,34.736620091805364,8.105165478869422,21883.946792947438,24.93709292385735,10.341825745342145,9.799527167948014,2.2366602664727235,3319,96,1080,1671,110.56312486398879,63.104800837707785,0.0012810818365111888,False
0.49,0.9702710549848886,2.0,3799.0,48.31008,0.3,68900.0,0.33,276.0,2700.0,32.95691940718775,7.828041765359676,21135.712766471126,24.023092691787635,9.741354999763933,8.933826715400112,1.9133132344042574,3609,96,1078,1896,113.95126616447264,65.5360815276898,0.001228783764173222,False
0.5,0.8519950674805712,2.0,3800.0,48.31008,0.2,68900.0,0.33,276.0,2700.0,25.80863927446064,6.1903604308160505,16713.973163203336,19.828358853808677,7.151533492266889,5.980280420651962,0.9611730614508387,6899,118,1704,3895,103.16504208595646,59.41604194673216,0.0010274233338363257,False
0.01,0.3181094719940405,2.0,3801.0,51.32946,0.05,68900.0,0.33,276.0,2700.0,10.333879814440156,0.05166730467709846,139.50172262816582,5.269118256971307,0.7706582648591149,5.064761557468849,0.7189909601820165,33511,278,11100,16855,1648.9932176810644,938.4220862996527,0.011008575768872837,True
0.02,0.5431779384895651,2.0,3802.0,51.32946,0.1,68900.0,0.33,276.0,2700.0,20.54743978914922,0.205457642730675,554.7356353728225,10.533385832287403,2.525102691846344,10.014053956861817,2.3196450491156693,16478,212,5444,8306,1306.506874411042,753.3124820905795,0.011644270573521597,True
0.03,0.5140871032304624,2.0,3803.0,51.32946,0.1,68900.0,0.33,276.0,2700.0,18.80934453689732,0.28208361938569704,761.625772341382,9.781319232905277,2.2296683843470557,9.028025303992044,1.9475847649613587,15315,202,5040,7749,931.4834041207821,531.3565937593696,0.007069506873559145,True
0.04,0.5872833055879391,2.0,3804.0,51.32946,0.1,68900.0,0.33,276.0,2700.0,22.35541384028842,0.44697423551921384,1206.8304359018773,11.714182022885664,3.0155415717599783,10.641231817402756,2.5685673362407644,17744,222,5826,8999,870.1355211054425,496.75230130913644,0.006574904921631947,True
0.05,0.7448695514174264,2.0,3805.0,51.32946,0.1,68900.0,0.33,276.0,2700.0,31.13209551424687,0.7780405884683739,2100.7095888646095,16.33251440133761,5.217232151693461,14.799581112909262,4.439191563225087,24369,268,8010,12348,875.4398449263149,498.9560396944279,0.007880433246725715,True
0.06000000000000001,0.7433562126847126,2.0,3806.0,51.32946,0.2,68900.0,0.33,276.0,2700.0,30.740692688491812,0.9217683913126402,2488.7746565441284,16.285195375595787,5.192551337163376,14.455497312896025,4.270782945850736,6188,136,2032,3134,624.0381022514471,356.1428870702676,0.006556846997406605,True
0.06999999999999999,0.5026244115563518,2.0,3807.0,51.32946,0.2,68900.0,0.33,276.0,2700.0,17.279312561289515,0.604057562125012,1630.9554177375326,9.49082316862304,2.1192162256351366,7.7884893926664756,1.5151586635101246,3737,96,1226,1892,373.54447662244223,214.1559146486732,0.0031252743287343747,True
0.08,0.4060087592702531,2.0,3808.0,51.32946,0.2,68900.0,0.33,276.0,2700.0,12.605858451865949,0.5031620077822122,1358.537421011973,7.1735361878746815,1.3160861167745115,5.432322263991267,0.8129241089922993,2841,82,932,1437,269.2640733840908,155.4367887530277,0.0021001346014550195,False
0.09,0.6735450086528445,2.0,3809.0,51.32946,0.2,68900.0,0.33,276.0,2700.0,25.777115473266818,1.1584433822673628,3127.7971321218793,14.16491207166792,4.1303845858735375,11.612203401598897,2.9719412036061748,5465,124,1800,2759,384.1876583062074,220.1721999990114,0.0036561532732985306,True
0.09999999999999999,0.5733648770951051,2.0,3810.0,51.32946,0.2,68900.0,0.33,276.0,2700.0,20.100554997153754,1.002933354755293,2707.920057839291,11.336275730506397,2.8551341449248095,8.764279266647357,1.8522007901695166,4311,106,1414,2184,294.3531542324309,169.9184671574484,0.002660884555696838,True
0.11,0.6302312588800482,2.0,3811.0,51.32946,0.1,68900.0,0.33,276.0,2700.0,22.849362826207297,1.2539273155601174,3385.603752012317,12.91097440757902,3.544175690708571,9.938388418628277,2.2902483751484537,18305,224,6038,9242,298.75258237635035,171.81954230715513,0.0027708440698628457,True
0.12,0.48566914058015376,2.0,3812.0,51.32946,0.2,68900.0,0.33,276.0,2700.0,15.342617601764884,0.9169379413689576,2475.7324416961856,9.067184979299109,1.9618984059277573,6.275432622465775,1.0449604645587998,3359,90,1102,1700,223.52233899041568,128.0045108740523,0.006430858031351648,False
0.13,0.8281718335590578,2.0,3813.0,51.32946,0.3,68900.0,0.33,276.0,2700.0,33.924879865467126,2.2005158052154057,5941.392674081595,19.02599303604952,6.688743653177836,14.898886829417606,4.48822784796243,3321,98,1088,1683,326.04029883040334,187.7895219575669,0.003585534321325065,True
0.14,0.5353748390781554,2.0,3814.0,51.32946,0.3,68900.0,0.33,276.0,2700.0,17.262387622572074,1.2026201134190802,3247.0743062315164,10.329569932634723,2.4437058280062427,6.932817689937352,1.2410857145871625,1884,68,614,957,210.01866890668597,121.23815662464425,0.0017881046601629666,False
0.15000000000000002,0.5468014910634971,2.0,3815.0,51.32946,0.3,68900.0,0.33,276.0,2700.0,17.593500382304704,1.3124439452022778,3543.59865204615,10.62855284619597,2.5634432908836873,6.964947536108735,1.2509993456814095,1871,68,612,947,197.6608748496483,114.1175945729229,0.0017253075548799945,False
0.16,0.7102561229447601,2.0,3816.0,51.32946,0.3,68900.0,0.33,276.0,2700.0,25.984210942343495,2.0701582330480757,5589.427229229805,15.264620243983355,4.670476426228848,10.71959069836014,2.600318193180772,2504,82,822,1265,232.71856870683501,134.33926330835078,0.0023015844168141762,False
0.17,0.5371007585878464,2.0,3817.0,51.32946,0.3,68900.0,0.33,276.0,2700.0,16.681124484341613,1.407605818030979,3800.535708683643,10.37451891125746,2.461572612671636,6.306605573084152,1.053966794640657,1742,64,570,881,171.26018202784897,98.7773939808513,0.0015035237264741502,False
0.18000000000000002,0.8723381502481142,2.0,3818.0,51.32946,0.3,68900.0,0.33,276.0,2700.0,35.24844668561662,3.1601456894683406,8532.39336156452,20.524803903619237,7.561969724922308,14.723642781997384,4.401824035453968,3354,100,1104,1692,250.96359482232415,144.6409232421158,0.0027851836638256014,False
0.19,0.5946657952609616,2.0,3819.0,51.32946,0.2,68900.0,0.33,276.0,2700.0,19.059582755827055,1.7962949057962547,4849.996245649888,11.91660384392552,3.1027677453848743,7.142978911901535,1.3064728395886196,4042,102,1332,2038,168.43703218469108,97.23530542977824,0.0015498882368966984,False
0.2,0.5881552123112468,2.0,3820.0,51.32946,0.1,68900.0,0.33,276.0,2700.0,18.50902546439069,1.8341473856199209,4952.197941173787,11.738017656678124,3.02576563566021,6.771007807712564,1.1916182500402892,19856,198,4896,11234,161.31229767777268,93.05460953629898,0.0014715535757224777,False
0.21000000000000002,0.6991380958150544,2.0,3821.0,51.32946,0.3,68900.0,0.33,276.0,2700.0,24.08126707470468,2.509136849800456,6774.669494461231,14.927995948565323,4.502638141594306,9.153271126139357,1.9935012917938502,2386,80,784,1204,178.9497838677845,103.3092237825696,0.0017518916958033058,False
0.22,0.6879788834620827,2.0,3822.0,51.32946,0.3,68900.0,0.33,276.0,2700.0,23.226133106191533,2.532573522630645,6837.948511102742,14.593248629183902,4.337924133454569,8.63288447700763,1.8053506108239241,2385,78,782,1206,168.9522126482042,97.39423169695988,0.0016417732562855503,False
0.23,0.7268108575081823,2.0,3823.0,51.32946,0.3,68900.0,0.33,276.0,2700.0,25.116364304087313,2.862899389759208,7729.828352349862,15.771610428402388,4.927365204319775,9.344753875684924,2.064465814560567,2553,82,840,1287,170.69452134475938,98.49453908961257,0.0016969085793255418,False
0.24000000000000005,0.6861103651807696,2.0,3824.0,51.32946,0.3,68900.0,0.33,276.0,2700.0,22.644381462300014,2.6883728575804646,7258.606715467255,14.537503842671077,4.310708475346673,8.106877619628937,1.6223356177662085,2365,78,776,1195,156.90924353902133,90.39154726199587,0.0015126559130134553,False
0.25,0.8773642904553356,2.0,3825.0,51.32946,0.3,68900.0,0.33,276.0,2700.0,33.5281151836403,4.1582894744801475,11227.381581096399,20.69847604633283,7.665566451410321,12.829639137307474,3.5072769769301733,3263,98,1074,1646,186.46937324025467,107.47021468208365,0.0020445952059201717,False
0.26,0.6968975722482147,2.0,3826.0,51.32946,0.1,68900.0,0.33,276.0,2700.0,22.749414176762162,2.9206127546594174,7885.654437580427,14.86053496649317,4.46926721238209,7.888879210268993,1.5486544577226726,24433,220,5832,14001,150.15158720382982,86.62402336807804,0.0014564235286685838,False
0.27,0.6403918830442494,2.0,3827.0,51.32946,0.3,68900.0,0.33,276.0,2700.0,19.579356402180952,2.6019891354940254,7025.370665833869,13.20089249514115,3.676829926672674,6.3784639070398015,1.0748407911786484,2030,70,670,1019,131.10487606775845,75.58870290379132,0.0012487881995505283,False
0.28,0.7376666995484988,2.0,3828.0,51.32946,0.2,68900.0,0.33,276.0,2700.0,24.491157217405146,3.3827858491489846,9133.521792702259,16.107810844821294,5.100401505687569,8.383346372583851,1.7176156565385843,5078,118,1688,2540,143.34112575244222,82.4076046045891,0.001455800332306598,False
0.29000000000000004,0.9644660037006237,2.0,3829.0,51.32946,0.3,68900.0,0.33,276.0,2700.0,38.00109517298909,5.459078597931147,14739.512214414097,23.80900824300388,9.60252150999371,14.192086929985209,4.1434429120625635,3758,106,1240,1892,176.70104782888603,101.65530229850874,0.0020355072311191704,False
0.3,0.7181797344439875,2.0,3830.0,51.32946,0.3,68900.0,0.33,276.0,2700.0,22.958958793994157,3.3872951513345066,9145.696908603168,15.506422124728351,4.792384276901785,7.452536669265806,1.4050891255672786,2380,78,790,1189,134.7710042385574,77.71544141820395,0.0013184559314890203,False
0.31,0.9531848578131259,2.0,3831.0,51.32946,0.3,68900.0,0.33,276.0,2700.0,36.67643358617362,5.62245308136152,15180.623319676104,23.395393128347774,9.336264647687583,13.28104045782585,3.713811566326063,3397,100,1120,1711,163.91055727358153,94.21554794417605,0.0018910613201127738,False
0.32,0.7996533107909995,2.0,3832.0,51.32946,0.3,68900.0,0.33,276.0,2700.0,27.002860179505124,4.251828490005603,11479.936923015128,18.084247969842536,6.159627604657248,8.918612209662587,1.9077991146516453,2611,86,862,1312,137.2471832414624,79.0574241925354,0.0014399494972544174,False
0.33,0.6625933247408003,2.0,3833.0,51.32946,0.3,68900.0,0.33,276.0,2700.0,19.412967679462238,3.1278733903165636,8445.258153854722,13.843405895295325,3.977018214300373,5.569561784166913,0.8491448239838095,1906,68,628,958,110.02301867721229,63.41204595508781,0.0011043293125089547,False
0.34,0.650334093780595,2.0,3834.0,51.32946,0.1,68900.0,0.33,276.0,2700.0,18.597095913040516,3.0791882001124242,8313.808140303545,13.487090082955483,3.809496641837886,5.110005830085033,0.7303084417254619,26497,194,4936,16299,118.92299400774519,68.6414470023405,0.0010748753395790833,False
0.3500000000000001,0.9894249007038596,2.0,3835.0,51.32946,0.3,68900.0,0.33,276.0,2700.0,37.90866410525353,6.5442190284042665,17669.39137669152,24.735474709072204,10.208297321254197,13.173189396181325,3.66407829284993,3681,104,1220,1845,152.59911612772694,87.57047989359468,0.0017797039475602992,False
0.36000000000000004,0.9945693388354542,2.0,3836.0,51.32946,0.3,68900.0,0.33,276.0,2700.0,37.9628183017635,6.735591196420173,18186.096230334468,24.928380734510334,10.336043351957784,13.034437567253164,3.600452155537611,3653,104,1208,1835,149.00135855584594,85.45822221882554,0.0017491370821938641,False
0.37,0.9121809310346356,2.0,3837.0,51.32946,0.2,68900.0,0.33,276.0,2700.0,32.42621341016296,5.892762085758626,15910.45763154829,21.918954549476044,8.407375939872907,10.507258860686914,2.5146138541142804,8623,140,2260,4769,142.86314079208972,82.16883894424991,0.0015342962254518847,False
0.38,0.9406810013741095,2.0,3838.0,51.32946,0.3,68900.0,0.33,276.0,2700.0,33.93681505496282,6.333071212384365,17099.292273437786,22.940685501251323,9.046578904524933,10.996129553711498,2.7135076921405688,3066,94,1020,1530,135.66416032853286,77.72312861533861,0.0015444433923644336,False
0.39,0.9813883150413343,2.0,3839.0,51.32946,0.3,68900.0,0.33,276.0,2700.0,36.26201911282913,6.946856303922804,18756.51202059157,24.435450161522823,10.010715233449789,11.826568951306307,3.063858929526985,3539,102,1176,1769,136.00672535547557,77.87663596498108,0.0015999971497129642,False
0.4,1.000063057015891,2.0,3840.0,51.32946,0.3,68900.0,0.33,276.0,2700.0,37.200577587159586,7.3060742308787505,19726.400423372626,25.135118472179172,10.47356038257945,12.065459114980413,3.1674861517006994,3579,102,1184,1797,137.7038260863392,78.56371583520567,0.0016049214820074067,False
0.4100000000000001,1.005091516110767,2.0,3841.0,51.32946,0.3,68900.0,0.33,276.0,2700.0,37.253331161881434,7.492585083333653,20229.979725000863,25.325012628793843,10.600428468865871,11.928318533087591,3.1078433855322185,3697,104,1232,1843,135.96023378438193,77.59052817128446,0.0015813087917458406,False
0.42000000000000004,0.9359137025089588,2.0,3842.0,51.32946,0.3,68900.0,0.33,276.0,2700.0,32.59627079883689,6.690047323409645,18063.12777320604,22.768355488736955,8.937624801826706,9.827915310099936,2.2475774784170612,2972,92,990,1481,125.30072833791779,71.60798605054403,0.0013964324535362654,False
0.43,0.9403078331018919,2.0,3843.0,51.32946,0.3,68900.0,0.33,276.0,2700.0,32.6123527338167,6.845136766364618,18481.86926918447,22.927175476305713,9.038020689417682,9.685177257510986,2.1928839230530635,2994,92,996,1494,121.42984383381626,69.47372098071916,0.0013760858445749469,False
0.44,1.0907772753480716,2.0,3844.0,51.32946,0.3,68900.0,0.33,276.0,2700.0,42.158422629503676,9.096444026088545,24560.398870439072,28.65851723432858,12.911920737222864,13.499905395175094,3.8154767111343197,3856,108,1284,1922,134.88934474093165,76.80275031067082,0.0016637710716280198,False
0.45,1.1031763054584578,2.0,3845.0,51.32946,0.3,68900.0,0.33,276.0,2700.0,42.72553263885885,9.422393090037666,25440.4613431017,29.156169721273095,13.270339767128371,13.569362917585757,3.8479466770907056,4046,110,1342,2021,131.42228208350716,74.69276742371511,0.0016575856368470138,False
0.46,1.1266003402609341,2.0,3846.0,51.32946,0.3,68900.0,0.33,276.0,2700.0,44.0675602366824,9.931678812750388,26815.532794426046,30.106870957236346,13.964402612747236,13.96068927944605,4.032723799996848,4046,110,1340,2024,131.38757339052646,74.64392309573071,0.0016734498082849572,False
0.4700000000000001,1.1144713467565692,2.0,3847.0,51.32946,0.3,68900.0,0.33,276.0,2700.0,42.93089899284107,9.871314880601892,26652.550177625108,29.612875148179683,13.602236143534093,13.31802384466139,3.730921262932201,4140,110,1342,2093,131.5265859892922,75.65338023215145,0.0016156650675406025,False
0.4800000000000001,0.9975675053572866,2.0,3848.0,51.32946,0.3,68900.0,0.33,276.0,2700.0,34.911288422339545,8.147085878197627,21997.13187113359,25.041112696719264,10.410951726671952,9.870175725620282,2.2638658484743246,3333,96,1082,1680,116.86243502214471,67.38256063676464,0.0013661992095665772,False
0.49,0.8377553306723886,2.0,3849.0,51.32946,0.2,68900.0,0.33,276.0,2700.0,25.236770990722814,5.9366054033256335,16028.83458897921,19.34705004862387,6.872615783546651,5.889720942098943,0.9360103802210178,6729,116,1670,3788,108.08116920619739,61.99895594204804,0.001084572135641673,False
0.5,1.0590054163429223,2.0,3850.0,51.32946,0.3,68900.0,0.33,276.0,2700.0,38.35244197559117,9.32631110609864,25181.039986466327,27.40094458677993,12.021431250504245,10.95149738881124,2.695120144405605,3834,102,1194,1975,126.25980447424816,72.15519754639693,0.001431465276917219,False
0.01,0.6717811742689002,2.0,3851.0,54.348839999999996,0.08,68900.0,0.33,276.0,2700.0,27.932611756496797,0.13966096438737882,377.0846038459228,14.112927924865597,4.105445884121721,13.8196838316312,3.965784919734342,34462,314,11476,17242,3555.4388148113308,2045.3892523309275,0.03545160564713536,True
0.02,0.5488153110250173,2.0,3852.0,54.348839999999996,0.1,68900.0,0.33,276.0,2700.0,20.841005232019864,0.20839329715937902,562.6619023303233,10.681585379974152,2.584900664650095,10.159419852045712,2.3765073674907162,16600,214,5506,8335,1454.0564793276694,828.1186439442007,0.012526213770122238,True
0.03,0.691791934847683,2.0,3853.0,54.348839999999996,0.1,68900.0,0.33,276.0,2700.0,28.527276272334742,0.42785259541725806,1155.2020076265967,14.707278243845916,4.393786224638687,13.819998028488826,3.9659336292214284,22663,256,7458,11470,1375.2434219114375,782.4995931811095,0.012278922197184083,True
0.04,0.6426141593557588,2.0,3854.0,54.348839999999996,0.1,68900.0,0.33,276.0,2700.0,25.40072035846195,0.5078803658826603,1371.2769878831828,13.264647602566614,3.706236775102457,12.136072755895336,3.1983564092197967,20578,240,6766,10423,968.0056532282546,551.3150810367431,0.008100740054698706,True
0.05,0.38804795473916553,2.0,3855.0,54.348839999999996,0.08,68900.0,0.33,276.0,2700.0,12.452689500026914,0.31105543811287445,839.849682904761,6.7686137728743105,1.1908921365740548,5.684075727152603,0.8798366984611803,15938,196,5234,8081,448.33512597313745,257.00397831094824,0.0032477910111830223,True
0.06000000000000001,0.4069045212142276,2.0,3856.0,54.348839999999996,0.1,68900.0,0.33,276.0,2700.0,13.065545542642381,0.39151397693715445,1057.087737730317,7.193943203740301,1.3225210359040884,5.87160233890208,0.9310070589669339,10731,162,3532,5427,374.66416753275684,215.0555955214704,0.0029110347106504624,True
0.06999999999999999,0.7019424068617356,2.0,3857.0,54.348839999999996,0.1,68900.0,0.33,276.0,2700.0,27.972227800417883,0.9783095954945065,2641.4359078351677,15.012610054125524,4.544619481484131,12.95961774629236,3.5663098859896243,22565,254,7436,11405,605.4578532026252,346.2691882554162,0.0053476783975852545,True
0.08,0.6292183718877622,2.0,3858.0,54.348839999999996,0.1,68900.0,0.33,276.0,2700.0,23.574427370847857,0.9419047645414859,2543.1428642620117,12.882215424712767,3.53111289964964,10.69221194613509,2.589208135108154,18649,228,6132,9445,451.1591930007354,258.3228373725294,0.003931071647507302,True
0.09,0.7705936584662492,2.0,3859.0,54.348839999999996,0.3,68900.0,0.33,276.0,2700.0,31.519091805991124,1.4168323172399524,3825.4472565478713,17.14565967513613,5.647794566922518,14.373432130854994,4.230962249682566,3180,96,1050,1599,461.03372824464566,266.17092120819217,0.004897075194419624,True
0.09999999999999999,0.6367740713909856,2.0,3860.0,54.348839999999996,0.3,68900.0,0.33,276.0,2700.0,23.463371331387304,1.1710741714669735,3161.9002629608285,13.097366241211168,3.6292589523879024,10.366005090176136,2.458184780920929,2413,80,792,1219,350.64468366596265,201.7842267992758,0.0032607217021712073,True
0.11,0.5375117868336444,2.0,3861.0,54.348839999999996,0.2,68900.0,0.33,276.0,2700.0,18.054215528882853,0.9901942142072717,2673.524378359634,10.385234561537487,2.4658390350527593,7.668980967345366,1.4756448208454875,3902,100,1278,1979,267.45179164679206,154.39650349302784,0.002373264073770827,False
0.12,0.8082645478963129,2.0,3862.0,54.348839999999996,0.3,68900.0,0.33,276.0,2700.0,32.96823475416355,1.974474970512876,5331.082420384765,18.36645596911744,6.3165690944129,14.601778785046108,4.342094123900024,3177,96,1040,1611,979.2513417688026,562.5748354830235,0.003949183353409744,True
0.13,0.5452190764642109,2.0,3863.0,54.348839999999996,0.3,68900.0,0.33,276.0,2700.0,17.971278151291376,1.163531693793982,3141.535573243751,10.586952581400528,2.5466574364226338,7.384325569890848,1.3831257426286518,1891,68,616,961,239.1196190104256,137.6247281713661,0.0020757905961519612,False
0.14,0.5365711167217163,2.0,3864.0,54.348839999999996,0.3,68900.0,0.33,276.0,2700.0,17.320473000521467,1.2066860898754568,3258.0524426637335,10.360717223161044,2.4560814884023796,6.959755777360423,1.2493953985269228,1890,68,618,957,222.71039718066282,128.56600713978293,0.0018999846980823215,False
0.15000000000000002,0.79649730061056,2.0,3865.0,54.348839999999996,0.3,68900.0,0.33,276.0,2700.0,31.357635048217883,2.3447540451457614,6330.835921893556,17.98128569169568,6.102716074795422,13.376349356522205,3.757962029649661,3019,94,992,1525,290.1418872628,167.4755239931092,0.003042863543733055,True
0.16,0.6006606315934244,2.0,3866.0,54.348839999999996,0.2,68900.0,0.33,276.0,2700.0,20.059650284913644,1.5961933804536885,4309.722127224959,12.081985105351041,3.1747011006430026,7.977665179562603,1.578507720189314,4150,104,1362,2101,207.5223167760353,119.75039165918658,0.0019432331436926636,False
0.17,0.5065058928653499,2.0,3867.0,54.348839999999996,0.3,68900.0,0.33,276.0,2700.0,15.240446794930751,1.2851482144310555,3469.90017896385,9.588820774885905,2.156244743833637,5.651626020044846,0.8710965294025814,1596,62,522,807,173.62761456640612,100.22657630076182,0.0014764083415093395,False
0.18000000000000002,0.60004993785995,2.0,3868.0,54.348839999999996,0.3,68900.0,0.33,276.0,2700.0,19.560834538993895,1.748260596272295,4720.303609935197,12.065096403965493,3.1673278654402965,7.495738135028402,1.4190672691680015,2057,72,678,1034,189.67097350542966,109.4640055669974,0.001739971170095885,False
0.19,0.5829148121798549,2.0,3869.0,54.348839999999996,0.3,68900.0,0.33,276.0,2700.0,18.472581795966597,1.7405298146094992,4699.430499445648,11.595046594384028,2.9646286405827484,6.877535201582569,1.2240988259732493,2064,72,680,1038,177.8205084230068,102.65836912603424,0.0015972559927632537,False
0.2,0.7279549988650664,2.0,3870.0,54.348839999999996,0.3,68900.0,0.33,276.0,2700.0,25.944088431325863,2.5776536823134406,6959.66494224629,15.806904326074433,4.945430343542675,10.13718410525143,2.3677766612292346,2619,84,858,1326,203.90145134001645,117.71682672914204,0.0020493774817487084,False
0.21000000000000002,0.761313814004889,2.0,3871.0,54.348839999999996,0.3,68900.0,0.33,276.0,2700.0,27.597927280826017,2.878386171443471,7771.642662897371,16.85040390640362,5.490057149466821,10.747523374422396,2.6116709780233505,2653,84,868,1345,203.32225591784461,117.34734896588117,0.002080316509234287,False
0.22,0.894869468017712,2.0,3872.0,54.348839999999996,0.3,68900.0,0.33,276.0,2700.0,35.512300715115444,3.8840519596124157,10486.940290953522,21.30830246131844,8.033223275095754,14.203998253797003,4.149171315483338,3357,100,1106,1692,225.73974265681534,130.21200095590189,0.002505863329803823,False
0.23,0.763678703019355,2.0,3873.0,54.348839999999996,0.3,68900.0,0.33,276.0,2700.0,27.210911373204127,3.103772302707655,8380.185217310669,16.925441815363467,5.529995185016962,10.28546955784066,2.426222882309307,2601,84,854,1314,190.60369550761968,110.0061729884493,0.0019235097600941,False
0.24000000000000005,0.5547510459375486,2.0,3874.0,54.348839999999996,0.2,68900.0,0.33,276.0,2700.0,16.038698025555398,1.895690845171166,5118.365281962148,10.838491750876367,2.64876896321501,5.200206274679031,0.753078118043844,3437,92,1138,1724,135.33734717867088,78.09661006716271,0.0012305916181278825,False
0.25,0.6273059253899708,2.0,3875.0,54.348839999999996,0.3,68900.0,0.33,276.0,2700.0,19.358297093596683,2.387062213224692,6445.067975706668,12.827985478652991,3.5065282224616863,6.530311614943692,1.1194660092369944,1988,70,656,998,147.85601964248127,85.28127156711182,0.0013773392962694452,False
0.26,0.833043282802552,2.0,3876.0,54.348839999999996,0.3,68900.0,0.33,276.0,2700.0,30.51650465157742,3.9303345163854027,10611.903194240587,19.188903142559877,6.781824374596195,11.327601509017544,2.8514898582107926,2902,90,958,1459,181.97117138412338,104.8777689049466,0.001938805704091113,False
0.27,0.6099603563343035,2.0,3877.0,54.348839999999996,0.2,68900.0,0.33,276.0,2700.0,18.064728181480255,2.3975143256994307,6473.288679388463,12.340326647181353,3.2882598045684652,5.724401534298902,0.8907454788690345,3861,98,1284,1929,134.2202384627184,77.22448715886146,0.0012500606706146587,False
0.28,0.7497043936987364,2.0,3878.0,54.348839999999996,0.3,68900.0,0.33,276.0,2700.0,25.158975824364617,3.4762804541233114,9385.957226132941,16.484075783590608,5.296563433866747,8.67490004077401,1.8202829797434354,2426,80,798,1223,162.74245041197918,92.80263930393363,0.0016088493489127562,False
0.29000000000000004,0.6671877831737522,2.0,3879.0,54.348839999999996,0.3,68900.0,0.33,276.0,2700.0,20.505624223020874,2.922235310185761,7890.035337501556,13.977917362551597,4.040929967805154,6.5277068604692765,1.1186946576193924,1973,70,654,986,135.18513522675144,77.9051577284795,0.0013110711538792835,False
0.3,0.9118075289193164,2.0,3880.0,54.348839999999996,0.3,68900.0,0.33,276.0,2700.0,34.29760241249998,5.088091694110378,13737.847574098021,21.905703521966643,8.39919382996844,12.391898890533334,3.311102135858061,3310,98,1094,1663,172.52399326199856,99.28544647374972,0.001932106682600714,False
0.31,0.7651660738612909,2.0,3881.0,54.348839999999996,0.3,68900.0,0.33,276.0,2700.0,25.2959460007836,3.858477505626062,10417.889265190368,16.972708081956796,5.555204738001844,8.323237918826806,1.6967272323757823,2584,82,852,1300,144.3497493639241,83.12730146031643,0.0014812687488615732,False
0.32,0.9837409947704381,2.0,3882.0,54.348839999999996,0.3,68900.0,0.33,276.0,2700.0,38.40006955620932,6.07538199027827,16403.531373751328,24.52311315817052,10.068307115920033,13.876956398038796,3.9929251256417633,3625,104,1200,1819,174.85965376777307,100.3395962387287,0.002028420911669426,False
0.33,0.876811535755079,2.0,3883.0,54.348839999999996,0.3,68900.0,0.33,276.0,2700.0,31.308162322544124,5.0905805064250735,13744.567367347698,20.679345209379907,7.6541305591713025,10.628817113164217,2.563550052746229,2954,92,980,1478,153.00060546275364,87.90750250520055,0.0016818443842534453,False
0.34,0.8050964222653526,2.0,3884.0,54.348839999999996,0.3,68900.0,0.33,276.0,2700.0,26.825277735126928,4.477979109867115,12090.54359664121,18.26241325813811,6.258546731295627,8.562864476988818,1.7805676214285118,2554,84,842,1285,140.4388181737047,80.78821090375348,0.0014613485826885384,False
0.3500000000000001,0.8927575963962753,2.0,3885.0,54.348839999999996,0.3,68900.0,0.33,276.0,2700.0,31.75669040580815,5.4676236310013175,14762.583803703557,21.234322849072456,7.988301013275542,10.522367556735695,2.5206773822742248,2928,92,970,1467,146.95399527982556,84.40503659601401,0.0016354893151048831,False
0.36000000000000004,1.0249477124819146,2.0,3886.0,54.348839999999996,0.3,68900.0,0.33,276.0,2700.0,39.99333777252609,7.101084701157443,19172.928693125097,26.081068994576682,11.110776698223004,13.912268777949407,4.009691997065561,3751,106,1242,1882,161.99304733191298,92.72771599747428,0.0019315706193166857,False
0.37,0.8465456525497512,2.0,3887.0,54.348839999999996,0.3,68900.0,0.33,276.0,2700.0,28.48578324841094,5.163782505834503,13942.212765753156,19.643564491717473,7.043984386981827,8.842218756693466,1.8802018811473244,2722,86,904,1360,133.87767467672262,77.00919058156771,0.0014502836960181408,False
0.38,0.6819647094734756,2.0,3888.0,54.348839999999996,0.2,68900.0,0.33,276.0,2700.0,19.354572842796298,3.562445192072778,9618.6020185965,14.4141369681295,4.25069685708911,4.9404358746667985,0.6882516650163324,5109,102,1330,2826,121.72157421281948,70.18708042072353,0.0010989872294596785,False
0.39,0.8228183832835942,2.0,3889.0,54.348839999999996,0.3,68900.0,0.33,276.0,2700.0,26.640688252086054,5.070696786077918,13690.88132241038,18.847651804154346,6.587366637312945,7.7930364479317085,1.5166698512350267,2780,86,922,1391,174.35497181568982,99.4307006188221,0.0013340941062063127,False
0.4,0.8203175709207997,2.0,3890.0,54.348839999999996,0.3,68900.0,0.33,276.0,2700.0,26.266515872157076,5.119261887878251,13822.007097271277,18.76458825686629,6.540336092601285,7.501927615290786,1.421074204723034,2723,84,892,1369,120.72579485949154,69.44448057795945,0.00130074049122915,False
0.4100000000000001,0.8291973589708699,2.0,3891.0,54.348839999999996,0.3,68900.0,0.33,276.0,2700.0,26.536271670995237,5.295587887701967,14298.087296795311,19.060238904667415,6.708272850266624,7.4760327663278225,1.412684962564657,2732,84,888,1380,121.099891673428,69.1774120991848,0.0012987265073092563,False
0.42000000000000004,0.948720219317387,2.0,3892.0,54.348839999999996,0.3,68900.0,0.33,276.0,2700.0,33.38954495378046,6.856634895947256,18512.91421905759,23.232583769535772,9.23217630375753,10.156961184244686,2.3755414078102746,3069,94,1022,1530,133.718000781456,76.56518471402036,0.0015148712834997435,False
0.43,0.8723098156779852,2.0,3893.0,54.348839999999996,0.3,68900.0,0.33,276.0,2700.0,28.540514982533136,5.969691649838649,16118.167454564351,20.523826636828034,7.561388177271983,8.016688345705102,1.5916965274333341,2833,88,920,1433,120.12069160329769,68.88047957402281,0.0013250070532172121,False
0.44,1.061395407056511,2.0,3894.0,54.348839999999996,0.2,68900.0,0.33,276.0,2700.0,40.155627140019746,8.655829018402084,23370.738349685627,27.494661173217246,12.087031215903679,12.6609659668025,3.4312021975015945,10589,156,2618,5974,144.4222185632358,82.63998799818562,0.001716412848584352,False
0.45,0.7848740645632638,2.0,3895.0,54.348839999999996,0.2,68900.0,0.33,276.0,2700.0,23.221598142895612,5.034007828445933,13591.82113680402,17.60424570637995,5.89590984795886,5.617352436515663,0.861902019512927,6382,112,1606,3569,117.34226719528905,67.60266751186003,0.0011358277833891897,False
0.46,1.1562384383143267,2.0,3896.0,54.348839999999996,0.3,68900.0,0.33,276.0,2700.0,46.17025515480426,10.415298643918433,28121.30633857977,31.329542345541356,14.874777306756378,14.840712809262904,4.459478662837945,4483,116,1476,2245,142.67637722532257,80.99127434957686,0.0018386164394401086,False
0.4700000000000001,1.0992485608968214,2.0,3897.0,54.348839999999996,0.3,68900.0,0.33,276.0,2700.0,41.88117826656195,9.624630509926293,25986.502376800992,28.998106055658717,13.156132323826798,12.883072210903237,3.5315018139005048,4180,110,1346,2119,138.57818489415297,79.67631279235472,0.0016795836073058704,False
0.4800000000000001,1.11071638894855,2.0,3898.0,54.348839999999996,0.3,68900.0,0.33,276.0,2700.0,42.38544869972141,9.940884344769273,26840.38773087704,29.46069082219842,13.49132688052535,12.924757877522989,3.5504425357560763,4279,110,1344,2197,141.11324346673914,80.22753728925143,0.001674706531924713,False
0.49,0.8566738144111423,2.0,3899.0,54.348839999999996,0.3,68900.0,0.33,276.0,2700.0,26.28491831494177,6.193401497759277,16722.18404395005,19.987614683013575,7.244677709743533,6.2973036319281945,1.0512762119842556,2691,80,828,1391,113.12727351866732,65.288145681491,0.00116197936590279,False
0.5,1.1861962207817722,2.0,3900.0,54.348839999999996,0.3,68900.0,0.33,276.0,2700.0,47.12790060199729,11.520175762700177,31104.474559290476,32.58783729364153,15.832132474047219,14.540063308355762,4.311956711347042,4953,116,1494,2590,139.2205321872124,79.66894885610472,0.0017774014075635954,False
0.01,0.5185865532465646,2.0,3901.0,57.36822,0.05,68900.0,0.33,276.0,2700.0,19.537758257961073,0.09768669689470351,263.7540816156995,9.896250171758812,2.273937313552604,9.641508086202261,2.1762506166579003,62867,406,20836,31607,3172.7023463599608,1801.6586053335443,0.024050926114287156,True
0.02,0.5804340316552389,2.0,3902.0,57.36822,0.1,68900.0,0.33,276.0,2700.0,22.51715212158716,0.22515476605505336,607.9178683486441,11.527605475993632,2.9359475600918667,10.989546645593528,2.7107927940368133,17947,224,5948,9019,1704.459186764204,973.0674495129705,0.014516465810520135,True
0.03,0.4417920363470572,2.0,3903.0,57.36822,0.1,68900.0,0.33,276.0,2700.0,15.310073738258795,0.22959455740611756,619.9053049965174,8.004429235464611,1.5875488259531185,7.305644502794184,1.357954268547001,12208,176,4006,6193,881.6278767724489,502.73384808930086,0.00647891557537553,True
0.04,0.5966945782023199,2.0,3904.0,57.36822,0.1,68900.0,0.33,276.0,2700.0,22.862531243029792,0.45711658357404117,1234.2147756499112,11.972471345841356,3.127000602010769,10.890059897188436,2.669884018436728,18057,224,5940,9141,946.6964036865671,539.6527409648248,0.007542973115622248,True
0.05,0.5784836896500213,2.0,3905.0,57.36822,0.1,68900.0,0.33,276.0,2700.0,21.62553968208966,0.5403766926644599,1459.0170701940417,11.474693165061089,2.9135164010016417,10.15084651702857,2.373139708337182,17730,220,5816,9000,740.1697755431472,423.4011395762589,0.005728676913441706,True
0.06000000000000001,0.5800619068591787,2.0,3906.0,57.36822,0.2,68900.0,0.33,276.0,2700.0,21.45154882795968,0.643094075496674,1736.3540038410197,11.517502439356628,2.9316597321582,9.934046388603052,2.2885656566615262,4708,112,1548,2380,542.5173906200189,311.95419880544796,0.004857285568105459,True
0.06999999999999999,0.6099623811427473,2.0,3907.0,57.36822,0.2,68900.0,0.33,276.0,2700.0,22.78959366907054,0.7969174008973484,2151.676982422841,12.340383131990633,3.288284791423245,10.449210537079908,2.491367390525897,4809,114,1572,2445,485.82990965074964,280.03604533755106,0.0045127915402341425,True
0.08,0.6371463459198929,2.0,3908.0,57.36822,0.2,68900.0,0.33,276.0,2700.0,24.010064301019423,0.9593302417483499,2590.191652720545,13.108003958591253,3.634136748202834,10.90206034242817,2.6748065064544844,5210,118,1702,2651,471.78415730029207,271.0690587574408,0.004231103501789714,True
0.09,0.7368509386340765,2.0,3909.0,57.36822,0.2,68900.0,0.33,276.0,2700.0,29.468985056805018,1.3245775135265803,3576.3592865217665,16.082444183477797,5.087271730885847,13.38654087332722,3.7626942173592672,6164,134,2022,3125,469.1755122576778,268.62846385518844,0.00475708158314486,True
0.09999999999999999,0.6908584791692861,2.0,3910.0,57.36822,0.3,68900.0,0.33,276.0,2700.0,26.491368700596972,1.322474039927364,3570.679907803883,14.679329397075946,4.380070678456676,11.812039303521026,3.0575966385293114,2737,86,894,1390,396.0476060448138,227.74757546504213,0.0038488585020622053,True
0.11,0.48736982748175667,2.0,3911.0,57.36822,0.2,68900.0,0.33,276.0,2700.0,15.641072356490373,0.8574713397256846,2315.1726172593485,9.109351706441194,1.9773546945544878,6.531720650049179,1.1198833548288032,3367,90,1106,1702,260.6495305139135,150.41509778798843,0.002206496430683427,False
0.12,0.45804674129791234,2.0,3912.0,57.36822,0.2,68900.0,0.33,276.0,2700.0,14.076545501509367,0.8409736153536257,2270.6287614547896,8.392495332374732,1.720803416538341,5.684050169134634,0.8798298011847153,3089,86,1016,1559,227.14280464976238,130.8335522553373,0.0018833261295496289,False
0.13,0.5580002284203783,2.0,3913.0,57.36822,0.3,68900.0,0.33,276.0,2700.0,18.60512628163845,1.2047318222665409,3252.7759201196604,10.924756296580817,2.6841252735352326,7.680369985057634,1.4793934512686917,1859,68,608,941,259.5004167026703,149.78800697272936,0.0022584708877212145,False
0.14,0.6275767050888374,2.0,3914.0,57.36822,0.3,68900.0,0.33,276.0,2700.0,21.950144184771766,1.5307630727730561,4133.060296487251,12.835658208482164,3.5100028192748174,9.114485976289602,1.9792397465017613,2327,78,762,1178,271.95386224027027,156.94112507360614,0.002460167160532728,False
0.15000000000000002,0.7419631893788801,2.0,3915.0,57.36822,0.3,68900.0,0.33,276.0,2700.0,28.08403091119262,2.0992337348686028,5667.931084145227,16.2416892452536,5.169895988654277,11.84234166593902,3.0706622537856743,2841,88,924,1449,287.6126972735268,166.00130495930654,0.0029079593610401543,True
0.16,0.7973019715552971,2.0,3916.0,57.36822,0.3,68900.0,0.33,276.0,2700.0,31.119965635939266,2.48101860853574,6698.750243046498,18.00751365383427,6.1171956442888575,13.112451982104997,3.6361770357531173,3025,94,994,1528,287.6437458161534,165.97215902080467,0.0030281143064093663,True
0.17,0.5026661566045327,2.0,3917.0,57.36822,0.2,68900.0,0.33,276.0,2700.0,15.062960994715215,1.2700619214127349,3429.1671878143843,9.491875111462619,2.119612442462137,5.5710858832525965,0.8495505210494023,3279,88,1080,1653,177.77225876747474,102.5511954781587,0.0015455417260002568,False
0.18000000000000002,0.723388944740599,2.0,3918.0,57.36822,0.3,68900.0,0.33,276.0,2700.0,26.205167864831576,2.3462505955976836,6334.8766081137455,15.666249327784794,4.873576481397161,10.538918537046783,2.5273258857994776,2602,84,856,1312,236.4306136167734,136.3555957589042,0.0023657315519106784,False
0.19,0.8278385346888806,2.0,3919.0,57.36822,0.3,68900.0,0.33,276.0,2700.0,32.14266117704898,3.0391873558123392,8205.805860693315,19.014868716091645,6.6824041651341055,13.127792460957334,3.6432168093217663,3248,96,1064,1646,253.52310963432245,146.31461616901925,0.0027198431574841195,False
0.2,0.7747678477811036,2.0,3920.0,57.36822,0.3,68900.0,0.33,276.0,2700.0,28.653322957665708,2.848577134947428,7691.158264358056,17.279175111042942,5.719642303361214,11.374147846622765,2.871065168413786,2883,90,948,1455,231.08067425955207,133.36533871912187,0.0023557643228911363,False
0.21000000000000002,0.5366545367279784,2.0,3921.0,57.36822,0.3,68900.0,0.33,276.0,2700.0,15.808624315052256,1.6405093600372247,4429.375272100507,10.362890558071435,2.456945870146594,5.445733756980822,0.8164365101093694,1635,62,538,822,159.1869422295987,91.45917241513064,0.001390448679106346,False
0.22,0.5796079097235827,2.0,3922.0,57.36822,0.3,68900.0,0.33,276.0,2700.0,17.649203598861906,1.9191112768245275,5181.6004474262245,11.505181315155097,2.9264336161150424,6.144022283706809,1.0073223392905148,1889,68,620,953,164.34983215703937,94.86715214517474,0.001474061131582542,False
0.23,0.9292939994150236,2.0,3923.0,57.36822,0.3,68900.0,0.33,276.0,2700.0,37.462706163959375,4.282728703644511,11563.36749984018,22.530011345341524,8.787694539824805,14.93269481861785,4.504965836180294,3465,102,1142,1746,234.87161624098857,135.2921890958163,0.0026949440203091414,False
0.24000000000000005,0.8164496799814891,2.0,3924.0,57.36822,0.3,68900.0,0.33,276.0,2700.0,30.056040070016696,3.5777718905065217,9659.984104367608,18.636427259027265,6.46800468927786,11.419612810989431,2.8902327987713385,3160,94,1040,1594,203.8735906385145,117.56640789016187,0.002141405242532898,False
0.25,0.5752328246001138,2.0,3925.0,57.36822,0.3,68900.0,0.33,276.0,2700.0,16.802931984625392,2.06764157460328,5582.632251428857,11.386710453276288,2.876356803948354,5.416221531349104,0.8087152293450739,1821,66,604,909,144.21483031242727,83.22577906987524,0.0013057123949400346,False
0.26,0.8916329969874566,2.0,3926.0,57.36822,0.3,68900.0,0.33,276.0,2700.0,34.1457900758531,4.402141621541241,11885.782378161352,21.19497347098331,7.964443035475352,12.95081660486979,3.5623014139341107,3281,98,1078,1658,203.95115530632341,117.48597885712141,0.0022548566124107544,False
0.27,0.8541448810537853,2.0,3927.0,57.36822,0.3,68900.0,0.33,276.0,2700.0,31.530010105316883,4.215327385417372,11381.383940626905,19.90146618279703,7.194239330019938,11.628543922519853,2.978911944602566,3126,94,1026,1581,192.31057833479676,110.83230215728062,0.0020499954256210486,False
0.28,0.8790659340347171,2.0,3928.0,57.36822,0.3,68900.0,0.33,276.0,2700.0,32.79532167925002,4.545368873807237,12272.49595927954,20.757418127583094,7.700838019165232,12.037903551666929,3.155469145357995,3174,96,1046,1599,189.13122760089573,108.9037354735239,0.0020628739284790864,False
0.29000000000000004,0.8712236250481558,2.0,3929.0,57.36822,0.3,68900.0,0.33,276.0,2700.0,32.03543299035993,4.594057581449923,12403.955469914792,20.48637884842702,7.539115729493218,11.54905414193291,2.9450581480432945,3187,96,1048,1609,180.26973543239436,103.816263636326,0.0019725714798591158,False
0.3,0.7736295361995579,2.0,3930.0,57.36822,0.3,68900.0,0.33,276.0,2700.0,26.01347628951504,3.845472775662639,10382.776494289124,17.242721700294762,5.699993968971751,8.770754589220278,1.854521193309112,2593,84,856,1303,157.739171458567,90.46319703688518,0.0016315975448982173,False
0.31,0.6925490759113989,2.0,3931.0,57.36822,0.1,68900.0,0.33,276.0,2700.0,21.376227929873433,3.2509212046349885,8777.48725251447,14.729964092668158,4.4049302962174,6.646263837205275,1.1540090915824117,29114,212,5588,17788,146.59790681352894,84.57339314115742,0.0013953863192034234,False
0.32,1.006016135194069,2.0,3932.0,57.36822,0.2,68900.0,0.33,276.0,2700.0,39.8946939470514,6.314521892812182,17049.20911059289,25.359999008007094,10.623860631709237,14.534694939044307,4.309338738897055,7791,156,2558,3924,186.20541451477487,106.88730426117822,0.0022144910955186363,False
0.33,0.9700757677708536,2.0,3933.0,57.36822,0.3,68900.0,0.33,276.0,2700.0,37.2077104452327,6.0640059466686935,16372.816056005473,24.015876929233556,9.736664301508187,13.191833515999143,3.672658354839493,3695,104,1222,1856,177.21141526361433,101.75424881970477,0.0020408416655998602,False
0.34,0.9623124720682759,2.0,3934.0,57.36822,0.3,68900.0,0.33,276.0,2700.0,36.41662639724833,6.108508382427755,16492.972632554938,23.729803539637498,9.551333363442263,12.686822857610832,3.4428249810145077,3622,104,1200,1816,169.6287650491667,97.38139711058658,0.0019648890638404113,False
0.3500000000000001,0.9167594147135207,2.0,3935.0,57.36822,0.3,68900.0,0.33,276.0,2700.0,33.24034851411538,5.7272637999549705,15463.61225987842,22.081717413763585,8.508103918082226,11.158631100351798,2.780840118127255,3102,94,1030,1551,159.95855557753012,91.92875096939741,0.0017894837430903615,False
0.36000000000000004,1.0022572536581222,2.0,3936.0,57.36822,0.3,68900.0,0.33,276.0,2700.0,38.47230164802769,6.82729819874773,18433.70513661887,25.217901714931216,10.528802574364713,13.254399933096472,3.7015043756169828,3679,104,1218,1846,168.08785808085446,96.34152277185615,0.001974835157363538,False
0.37,0.7392298027172859,2.0,3937.0,57.36822,0.3,68900.0,0.33,276.0,2700.0,22.5095233497133,4.05817442457544,10957.070946353688,16.156463367906472,5.125617692319095,6.35305998180683,1.0674432677436547,2202,74,730,1101,124.66068235677389,71.74839405904765,0.0012847538801763379,False
0.38,0.8211506572341314,2.0,3938.0,57.36822,0.3,68900.0,0.33,276.0,2700.0,26.781494527529276,4.973560312172046,13428.612842864526,18.792241447967054,6.555980131789938,7.989253079562221,1.5824198196178916,2778,86,918,1395,132.55082802690958,76.02226174799564,0.0014373503067877538,False
0.39,1.0203563294221982,2.0,3939.0,57.36822,0.3,68900.0,0.33,276.0,2700.0,38.81989135700651,7.445641391537405,20103.231757150996,25.905364022829612,10.991432086993951,12.9145273341769,3.545790695456546,3780,106,1252,1896,158.06405054330673,90.61001577778482,0.0018867347010288783,False
0.4,0.7929746766275567,2.0,3940.0,57.36822,0.1,68900.0,0.33,276.0,2700.0,24.745537263787334,4.8150661662043035,13000.67864875162,17.866658575338164,6.0395767522370285,6.87887868844917,1.224510586032725,38610,230,6552,24174,135.49675928039017,78.11354752740496,0.0013429801413214612,False
0.4100000000000001,1.0417883215242352,2.0,3941.0,57.36822,0.3,68900.0,0.33,276.0,2700.0,39.685302533188896,7.9911392144516835,21576.075879019547,26.73006803389492,11.555452551071706,12.955234499293976,3.564313336620023,3779,106,1252,1895,154.46250329213476,88.47517057579897,0.0018577073560176825,False
0.42000000000000004,0.7847155563694794,2.0,3942.0,57.36822,0.3,68900.0,0.33,276.0,2700.0,23.85382467334478,4.854133637056298,13106.160820052006,17.59912741094195,5.893119836423225,6.2546972624028285,1.038986199366927,2321,78,772,1155,117.29934317126926,67.3152298648153,0.001243513855602325,False
0.43,1.0960557017553554,2.0,3943.0,57.36822,0.3,68900.0,0.33,276.0,2700.0,42.81462625681343,9.03862557380891,24404.289049284056,28.86990197695934,13.063750192774837,13.944724279854093,4.025124618965927,3855,108,1282,1926,152.47997434799612,86.78703238869906,0.0019108311959492295,False
0.44,1.0561550425014081,2.0,3944.0,57.36822,0.3,68900.0,0.33,276.0,2700.0,39.80298109088608,8.578246887592675,23161.266596500223,27.28936310886275,11.943487387786737,12.513617982023327,3.365240500194062,3833,106,1272,1915,145.85435829469426,83.13864391746115,0.0017786222227791936,False
0.45,1.0547160190332314,2.0,3945.0,57.36822,0.3,68900.0,0.33,276.0,2700.0,39.42748269823537,8.680331853397382,23436.89600417293,27.233108287277528,11.904257836086824,12.194374410957845,3.223925982689442,3882,106,1272,1952,143.05700239808567,81.44690103151393,0.001739323704066109,False
0.46,1.1392067029973472,2.0,3946.0,57.36822,0.3,68900.0,0.33,276.0,2700.0,44.95653096341039,10.136142079897851,27367.583615724197,30.624227784672964,14.347197546880034,14.332303178737423,4.211055466982183,4196,112,1378,2111,154.24793020306817,88.52623759623033,0.0018925198457715074,False
0.4700000000000001,1.1397530116716268,2.0,3947.0,57.36822,0.3,68900.0,0.33,276.0,2700.0,44.699988306956335,10.287050869418973,27775.037347431225,30.646738227640522,14.36393397664556,14.053250079315813,4.076883107226587,4267,112,1372,2171,150.06197353583332,86.10088731253849,0.0018630053213138443,False
0.4800000000000001,0.7910506919176462,2.0,3948.0,57.36822,0.2,68900.0,0.33,276.0,2700.0,22.928789750596703,5.27128619697934,14232.472731844218,17.80418328927393,6.005261689984833,5.124606461322774,0.7339754930054925,6174,110,1526,3479,116.67736359208301,67.30264586880189,0.0011541465805832232,False
0.49,0.9006567404235354,2.0,3949.0,57.36822,0.3,68900.0,0.33,276.0,2700.0,28.79125157991205,6.807453147677272,18380.123498728633,21.51160713249702,8.157128109744523,7.279644447415031,1.349674962067251,3088,86,898,1641,128.9942878068537,74.1050471715481,0.0013237328312602358,False
0.5,0.8274967295192178,2.0,3950.0,57.36822,0.2,68900.0,0.33,276.0,2700.0,24.466703533361606,5.8548764955412524,15808.166537961382,19.003463386130004,6.675906733990494,5.463240147231602,0.8210302384492412,6587,114,1610,3726,118.350174207302,67.97347029697545,0.001179340936065181,False
0.01,0.675027929938734,2.0,3951.0,60.3876,0.08,68900.0,0.33,276.0,2700.0,28.123295075808453,0.14061438098394133,379.65882865664156,14.208677583871845,4.151422479072306,13.914617491936609,4.010808098088365,35950,320,11974,17983,4079.10505433348,2354.059860901705,0.039685158733461054,True
0.02,0.560411448557055,2.0,3952.0,60.3876,0.1,68900.0,0.33,276.0,2700.0,21.449895169563018,0.21448219653480985,579.1019306439866,10.988944775984184,2.7105446228219847,10.460950393578834,2.4960624262871747,16809,216,5568,8451,1615.0838494937625,921.8964593344864,0.014412725769816618,True
0.03,0.7217489492012046,2.0,3953.0,60.3876,0.1,68900.0,0.33,276.0,2700.0,30.32184870818877,0.45477118195506955,1227.8821912786877,15.615857990118913,4.8479252324032345,14.705990718069858,4.393154050448165,24082,266,7956,12142,1595.7660325905517,908.4266905074379,0.014691436000885006,True
0.04,0.40261272545026566,2.0,3954.0,60.3876,0.1,68900.0,0.33,276.0,2700.0,13.305404477976406,0.26597404827297483,718.1299303370321,7.09635178366651,1.2918556877254816,6.2090526943098965,1.0258816394525068,11020,164,3612,5596,647.4266973381008,370.1427600010033,0.004643368692522892,True
0.05,0.5577873081310519,2.0,3955.0,60.3876,0.1,68900.0,0.33,276.0,2700.0,20.540351633682995,0.513246991454278,1385.7668769265506,10.919095220830558,2.6817997739629043,9.621256412852437,2.1685527825086264,16348,210,5364,8296,781.1110885945433,446.0392535035272,0.005732476490940459,True
0.06000000000000001,0.7598271753799026,2.0,3956.0,60.3876,0.2,68900.0,0.33,276.0,2700.0,31.752073966648783,0.9521098296573491,2570.6965400748427,16.803304827970457,5.465041704708909,14.948769138678326,4.51293187505156,6092,136,2004,3080,744.1195784764122,424.9276849334009,0.008015714219282023,True
0.06999999999999999,0.757832157552516,2.0,3957.0,60.3876,0.2,68900.0,0.33,276.0,2700.0,31.32905485253557,1.0957985423186192,2958.6560642602717,16.740186772635077,5.431581789471164,14.588868079900493,4.335783247152545,6168,136,2024,3126,657.2796921541453,375.26457591748726,0.006812181007178539,True
0.08,0.655221729743388,2.0,3958.0,60.3876,0.2,68900.0,0.33,276.0,2700.0,25.01510759655492,0.9995319735697716,2698.7363286383834,13.62869696412883,3.8757624452603063,11.38641063242609,2.8762304716905347,5300,122,1740,2684,498.7077405436169,285.5711019286735,0.004625639918224937,True
0.09,0.7278519238976628,2.0,3959.0,60.3876,0.2,68900.0,0.33,276.0,2700.0,28.93189872723528,1.3004086286959415,3511.1032974790423,15.80372337280216,4.943801211335135,13.128175354433118,3.6433925826391933,5955,130,1950,3024,500.2786611454061,286.45219970776907,0.004904138534787348,True
0.09999999999999999,0.6035742909599239,2.0,3960.0,60.3876,0.2,68900.0,0.33,276.0,2700.0,21.67746146781484,1.0817786782883487,2920.8024313785418,12.162691234903729,3.2100214129908773,9.514770232911111,2.1282427347025283,4459,108,1454,2272,362.44472378078825,208.54199960910938,0.0033637168690576202,True
0.11,0.6626096733330578,2.0,3961.0,60.3876,0.3,68900.0,0.33,276.0,2700.0,24.625667778228337,1.3516240879212726,3649.385037387436,13.843883590740942,3.9772445384036246,10.781784187487395,2.625620450482352,2403,80,790,1212,367.682963192738,212.25860258849642,0.003494246272613246,True
0.12,0.439480295558757,2.0,3962.0,60.3876,0.2,68900.0,0.33,276.0,2700.0,13.247105745795947,0.7912072300108215,2136.259521029218,7.949777913940071,1.569107856121725,5.297327831855876,0.7779006261109036,2882,84,944,1460,229.55303685191777,132.53048913382042,0.0018829584947582946,False
0.13,0.7053995012921961,2.0,3963.0,60.3876,0.3,68900.0,0.33,276.0,2700.0,26.50840751929369,1.718445102714131,4639.801777328154,15.1171925212637,4.596700181286148,11.39121499802999,2.878255078572017,2681,86,880,1355,332.8950253269451,192.0321107397664,0.0032584394146631785,True
0.14,0.6417245471515143,2.0,3964.0,60.3876,0.3,68900.0,0.33,276.0,2700.0,22.70726846216633,1.583761772190677,4276.156784914828,13.23911053092487,3.694447743230059,9.468157931241459,2.1106859710393824,2402,78,784,1220,284.9401913873463,164.45885279919875,0.0026700355368636185,True
0.15000000000000002,0.5119002239280394,2.0,3965.0,60.3876,0.2,68900.0,0.33,276.0,2700.0,15.919254967297718,1.186875539076753,3204.563955507233,9.725642800032235,2.2083387204900493,6.193612167265483,1.0214631814132964,3486,94,1150,1755,212.20262182922446,122.44168849330991,0.001860694113640558,False
0.16,0.7013140803893627,2.0,3966.0,60.3876,0.3,68900.0,0.33,276.0,2700.0,25.478197464319035,2.029677154806122,5480.12831797653,14.993634461643051,4.535192623120791,10.484563002675984,2.5055154683146688,2465,82,810,1244,273.11707894154847,157.60305704424542,0.0026614802238575123,False
0.17,0.848125714014897,2.0,3967.0,60.3876,0.3,68900.0,0.33,276.0,2700.0,33.99734983096551,2.8794849724940095,7774.609425733825,19.697068910805253,7.07506468814679,14.300280920160258,4.19557971565278,3335,98,1090,1694,305.0366699785085,176.08466558158784,0.003311292069091611,True
0.18000000000000002,0.7950274237862942,2.0,3968.0,60.3876,0.3,68900.0,0.33,276.0,2700.0,30.415419554472123,2.725173247665334,7357.967768696401,17.933417594633763,6.0763209864411625,12.48200195983836,3.3511477387758286,2921,92,962,1472,271.47047827104535,156.69865980391174,0.0028406522214299095,False
0.19,0.7416133685513795,2.0,3969.0,60.3876,0.3,68900.0,0.33,276.0,2700.0,26.986210948428162,2.5493245840933585,6883.176377052068,16.23077149692721,5.164216217199177,10.755439451500951,2.614891633105818,2645,84,866,1340,242.04246862656203,139.60802098534563,0.0024500806028292894,False
0.2,0.6266936112917545,2.0,3970.0,60.3876,0.2,68900.0,0.33,276.0,2700.0,20.460558890647086,2.029300728245547,5479.111966262977,12.810641930700957,3.4986787764318095,7.649916959946129,1.4693780481862624,4219,106,1388,2131,199.5060302682624,115.08263197922614,0.0018656835572764298,False
0.21000000000000002,0.7132231064966376,2.0,3971.0,60.3876,0.3,68900.0,0.33,276.0,2700.0,24.860891771408138,2.590997442954591,6995.693095977395,15.354977764427035,4.715900293354771,9.505914006981103,2.12490285040018,2432,80,796,1232,214.99027940180204,124.11665663726627,0.0021164567623743625,False
0.22,0.6261144124463219,2.0,3972.0,60.3876,0.3,68900.0,0.33,276.0,2700.0,19.97018713323512,2.174419465605581,5870.932557135069,12.794245031163864,3.491263616355754,7.175942102071257,1.316844150750173,2159,74,710,1088,182.80577764562238,105.37144811736515,0.0017097447547939314,False
0.23,0.5747963234991251,2.0,3973.0,60.3876,0.1,68900.0,0.33,276.0,2700.0,17.201702172888165,1.9527132446713216,5272.325760612568,11.374917038983643,2.871389066392209,5.826785133904522,0.9186758217208872,18708,190,4612,10584,166.65475009733035,96.2174774480167,0.001494216970581285,False
0.24000000000000005,0.8829702327904034,2.0,3974.0,60.3876,0.3,68900.0,0.33,276.0,2700.0,34.167806101496446,4.071183814284096,10992.196298567058,20.892931535583674,7.782145598698174,13.274874565912771,3.710961784414078,3283,98,1078,1660,228.23573221712718,131.57557159042042,0.0025205512595992815,False
0.25,0.6711379093481256,2.0,3975.0,60.3876,0.3,68900.0,0.33,276.0,2700.0,21.61489951031404,2.6691375153143606,7206.671291348774,14.093988925806878,4.096373624612577,7.5209105845071615,1.427236109298216,2210,76,730,1109,172.1083770617065,99.3002993068638,0.0016685633713900865,False
0.26,0.7490195028117923,2.0,3976.0,60.3876,0.3,68900.0,0.33,276.0,2700.0,25.612893394953478,3.292865053024292,8890.735643165588,16.46257028470426,5.285281005715831,9.150323110249218,1.9924159526915388,2511,82,826,1266,396.0248669161161,228.6200927688768,0.0018624346018255248,True
0.27,0.6199107633598343,2.0,3977.0,60.3876,0.2,68900.0,0.33,276.0,2700.0,18.554854720554303,2.463681408474426,6651.93980288095,12.619150852378946,3.412436221311871,5.935703868175358,0.948754812837445,3766,98,1246,1891,156.52699190017518,90.2579681852069,0.0014166341733684283,False
0.28,0.7234796235487383,2.0,3978.0,60.3876,0.3,68900.0,0.33,276.0,2700.0,23.713447444746382,3.273906480976761,8839.547498637254,15.669037543106738,4.874997204628675,8.044409901639645,1.6010907236519145,2459,80,806,1244,166.95793605476848,96.11696968267287,0.0016654296827230623,False
0.29000000000000004,0.7148350688315297,2.0,3979.0,60.3876,0.3,68900.0,0.33,276.0,2700.0,23.010836024693756,3.285491021428299,8870.825757856408,15.404161763987732,4.740691571769029,7.606674260706024,1.4552005503407295,2211,76,730,1110,158.11589703516057,91.23261601382158,0.0015917439361345937,False
0.3,0.7535563083712133,2.0,3980.0,60.3876,0.3,68900.0,0.33,276.0,2700.0,24.88987163091973,3.6769320768733302,9927.716607557992,16.605245084901863,5.360291934446108,8.284626546017865,1.683359857572778,2416,80,792,1222,163.37377816781895,94.19274333865268,0.0016533793943980018,False
0.31,0.9095258185610964,2.0,3981.0,60.3876,0.3,68900.0,0.33,276.0,2700.0,33.87541733235745,5.1882955620200075,14008.398017454021,21.824807944388247,8.349303674356335,12.050609387969203,3.1610081123363276,3336,98,1102,1677,185.57663120290212,106.7001167504184,0.0020753461675016432,False
0.32,0.7061733398518251,2.0,3982.0,60.3876,0.2,68900.0,0.33,276.0,2700.0,21.867461735432066,3.430164738953911,9261.44479517556,15.140643480656822,4.608407520430226,6.726818254775244,1.1782427814763148,5141,112,1572,2679,146.00443045550497,84.05981125867434,0.0014523942474934347,False
0.33,0.7200822634461866,2.0,3983.0,60.3876,0.3,68900.0,0.33,276.0,2700.0,22.378785486407477,3.617233328462527,9766.529986848824,15.564715811067305,4.821941133005982,6.814069675340171,1.204707804543455,2366,78,780,1190,142.95082118650234,82.35904735085158,0.0014334208857888042,False
0.34,0.7464435824820443,2.0,3984.0,60.3876,0.3,68900.0,0.33,276.0,2700.0,23.5652319193247,3.9237713211807534,10594.182567188034,16.38179222065463,5.242978810966647,7.1834396986700675,1.3192074897858932,2342,78,772,1178,143.41028909947406,82.62415346881255,0.0014632839712094298,False
0.3500000000000001,0.9837362091608106,2.0,3985.0,60.3876,0.3,68900.0,0.33,276.0,2700.0,37.53362443304868,6.478587085768414,17492.18513157472,24.52293470078552,10.068189758300624,13.01068973226316,3.5896026725322105,3643,104,1204,1831,178.74686858678848,102.44831323119276,0.002078261332843384,False
0.36000000000000004,1.0009629357716268,2.0,3986.0,60.3876,0.3,68900.0,0.33,276.0,2700.0,38.386318338865905,6.811821203098606,18391.917248366237,25.169054704178702,10.496194209436371,13.217263634687203,3.6843730063377658,3665,104,1214,1838,176.74677413290348,101.27841352666792,0.0020366156991214615,False
0.37,0.8015879100676402,2.0,3987.0,60.3876,0.2,68900.0,0.33,276.0,2700.0,25.911694374806306,4.687576064217645,12656.455373387642,18.14748646292956,6.194674533105163,7.7642079118767455,1.5070984688875173,6646,122,1786,3641,154.1176949786028,88.80056201140438,0.0015190523243449679,False
0.38,0.7354963731255308,2.0,3988.0,60.3876,0.3,68900.0,0.33,276.0,2700.0,22.095767788023135,4.083272231665877,11024.835025497867,16.040359956263796,5.06551551482857,6.055407831759339,0.9822432831626937,2178,74,722,1089,126.89596030763315,72.57232954566042,0.0013063108794976303,False
0.39,0.9040109904074405,2.0,3989.0,60.3876,0.3,68900.0,0.33,276.0,2700.0,31.40920541071452,6.000557632010468,16201.505606428263,21.62982597645166,8.22948160636053,9.77937943426286,2.228923974350062,2873,90,954,1436,150.75271411329481,86.50785120330603,0.0016728205310379235,False
0.4,0.7522308418706994,2.0,3990.0,60.3876,0.3,68900.0,0.33,276.0,2700.0,22.548837683687594,4.3757262501843535,11814.460875497754,16.563507934166346,5.338309903827941,5.985329749521249,0.9625836536435877,2125,74,704,1063,121.65196944516678,69.82728489028418,0.0012876067537645115,False
0.4100000000000001,0.7598431484376087,2.0,3991.0,60.3876,0.2,68900.0,0.33,276.0,2700.0,22.738070215849632,4.51695658939713,12195.78279137225,16.80381058467145,5.465310108905812,5.934259631178183,0.9483535195086823,5865,108,1464,3295,136.1208438702286,78.45450580131799,0.001304625839214926,False
0.42000000000000004,1.0003575488944663,2.0,3992.0,60.3876,0.3,68900.0,0.33,276.0,2700.0,36.67175082702757,7.545898129329685,20373.92494919015,25.146222110980247,10.480964105748754,11.525528716047326,2.935065976419069,3590,102,1184,1802,153.45140236064805,87.85930665632353,0.001808842834705528,False
0.43,1.0677228320961465,2.0,3993.0,60.3876,0.3,68900.0,0.33,276.0,2700.0,40.86794990804215,8.620090158823084,23274.243428822327,27.74346602607013,12.261788239929075,13.124483881972019,3.641698081105991,3875,108,1292,1929,157.14210110153007,89.89548219640264,0.0019387354840133529,False
0.44,1.0224856289531692,2.0,3994.0,60.3876,0.3,68900.0,0.33,276.0,2700.0,37.57015106383267,8.087024281640868,21834.965560430344,25.9867830705693,11.046679029008182,11.58336799326337,2.9596547473673134,3707,104,1218,1862,149.19319559899162,85.31419335851457,0.0017898437171196488,False
0.45,0.7826552924999339,2.0,3995.0,60.3876,0.2,68900.0,0.33,276.0,2700.0,23.10351660827385,5.007439483156036,13520.086604521297,17.532658078643603,5.856929480580672,5.570858529630247,0.8494899974246364,6385,112,1608,3573,129.28112879029624,74.33814175940407,0.0012578510351727067,False
0.46,1.0920322607516213,2.0,3996.0,60.3876,0.2,68900.0,0.33,276.0,2700.0,41.67088617212052,9.380443777901181,25327.19820033319,28.708712087626708,12.947918250803687,12.96217408449381,3.5674744729025054,10810,158,2664,6100,157.65951405972115,90.41291298767145,0.0019101978221666598,False
0.4700000000000001,0.8940162540370118,2.0,3997.0,60.3876,0.3,68900.0,0.33,276.0,2700.0,28.866051026987527,6.566075608626303,17728.404143291016,21.27840057775258,8.015055491184187,7.587650449234946,1.4489798825578841,2855,86,896,1465,126.76387408324614,72.65031154982638,0.0014160225310301529,False
0.4800000000000001,1.1367557364853802,2.0,3998.0,60.3876,0.3,68900.0,0.33,276.0,2700.0,44.196593665066395,10.375559136452077,28014.009668420607,30.523328948888796,14.272262270795652,13.673264716177599,3.896703134343575,4159,110,1342,2110,154.0957843023335,88.62797846659521,0.001918418874325443,False
0.49,0.8341788817900835,2.0,3999.0,60.3876,0.2,68900.0,0.33,276.0,2700.0,25.04064573004728,5.888554714460127,15899.097729042342,19.226965357038306,6.803636882215699,5.8136803730089746,0.915082167755572,6738,116,1674,3791,127.7480899182809,73.59138751073537,0.0012692857763256019,False
0.5,0.9523498701766662,2.0,4000.0,60.3876,0.3,68900.0,0.33,276.0,2700.0,31.620637998970455,7.643360111943974,20637.07230224873,23.36490603786919,9.316742513067158,8.255731961101265,1.6733824011231846,3204,90,958,1683,138.97344518119058,79.77475169626311,0.0014731927873389995,False
0.01,0.5463318191365042,2.0,4001.0,63.40698,0.05,68900.0,0.33,276.0,2700.0,20.970682816037055,0.10485131968508292,283.0985631497239,10.616199023736467,2.5584542593260604,10.354483792300588,2.4536029396409775,67868,424,22488,34130,3811.7253456228023,2170.353520661689,0.02894113063962775,True
0.02,0.32554215705751044,2.0,4002.0,63.40698,0.08,68900.0,0.33,276.0,2700.0,10.435340602604528,0.10433665086522595,281.7089573361101,5.422638401246635,0.810391634872246,5.012702201357893,0.70605498400702,13315,176,4388,6727,1015.6030971432074,579.4747542437676,0.0071833998889449325,True
0.03,0.6369391877847856,2.0,4003.0,63.40698,0.1,68900.0,0.33,276.0,2700.0,25.358245782029265,0.38031713806252626,1026.8562727688209,13.1020840002288,3.631421931750717,12.256161781800465,3.251104793688191,20587,240,6770,10426,1523.664333973543,867.0511817333559,0.012444797739372867,True
0.04,0.6544001638371229,2.0,4004.0,63.40698,0.1,68900.0,0.33,276.0,2700.0,26.06928095509495,0.5212515778153413,1407.3792601014213,13.604852192898155,3.864575368674717,12.464428762196794,3.3433237908593756,21224,244,6980,10748,1206.2167976548596,687.5044418724341,0.009751838755788625,True
0.05,0.7067074052755161,2.0,4005.0,63.40698,0.1,68900.0,0.33,276.0,2700.0,28.82869659966018,0.7204556156026888,1945.2301621272597,15.156836960450304,4.616497938475682,13.671859639209876,3.8960423228729932,23585,260,7750,11954,1039.9949716332465,592.7636313485644,0.00887686736247084,True
0.06000000000000001,0.4507097922445601,2.0,4006.0,63.40698,0.1,68900.0,0.33,276.0,2700.0,15.044622803562898,0.45088629476477093,1217.3929958648814,8.216510230438336,1.65987452990745,6.828112573124562,1.208988235142679,12518,178,4112,6344,497.3624749285099,284.9254032426118,0.0038645502359313556,True
0.06999999999999999,0.6400509704062167,2.0,4007.0,63.40698,0.2,68900.0,0.33,276.0,2700.0,24.438138792441613,0.8546164802153372,2307.4644965814105,13.191122999152533,3.6723312409430773,11.24701579328908,2.81771476072774,5380,120,1764,2728,591.1762568853641,339.3981416324136,0.005353241645853473,True
0.08,0.5866736657792098,2.0,4008.0,63.40698,0.2,68900.0,0.33,276.0,2700.0,21.29059258050344,0.8505513729277135,2296.4887069048264,11.69752742596944,3.0084052171993125,9.593065154533999,2.157853844271599,4458,108,1456,2268,460.4629055005395,265.09120852408944,0.004182389860142362,True
0.09,0.6995671587796422,2.0,4009.0,63.40698,0.2,68900.0,0.33,276.0,2700.0,27.270289016562256,1.2256361917154373,3309.2177176316804,14.940929201756312,4.509045966216458,12.329359814805944,3.2834097745010213,5594,126,1840,2828,500.2127506697302,286.2806570344522,0.004821431648680712,True
0.09999999999999999,0.46071030574399274,2.0,4010.0,63.40698,0.1,68900.0,0.33,276.0,2700.0,14.624572751154433,0.7291342424553275,1968.6624546293845,8.456718698006753,1.7432428606787127,6.16785405314768,1.0141086182233852,11952,172,3934,6045,288.72414308689133,166.67235644314135,0.0024754665074124926,True
0.11,0.5021483182575086,2.0,4011.0,63.40698,0.08,68900.0,0.33,276.0,2700.0,16.339170474969272,0.8958667362417277,2418.8401878526647,9.478829084823298,2.1147005637018634,6.860341390145974,1.2188338274601356,20524,228,6790,10333,285.63933186522337,164.71873345148362,0.0025320005370261683,True
0.12,0.6846557521086549,2.0,4012.0,63.40698,0.3,68900.0,0.33,276.0,2700.0,25.59645439760009,1.5321681491190702,4136.85400262149,14.49416811814823,4.289593557023031,11.102286279451862,2.757425407903961,2547,82,838,1284,369.40538518137345,213.21847501213793,0.003539969447416998,True
0.13,0.4673358262965618,2.0,4013.0,63.40698,0.2,68900.0,0.33,276.0,2700.0,14.286328338293266,0.9240099559491031,2494.826881062578,8.617245402687992,1.7998042015680826,5.6690829356052745,0.8757942456189796,3082,86,1012,1558,235.01865310985588,135.39114859935125,0.0019847024611968516,False
0.14,0.6616881325957513,2.0,4014.0,63.40698,0.3,68900.0,0.33,276.0,2700.0,23.79273833307932,1.6597446631545831,4481.310590517374,13.816967240269081,3.9644992396080463,9.97577109281024,2.304754576453463,2286,78,750,1155,310.3177091796701,178.58702036306715,0.0029222212604601296,True
0.15000000000000002,0.7695437393994315,2.0,4015.0,63.40698,0.3,68900.0,0.33,276.0,2700.0,29.72096806708866,2.22200402156106,5999.410858214862,17.112145935197685,5.629810607697711,12.608822131890975,3.4078065861366507,3004,92,984,1522,326.07576272614085,188.25961252341457,0.0033788110944819984,True
0.16,0.5810024588592917,2.0,4016.0,63.40698,0.3,68900.0,0.33,276.0,2700.0,19.060819800097512,1.5162869416683995,4093.9747425046785,11.543044761474466,2.942504552312283,7.517775038623046,1.4262176106438835,2059,72,674,1042,242.95196349870503,140.26502219452044,0.0021659509524415204,False
0.17,0.5096905765773627,2.0,4017.0,63.40698,0.2,68900.0,0.33,276.0,2700.0,15.388216049499611,1.2977086010694092,3503.8132228874047,9.669508787858831,2.1869105204247603,5.71870726164078,0.8892019193553511,3328,90,1098,1675,209.6055595841167,120.94947730087085,0.001829865474484395,False
0.18000000000000002,0.5916345068572844,2.0,4018.0,63.40698,0.3,68900.0,0.33,276.0,2700.0,19.135357546202577,1.7099676669210746,4616.912700686901,11.8333226510952,3.066771365335104,7.3020348951073775,1.3568036984140295,2100,72,688,1062,218.1054371518721,125.92174223365116,0.0019924328453982667,False
0.19,0.666383727264473,2.0,4019.0,63.40698,0.3,68900.0,0.33,276.0,2700.0,22.792583715693496,2.1509299969835673,5807.510991855632,13.954338805376535,4.029700421078217,8.838244910316961,1.8787704240946494,2249,76,734,1142,233.15935514271342,134.40611396467173,0.002220955410285196,False
0.2,0.7803501617860983,2.0,4020.0,63.40698,0.3,68900.0,0.33,276.0,2700.0,28.98374331390181,2.881619170570609,7780.371760540644,17.458415174495112,5.816600007401418,11.5253281394067,2.9349808368308095,2983,92,980,1507,257.0398557183681,148.31411588881454,0.002631876636849064,False
0.21000000000000002,0.7431342735633768,2.0,4021.0,63.40698,0.3,68900.0,0.33,276.0,2700.0,26.549590082155085,2.7683107655830215,7474.439067074158,16.27826063008293,5.188937784779493,10.271329452072155,2.4206270191964716,2629,84,862,1330,234.2369374890305,135.2142912182111,0.0023497594152635374,False
0.22,0.7546091179114085,2.0,4022.0,63.40698,0.3,68900.0,0.33,276.0,2700.0,26.948079952171685,2.9419876756886034,7943.366724359229,16.638428100620732,5.377791560142487,10.309651851550953,2.435803884453884,2607,84,856,1317,228.76685873757734,132.0564697963144,0.0022986201952551713,False
0.23,0.6471999502295513,2.0,4023.0,63.40698,0.3,68900.0,0.33,276.0,2700.0,20.82654100854217,2.36956971077153,6397.838219083131,13.396602142493839,3.767368031008119,7.42993886604833,1.3977983202365891,2153,74,708,1085,192.79930995031464,111.18215401349269,0.0018028069054463625,False
0.24000000000000005,0.7778529729151751,2.0,4024.0,63.40698,0.3,68900.0,0.33,276.0,2700.0,27.772269850279763,3.303719464138088,8920.042553172838,17.378137223041403,5.773103314541577,10.39413262723836,2.4693838504034886,2785,88,918,1402,216.13010730807758,124.70233165005287,0.0022136937585095075,False
0.25,0.8580168790619114,2.0,4025.0,63.40698,0.3,68900.0,0.33,276.0,2700.0,32.31958993090326,4.0072238178880175,10819.504308297648,20.03343173446475,7.271553131034598,12.286158196438514,3.2643293131465807,3099,94,1020,1563,226.88371322294665,130.79697615947106,0.0024455832978751094,False
0.26,0.8712738387755005,2.0,4026.0,63.40698,0.3,68900.0,0.33,276.0,2700.0,32.86509906446147,4.235651790060329,11436.259833162889,20.48810937614066,7.540144470382849,12.376989688320808,3.30449268032252,3166,96,1044,1594,220.0790855010676,126.72190220229213,0.00240985504099497,False
0.27,0.647326644229364,2.0,4027.0,63.40698,0.3,68900.0,0.33,276.0,2700.0,19.931023673170948,2.6494642170776723,7153.553386109716,13.400255221013188,3.7690655315247557,6.53076845215776,1.1196013144470833,1982,70,654,995,163.84643033510375,94.4795985429029,0.00156246747221939,False
0.28,0.870576127434372,2.0,4028.0,63.40698,0.3,68900.0,0.33,276.0,2700.0,32.26836893579981,4.471595489724239,12073.307822255445,20.464069660126402,7.525858071215439,11.804299275673412,3.0542625814912006,3199,96,1052,1615,206.11143105754235,118.64511804299431,0.0022494244132737753,False
0.29000000000000004,0.6321778863017515,2.0,4029.0,63.40698,0.3,68900.0,0.33,276.0,2700.0,18.737594063232315,2.665870937016418,7197.851529944329,12.966317554270743,3.569362398325511,5.771276508961572,0.903491461309093,1983,70,652,999,148.460878924515,85.13907699347065,0.0014993762538045613,False
0.3,0.9821193373948449,2.0,4030.0,63.40698,0.3,68900.0,0.33,276.0,2700.0,38.881404473074404,5.775662003196551,15594.287408630687,24.462673825414665,10.028588043471188,14.41873064765974,4.252926040274637,3747,106,1238,1884,214.1831068266242,122.88252056483157,0.002502689659455411,False
0.31,0.8295330364293965,2.0,4031.0,63.40698,0.3,68900.0,0.33,276.0,2700.0,28.991945364788364,4.431357407046803,11964.664999026367,19.071454087114112,6.7146728250838015,9.920491277674252,2.283315418036999,2824,88,936,1414,180.4746004376123,103.95150625122474,0.0019184183701010712,False
0.32,0.6566890910405639,2.0,4032.0,63.40698,0.3,68900.0,0.33,276.0,2700.0,19.326805168853713,3.0236596883013744,8163.881158413711,13.671327226124296,3.895791938097546,5.6554779427294175,0.8721322497961714,1943,70,642,974,140.15803223151357,80.43052942275114,0.0013843406642921531,False
0.33,0.9994670755178405,2.0,4033.0,63.40698,0.3,68900.0,0.33,276.0,2700.0,39.15749885924786,6.385721034981195,17241.446794449228,25.112654018017615,10.458587011661594,14.044844841230244,4.072865976680399,3740,106,1236,1880,200.5512081170271,115.20138805645111,0.0023521583264827944,False
0.34,0.6808228276192456,2.0,4034.0,63.40698,0.3,68900.0,0.33,276.0,2700.0,20.12285068328405,3.3385665110537794,9014.129579845205,14.380232595930124,4.234256976153014,5.742618087353925,0.8956904650992343,2077,72,682,1048,136.40003341726637,78.33934881104531,0.00137137272981949,False
0.3500000000000001,0.7994244878523042,2.0,4035.0,63.40698,0.3,68900.0,0.33,276.0,2700.0,26.262594389633602,4.506156828170773,12166.623436061087,18.07677438959137,6.155490368981086,8.18582000004223,1.6493335408103134,2562,84,846,1287,157.06804194223662,90.39897489710292,0.0016461795471969696,False
0.36000000000000004,1.0237456036401322,2.0,4036.0,63.40698,0.3,68900.0,0.33,276.0,2700.0,39.9121061891304,7.086463016146219,19133.45014359479,26.03501499059797,11.079452099182408,13.87709119853243,3.992989083036189,3755,106,1244,1883,188.86201737128482,108.10738715663591,0.002250249255327708,False
0.37,0.6949356902137873,2.0,4037.0,63.40698,0.3,68900.0,0.33,276.0,2700.0,20.211627304677066,3.6330636562436287,9809.271871857798,14.801567338899616,4.440170455389315,5.4100599657774495,0.8071067991456862,1979,70,658,986,130.41888149191357,74.58047496050524,0.0013131898250585137,False
0.38,0.9411096433704107,2.0,4038.0,63.40698,0.3,68900.0,0.33,276.0,2700.0,33.96376671641692,6.338192028060698,17113.118475763884,22.956208192169157,9.056415572427941,11.007558524247763,2.718223544367243,3071,94,1022,1532,168.2337340641019,96.4517569307764,0.0019066786026936268,False
0.39,0.9185841332884167,2.0,4039.0,63.40698,0.3,68900.0,0.33,276.0,2700.0,32.30017506884755,6.1742967153463795,16670.601131435225,22.14673209615692,8.54845614203716,10.15344297269063,2.374159426690781,3096,94,1030,1545,162.4635382084349,93.14213038905163,0.001804443832306013,False
0.4,0.9512256488494726,2.0,4040.0,63.40698,0.3,68900.0,0.33,276.0,2700.0,34.069080055054435,6.679774724457287,18035.391756034674,23.323886117780738,9.29049824810149,10.745193937273697,2.6107235236442037,3100,94,1030,1549,166.3353603794375,95.54810224284877,0.0018514420963986668,False
0.4100000000000001,0.8637271097406352,2.0,4041.0,63.40698,0.1,68900.0,0.33,276.0,2700.0,28.51745582775222,5.701730639837164,15394.672727560343,20.228735577657595,7.3865058725638315,8.288720250094624,1.6847752327266674,45475,252,7632,28549,155.2399752630056,89.40083145866215,0.0016225553495761043,False
0.42000000000000004,0.834886759151616,2.0,4042.0,63.40698,0.3,68900.0,0.33,276.0,2700.0,26.627390901782036,5.436582545028193,14678.77287157612,19.250707895058806,6.817255618383223,7.37668300672323,1.3806730733550303,2744,84,886,1391,140.5779092386345,80.68175339076396,0.0014983497175599361,False
0.43,0.9818161368751666,2.0,4043.0,63.40698,0.3,68900.0,0.33,276.0,2700.0,35.21217996574224,7.404099621228604,19991.06897731723,24.451380845647478,10.021172660131642,10.76079912009476,2.6170730389030377,3347,98,1118,1664,155.33941206788066,89.03533666446394,0.0018131946660501688,False
0.44,0.8535040023397271,2.0,4044.0,63.40698,0.3,68900.0,0.33,276.0,2700.0,27.22457253985015,5.81099700636436,15689.691917183773,19.879660079879404,7.1814918920501425,7.344912459970747,1.3704948856857824,2797,84,882,1434,136.9318553198179,78.52070698556174,0.0014743836027607093,False
0.45,0.8770073661854989,2.0,4045.0,63.40698,0.3,68900.0,0.33,276.0,2700.0,28.34334767961345,6.186401474207323,16703.283980359774,20.686122021088057,7.658180867781795,7.657225658525395,1.4717793935744714,2814,86,894,1437,135.79053040050337,77.86630465831952,0.0015008141180998967,False
0.46,1.0549892552813782,2.0,4046.0,63.40698,0.2,68900.0,0.33,276.0,2700.0,39.16928990917316,8.805076637423287,23773.706921042874,27.243785733864982,11.911700367110617,11.925504175308177,3.10662372968733,10303,154,2562,5798,161.7866822596036,92.59653482685611,0.0019110001111844919,False
0.4700000000000001,0.9847191134392055,2.0,4047.0,63.40698,0.3,68900.0,0.33,276.0,2700.0,34.357031856835526,7.8564561036405784,21212.431479829564,24.55959969378071,10.092311472837254,9.797432163054815,2.235855369196676,3309,96,1084,1661,146.75925952469578,83.80888427983827,0.0016755308689701898,False
0.4800000000000001,0.7915990136368347,2.0,4048.0,63.40698,0.1,68900.0,0.33,276.0,2700.0,22.957766004277623,5.278240497862762,14251.249344229458,17.821978814805217,6.015028988866057,5.135787189472406,0.7367884910032947,40301,216,6072,25889,139.04268078000365,77.96561420629814,0.0012846909574894345,False
0.49,0.8517863033351218,2.0,4049.0,63.40698,0.2,68900.0,0.33,276.0,2700.0,26.012410325266988,6.126637040288955,16541.92000878018,19.82126573315028,7.147394782288765,6.191144592116707,1.0207577419998097,6786,118,1678,3823,134.1632346305914,77.29625846558456,0.001369725378906356,False
0.5,0.8475573424038596,2.0,4050.0,63.40698,0.2,68900.0,0.33,276.0,2700.0,25.56331836397531,6.129030203194676,16548.381548625628,19.67781534956666,7.063874905330605,5.885503014408648,0.934844702135929,6742,116,1666,3801,133.50126553200155,76.68932105260424,0.0013383365575833047,False
0.01,0.35758495301925763,2.0,4051.0,66.42636,0.05,68900.0,0.33,276.0,2700.0,11.98646030967382,0.05993020715326703,161.811559313821,6.100369139835569,0.9949374197689714,5.886091169838251,0.9350072126157044,38056,304,12622,19117,2512.5899870719436,1430.7159047785624,0.016465506581689413,True
0.02,0.4053139560491814,2.0,4052.0,66.42636,0.08,68900.0,0.33,276.0,2700.0,13.865408618264377,0.13863733102182507,374.3207937589277,7.15772124889063,1.3111074155624718,6.707687369373747,1.1724700845406466,17630,208,5808,8912,1368.4096761603084,779.6549471329143,0.009875336143490522,True
0.03,0.3444122426639061,2.0,4053.0,66.42636,0.1,68900.0,0.33,276.0,2700.0,11.011902232349376,0.1651219848174758,445.8293590071847,5.818632165176732,0.9164394310381999,5.193270067172644,0.7513174462207242,9068,146,2972,4604,756.8941472086786,432.2343630351303,0.005506432218388369,True
0.04,0.34946632536511385,2.0,4054.0,66.42636,0.08,68900.0,0.33,276.0,2700.0,11.018555287009,0.2202370644536262,594.6400740247907,5.926212893771244,0.9461188697716978,5.0923423932377565,0.7258818053180716,14495,184,4754,7358,614.9555595612103,352.43134181427354,0.004289912458002771,True
0.05,0.496459724027361,2.0,4055.0,66.42636,0.1,68900.0,0.33,276.0,2700.0,17.451144951404913,0.4360168243973238,1177.2454258727744,9.335958622155003,2.061186102849429,8.11518632924991,1.6251692784521055,14390,194,4728,7292,716.4181031347198,409.88831665540056,0.005419407003494711,True
0.06000000000000001,0.7575598336956432,2.0,4056.0,66.42636,0.2,68900.0,0.33,276.0,2700.0,31.61204096756518,0.947908839684836,2559.353867149057,16.731578793073822,5.4270242093658645,14.880462174491356,4.479115369681028,6133,136,2016,3103,815.9623085450038,465.9632274795571,0.0087716441981022,True
0.06999999999999999,0.6988328031315892,2.0,4057.0,66.42636,0.2,68900.0,0.33,276.0,2700.0,27.790071038049703,0.9719341088116206,2624.2220937913758,14.91879632263586,4.49808213800109,12.871274715413843,3.526148029189469,5457,126,1798,2754,668.0643068626168,381.61594025082996,0.006501389961923528,True
0.08,0.4327289046065963,2.0,4058.0,66.42636,0.2,68900.0,0.33,276.0,2700.0,13.786939606477803,0.5504052539666877,1486.0941857100568,7.790938785113893,1.5159726344934155,5.996000821363911,0.9655673805267277,3078,86,1004,1566,367.84997916144016,212.29918556305873,0.0029458029802454416,True
0.09,0.4505021077420449,2.0,4059.0,66.42636,0.2,68900.0,0.33,276.0,2700.0,14.374899227480437,0.6453436512069721,1742.4278582588247,8.211548370757564,1.6581686033375322,6.163350856722873,1.0128249521305601,3211,88,1050,1630,345.60069846122093,199.53147896053522,0.0027806441375832175,True
0.09999999999999999,0.507179809412295,2.0,4060.0,66.42636,0.2,68900.0,0.33,276.0,2700.0,16.806092844014454,0.83821024709833,2263.167667165491,9.605874044972884,2.1627125544189423,7.20021879904157,1.3245023073206124,3615,94,1180,1839,339.70056321067904,196.05986624624524,0.0029383960150477246,True
0.11,0.4862377555780982,2.0,4061.0,66.42636,0.2,68900.0,0.33,276.0,2700.0,15.588048862698951,0.8545550475671564,2307.2986284313224,9.0812750956841,1.9670581488368264,6.506773767014851,1.11250310126967,3380,90,1110,1709,301.2286625895569,173.82993813807013,0.0025466717025703894,True
0.12,0.46081243020656487,2.0,4062.0,66.42636,0.2,68900.0,0.33,276.0,2700.0,14.20158302185795,0.8484758665745409,2290.88483975126,8.459184653168645,1.744106624445812,5.7423983686893045,0.8956307578712712,3092,86,1012,1568,263.43556333649343,152.0928182839918,0.0021979930723511126,False
0.13,0.8234658657621261,2.0,4063.0,66.42636,0.3,68900.0,0.33,276.0,2700.0,33.62663601383426,2.1811299548592706,5889.050878120031,18.86918330862647,6.599577131685029,14.757452705207786,4.418447176825758,3362,98,1100,1706,416.6915770516917,240.57527569124605,0.004588529231727308,True
0.14,0.4747371969032296,2.0,4064.0,66.42636,0.2,68900.0,0.33,276.0,2700.0,14.412355263869024,1.0031178483098648,2708.418190436635,8.79787444141805,1.8642512304601355,5.6144808224509735,0.8611333821502707,3054,86,1004,1542,235.1470810365493,135.47952876714888,0.0019831108793053956,False
0.15000000000000002,0.8128956501345583,2.0,4065.0,66.42636,0.3,68900.0,0.33,276.0,2700.0,32.371238130589994,2.4207742763236695,6536.090546073908,18.518997393519086,6.401979039202927,13.852240737070908,3.9812047628792575,3256,96,1066,1651,362.72475071208197,209.41061877709268,0.003849739607999481,True
0.16,0.6487266561882334,2.0,4066.0,66.42636,0.3,68900.0,0.33,276.0,2700.0,22.583694811877713,1.7981169426108152,4854.915745049201,13.440649845475841,3.7878543198175705,9.143044966401872,1.9897373772067553,2314,78,758,1171,278.07144451572145,160.54192463155331,0.0026301972251065167,True
0.17,0.79388465390181,2.0,4067.0,66.42636,0.3,68900.0,0.33,276.0,2700.0,30.627439720440705,2.5930426130993998,7001.21505536838,17.8962396006804,6.055848462959674,12.731200119760306,3.4628058498602745,3006,94,988,1518,314.1569600388592,181.36758934065122,0.00328911529609845,True
0.18000000000000002,0.8184753148697346,2.0,4068.0,66.42636,0.3,68900.0,0.33,276.0,2700.0,31.849506515488006,2.8542410741567092,7706.450900223115,18.703498955248058,6.505823200502681,13.146007560239948,3.6515821263459713,3271,96,1072,1657,306.4335656456471,176.89290073515417,0.003258316180724927,True
0.19,0.8339259843204256,2.0,4069.0,66.42636,0.3,68900.0,0.33,276.0,2700.0,32.52082705033439,3.075113113774456,8302.805407191032,19.21848611088594,6.79877550355153,13.302340939448449,3.723662389777074,3263,96,1068,1655,295.73938409298887,170.7186918518358,0.0031815781455492792,True
0.2,0.5106910098279829,2.0,4070.0,66.42636,0.2,68900.0,0.33,276.0,2700.0,14.812185004928649,1.46446333967372,3954.0510171190444,9.694908651397016,2.1965969218702033,5.117276353531633,0.7321335821964832,3266,90,1078,1643,181.73189245927324,104.83556441353673,0.001586411664226893,False
0.21000000000000002,0.6871024302507511,2.0,4071.0,66.42636,0.3,68900.0,0.33,276.0,2700.0,23.422977670670676,2.440016462377157,6588.044448418324,14.567089873393572,4.32514529870257,8.855887797277104,1.8851288363254133,2375,78,780,1199,227.41324713434526,131.1979820397282,0.0022136761772121017,False
0.22,0.5972576276163546,2.0,4072.0,66.42636,0.3,68900.0,0.33,276.0,2700.0,18.517241349174075,2.0145954293588657,5439.407659268937,11.987994627492663,3.1337460648000626,6.529246721681412,1.1191506354411969,1958,68,644,986,193.45342121596153,111.69017331317247,0.001772115254915298,False
0.23,0.7590662755636473,2.0,4073.0,66.42636,0.3,68900.0,0.33,276.0,2700.0,26.945129621592518,3.0732074012723194,8297.659983435262,16.7792198008044,5.452265237221854,10.16590982078812,2.379057835949535,2617,84,860,1321,230.6069658320324,133.10245132384455,0.002331581125916206,False
0.24000000000000005,0.6194246831245055,2.0,4074.0,66.42636,0.3,68900.0,0.33,276.0,2700.0,19.1825571335933,2.272953938135713,6136.975632966425,12.605472399424091,3.406305626149251,6.577084734169208,1.133351688013538,1906,68,630,955,187.8848752101656,108.23857037293332,0.001717170940487938,False
0.25,0.8737618134984972,2.0,4075.0,66.42636,0.3,68900.0,0.33,276.0,2700.0,33.301662923205306,4.129982941925769,11150.953943199578,20.573932400973,7.591225099135937,12.727730522232306,3.461242157210168,3231,98,1066,1626,240.89386340284557,138.87125854017853,0.0026309246960065707,False
0.26,0.6734792003437049,2.0,4076.0,66.42636,0.3,68900.0,0.33,276.0,2700.0,21.507314191450085,2.7591397565688474,7449.677342735888,14.162971149297519,4.1294524808259965,7.344343042152566,1.3703127242571491,2274,76,744,1152,185.58985458047286,107.13012307385551,0.0017829134353621913,False
