thickness,radius,length,exp_index,pressure,mesh_length,youngs_modulus,poisson_ratio,tensile_strength,density,body_area,body_volume,body_mass,outer_area,outer_volume,inner_area,inner_volume,node_count,edge_count,face_count,volume_count,vonmises_stress,tresca_stress,max_displacement,has_failed
0.01,0.37127551323596814,2.0,4101.0,69.44574,0.05,68900.0,0.33,276.0,2700.0,12.577888065802078,0.06288734593390882,169.79583402155382,6.397803424435713,1.0804855375094224,6.180084641366365,1.0175981915755137,40695,314,13486,20460,2716.1877344666923,1544.501304418774,0.0180371447616324,True
0.02,0.7122888365853869,2.0,4102.0,69.44574,0.1,68900.0,0.33,276.0,2700.0,30.048666371298573,0.30046990855216554,811.268753090847,15.326501327770057,4.70156790368847,14.722165043528516,4.401097995136304,23670,264,7856,11880,2618.7077128123,1491.274662206801,0.02485087414889263,True
0.03,0.6753992502658597,2.0,4103.0,69.44574,0.1,68900.0,0.33,276.0,2700.0,27.564369631530955,0.4134089958052018,1116.2042886740448,14.219645026949438,4.156700485990823,13.344724604581517,3.7432914901856216,22190,252,7294,11243,1758.0485870162079,1002.1437090217939,0.01505622741053017,True
0.04,0.4244924157126298,2.0,4104.0,69.44574,0.1,68900.0,0.33,276.0,2700.0,14.288127507379162,0.2856285088610302,771.1969739247816,7.598711230238457,1.4525954640436922,6.689416277140705,1.166966955182662,11761,172,3860,5965,775.0066298299965,443.26068551156993,0.005705994661628666,True
0.05,0.6436657845408955,2.0,4105.0,69.44574,0.1,68900.0,0.33,276.0,2700.0,25.183965211157158,0.6293373308911292,1699.2107934060489,13.294861047685766,3.720202096767386,11.889104163471393,3.090864765876257,20699,240,6802,10490,1019.7290435150235,582.4152913839215,0.008284078718077225,True
0.06000000000000001,0.7406621181481109,2.0,4106.0,69.44574,0.2,68900.0,0.33,276.0,2700.0,30.576562453769583,0.9168444842709692,2475.480107531617,16.201098958809645,5.14879080407707,14.375463494959938,4.2319463198061005,6174,136,2028,3126,841.363398315538,480.177296788486,0.008816447900520935,True
0.06999999999999999,0.533440576887708,2.0,4107.0,69.44574,0.2,68900.0,0.33,276.0,2700.0,18.80201949226056,0.6573523047089994,1774.8512227142985,10.279283948921265,2.423774379737167,8.522735543339294,1.7664220750281676,4018,102,1316,2038,525.2934773388354,303.21141867555576,0.004855148892959308,True
0.08,0.4661969546865928,2.0,4108.0,69.44574,0.2,68900.0,0.33,276.0,2700.0,15.316917892241149,0.6116043853972203,1651.3318405724947,8.589573681679177,1.790006025785287,6.727344210561972,1.1784016403880666,3439,92,1120,1753,408.0578567307831,235.1655045799128,0.003388981580263703,True
0.09,0.4602285099249012,2.0,4109.0,69.44574,0.2,68900.0,0.33,276.0,2700.0,14.8199789192569,0.6653722373369142,1796.5050408096683,8.44508851835741,1.7391712508869783,6.37489040089949,1.0737990135500641,3196,88,1046,1621,360.9114299956215,208.35506501708596,0.0029884232654127886,True
0.09999999999999999,0.6685747252609497,2.0,4110.0,69.44574,0.2,68900.0,0.33,276.0,2700.0,25.225969020970265,1.2592040559461193,3399.8509510545223,14.01862696623354,4.0603447550302905,11.207342054736724,2.801140699084171,5204,120,1710,2633,484.3801626255559,278.4971810525848,0.0044466319382699265,True
0.11,0.696723857282072,2.0,4111.0,69.44574,0.3,68900.0,0.33,276.0,2700.0,26.554208012929923,1.45769380082986,3935.7732622406224,14.855309770749804,4.4666861689118535,11.69889824218012,3.0089923680819934,2719,86,888,1381,444.2401675952511,256.45805748302496,0.004309311708913784,True
0.12,0.4586333627483695,2.0,4112.0,69.44574,0.2,68900.0,0.33,276.0,2700.0,14.103034684142782,0.8425629663116317,2274.9200090414056,8.406624527998257,1.7257307781449909,5.696410156144525,0.8831678118333591,3087,86,1012,1563,274.2287805816135,158.08503411038197,0.0022843925442401153,False
0.13,0.5961223494351369,2.0,4113.0,69.44574,0.3,68900.0,0.33,276.0,2700.0,20.544465251893588,1.3307888553331257,3593.1299093994394,11.956703152874384,3.1201541213916504,8.587762099019203,1.7893652660585246,2203,74,722,1114,330.5132928011361,190.81689224008161,0.0029808205457217056,True
0.14,0.7855907619972576,2.0,4114.0,69.44574,0.3,68900.0,0.33,276.0,2700.0,30.977634164749713,2.162687371371512,5839.255902703082,17.62739604666569,5.908535060807737,13.350238118084022,3.7458476894362254,3042,94,1000,1536,390.69547233839404,225.54408124633423,0.004078433417404285,True
0.15000000000000002,0.7761217894613273,2.0,4115.0,69.44574,0.3,68900.0,0.33,276.0,2700.0,30.117030105106597,2.2517086744123853,6079.613420913441,17.322576286456272,5.743066674875864,12.794453818650325,3.491358000463479,3077,94,1010,1556,362.401350383858,209.23206790075858,0.003749477683941518,True
0.16,0.5642330506171259,2.0,4116.0,69.44574,0.3,68900.0,0.33,276.0,2700.0,18.224120064141914,1.4493509627919516,3913.2475995382692,11.090977997663941,2.752734845106226,7.133142066477973,1.3033838823142745,1890,68,614,963,263.15329265284055,151.92834561969252,0.0022908422404340424,False
0.17,0.5403236853887554,2.0,4117.0,69.44574,0.3,68900.0,0.33,276.0,2700.0,16.83562774366511,1.4207385950731313,3835.9942066974545,10.458655624668113,2.495144440836995,6.3769721189969975,1.0744058457638639,1709,64,560,863,233.3376846220826,134.17225085667107,0.002051313245645289,False
0.18000000000000002,0.6382447933387931,2.0,4118.0,69.44574,0.3,68900.0,0.33,276.0,2700.0,21.53667690401821,1.9260864091244847,5200.433304636109,13.13941231418928,3.6485524487557988,8.397264589828932,1.722466039631314,2294,76,746,1169,259.32645893538756,149.7174335200281,0.0024144150476582823,False
0.19,0.8410027273377756,2.0,4119.0,69.44574,0.3,68900.0,0.33,276.0,2700.0,32.96279137936403,3.1170997250322685,8416.169257587126,19.456364780745492,6.935620751783891,13.506426598618535,3.8185210267516227,3191,96,1048,1613,312.74352862549256,180.5305717206691,0.003367264025742038,True
0.2,0.8683650460844891,2.0,4120.0,69.44574,0.3,68900.0,0.33,276.0,2700.0,34.400436795448314,3.4232885187252537,9242.879000558185,20.387967446403106,7.480694505180105,14.012469349045208,4.057405986454851,3276,98,1076,1656,306.64098322440583,176.84204456909103,0.003357462844419938,True
0.21000000000000002,0.8539739419832098,2.0,4121.0,69.44574,0.3,68900.0,0.33,276.0,2700.0,33.199368667810994,3.4665375170768935,9359.651296107613,19.89564891685951,7.19083788909704,13.303719750951483,3.724300372020146,3224,96,1060,1628,288.08329682856623,166.26489145201546,0.003131968469420008,True
0.22,0.5523129948385529,2.0,4122.0,69.44574,0.3,68900.0,0.33,276.0,2700.0,16.337633443562336,1.7748385597415748,4792.064111302252,10.773936673912122,2.6224228911304786,5.563696769650214,0.8475843313889038,1609,62,532,805,188.1280991411234,108.57710326147765,0.001674018665544046,False
0.23,0.9040587838561107,2.0,4123.0,69.44574,0.3,68900.0,0.33,276.0,2700.0,35.81158135726555,4.092849350874723,11050.693247361753,21.63151247560791,8.230515410639658,14.180068881657643,4.137666059764935,3371,100,1108,1703,279.14455390730893,160.92251990013202,0.0031174562355401458,True
0.24000000000000005,0.8930184053932502,2.0,4124.0,69.44574,0.3,68900.0,0.33,276.0,2700.0,34.808239909213526,4.148035871210065,11199.696852267176,21.24345301406401,7.9938403062966925,13.564786895149517,3.8458044350866274,3239,98,1066,1634,265.7526382468703,153.1249923853281,0.002945648989948506,False
0.25,0.883896385062411,2.0,4125.0,69.44574,0.3,68900.0,0.33,276.0,2700.0,33.94038745107569,4.209823507909547,11366.523471355778,20.925133360480647,7.801510544941579,13.015254090595047,3.591687037032032,3278,98,1076,1658,254.08821533998702,146.42206837152904,0.0027946553909204883,False
0.26,0.8180593111983657,2.0,4126.0,69.44574,0.3,68900.0,0.33,276.0,2700.0,29.616043436231593,3.813274558390446,10295.841307654204,18.68971605836912,6.498045343288006,10.92632737786247,2.68477078489756,2956,90,978,1483,231.5170846204558,133.5265984161081,0.0024228816429860576,False
0.27,0.712925949732973,2.0,4127.0,69.44574,0.3,68900.0,0.33,276.0,2700.0,23.377202995716395,3.114698425621305,8409.685749177524,15.345918082236699,4.7113388039840265,8.031284913479697,1.5966403783627214,2303,78,756,1163,198.18144654092302,114.33294508536004,0.0019407396199055246,False
0.28,0.6477275909115117,2.0,4128.0,69.44574,0.3,68900.0,0.33,276.0,2700.0,19.732089553285114,2.7165163761721836,7334.594215664895,13.411818724641185,3.7744406374347648,6.320270828643929,1.0579242612625812,1987,70,658,994,174.92528786029234,100.91355295866747,0.0016634900709805401,False
0.29000000000000004,0.8055868728994938,2.0,4129.0,69.44574,0.3,68900.0,0.33,276.0,2700.0,28.098075192075054,4.023140700698619,10862.47989188627,18.27850338079194,6.267507488917376,9.819571811283115,2.2443667882187572,2629,86,868,1321,206.5999778345494,119.0599186971762,0.0021420922070594906,False
0.3,0.9902281832766224,2.0,4130.0,69.44574,0.3,68900.0,0.33,276.0,2700.0,39.426022284289054,5.857354674878747,15814.857622172616,24.765552359803525,10.228178976357759,14.660469924485529,4.370824301479012,3751,106,1238,1888,237.40273687074495,136.30702653459656,0.0027719400731866664,False
0.31,0.8714390300164838,2.0,4131.0,69.44574,0.3,68900.0,0.33,276.0,2700.0,31.5101470150013,4.821678662829813,13018.532389640495,20.49380284859787,7.543529396842578,11.016344166403432,2.721850734012765,2957,92,980,1481,206.65196513218856,118.86930331115748,0.0022489883877345835,False
0.32,0.7946715477322113,2.0,4132.0,69.44574,0.3,68900.0,0.33,276.0,2700.0,26.718102512699076,4.206267263316631,11356.921610954903,17.921836278548415,6.0699409734022955,8.79626623415066,1.8636737100856644,2560,84,846,1285,183.5638871724992,105.72820588943553,0.0019327913916632104,False
0.33,1.0188106663102046,2.0,4133.0,69.44574,0.3,68900.0,0.33,276.0,2700.0,40.46442514287871,6.6013638717802845,17823.682453806767,25.84633314103312,10.951436750083307,14.61809200184559,4.350072878303022,3899,108,1286,1964,221.69195765837102,127.21086983384573,0.0026477867143000944,False
0.34,0.9307925891237583,2.0,4134.0,69.44574,0.3,68900.0,0.33,276.0,2700.0,34.39410491948656,5.7646797312082505,15564.635274262277,22.583872020283927,8.821498133442532,11.810232899202632,3.0568184022342813,3313,98,1096,1663,201.9029564768318,115.90387315635704,0.002271210022341474,False
0.3500000000000001,0.9862423683175459,2.0,4135.0,69.44574,0.2,68900.0,0.33,276.0,2700.0,37.698648105574044,6.507466228460352,17570.15881684295,24.61646920072194,10.129765308855369,13.082178904852103,3.622299080395017,7509,148,2348,3871,212.19124227745854,121.68778869139263,0.0024019975696662897,False
0.36000000000000004,0.8514926820936557,2.0,4136.0,69.44574,0.3,68900.0,0.33,276.0,2700.0,29.023166526023985,5.126453876787058,13841.425467325056,19.81129130048346,7.141576302042435,9.211875225540524,2.0151224252553774,2807,88,928,1409,176.60707753113516,101.47050854164716,0.0019046748619880895,False
0.37,0.916543983784635,2.0,4137.0,69.44574,0.3,68900.0,0.33,276.0,2700.0,32.695826060394005,5.942640426051369,16045.129150338696,22.074047137602168,8.503347659416445,10.621778922791837,2.5607072333650756,3102,94,1030,1551,183.3258377835964,104.93919919683017,0.002061604123013485,False
0.38,0.6818571408090437,2.0,4138.0,69.44574,0.2,68900.0,0.33,276.0,2700.0,19.349209589534787,3.561426173953091,9615.850669673346,14.410941677371323,4.249146519485697,4.9382679121634645,0.6877203455326057,5109,102,1330,2826,155.51424951172885,89.67272965416,0.001404003730749744,False
0.39,0.8660811474864258,2.0,4139.0,69.44574,0.3,68900.0,0.33,276.0,2700.0,29.14030897120574,5.558122826306254,15006.931631026884,20.30948797593621,7.434220099438918,8.83082099526953,1.8760972731326646,2800,88,930,1399,166.32932762268655,95.4909835000523,0.0018230235648012373,False
0.4,0.7207339509209632,2.0,4140.0,69.44574,0.3,68900.0,0.33,276.0,2700.0,20.907872100017283,4.047533133450291,10928.339460315787,15.584704500381413,4.832090975958077,5.32316759963587,0.7845578425077857,2130,72,712,1056,134.56538104008735,76.97553187698573,0.0014028150879471153,False
0.4100000000000001,0.8561415830710322,2.0,4141.0,69.44574,0.2,68900.0,0.33,276.0,2700.0,28.07709072863024,5.611455794517158,15150.930645196328,19.969470786928117,7.2340445034860155,8.107619941702122,1.6225887089688573,7521,126,1864,4239,169.0021197779628,97.29521224411582,0.001748194650137257,False
0.42000000000000004,0.7933423290534254,2.0,4142.0,69.44574,0.3,68900.0,0.33,276.0,2700.0,24.321722797139557,4.952392243053202,13371.459056243646,17.8786075063953,6.046147669027081,6.443115290744256,1.093755425973879,2301,78,766,1144,144.71268154242787,83.15363924020096,0.0015266915195851485,False
0.43,0.7771839023523182,2.0,4143.0,69.44574,0.2,68900.0,0.33,276.0,2700.0,23.234204969244686,4.8288349969817075,13037.85449185061,17.356655012975597,5.7614833016728415,5.877549956269089,0.932648304691134,6354,112,1598,3553,152.21484189811414,87.70401417354313,0.001487146509075071,False
0.44,0.8033168907244461,2.0,4144.0,69.44574,0.2,68900.0,0.33,276.0,2700.0,24.428408363481793,5.195840887563734,14028.770396422082,18.204083260061893,6.226100102727927,6.2243251034199005,1.0302592151641932,6622,116,1656,3716,152.72232209999157,88.08147980678186,0.0015221138437033841,False
0.45,0.7958563659615253,2.0,4145.0,69.44574,0.2,68900.0,0.33,276.0,2700.0,23.809712425289213,5.166333541984489,13949.10056335812,17.960406298882862,6.091197937476015,5.849306126406351,0.9248643954915261,6329,112,1568,3567,150.86491922315835,86.94375911138665,0.001477970718573822,False
0.46,1.1557137517554235,2.0,4146.0,69.44574,0.3,68900.0,0.33,276.0,2700.0,46.13264699883511,10.406648768045535,28097.951673722946,31.307705300909234,14.858344846095505,14.82494169792588,4.45169607804997,4483,116,1476,2245,182.2509480998771,103.4581928254449,0.002347829351843499,False
0.4700000000000001,0.9587379446632458,2.0,4147.0,69.44574,0.3,68900.0,0.33,276.0,2700.0,32.74191883456407,7.476904543406788,20187.642267198327,23.598593354603512,9.466745133231466,9.143325479960556,1.989840589824678,3384,96,1084,1718,156.11707757307494,89.88583816080609,0.0017861038127412977,False
0.4800000000000001,0.8493103486938014,2.0,4148.0,69.44574,0.3,68900.0,0.33,276.0,2700.0,26.092044131352655,6.030467248360767,16282.261570574072,19.737224450330874,7.098422300391772,6.35481968102178,1.0679550520310048,2597,80,826,1322,141.87396301756252,81.91001695299336,0.0015044393032266508,False
0.49,0.7997949506578879,2.0,4149.0,69.44574,0.2,68900.0,0.33,276.0,2700.0,23.187904064048304,5.434633006289971,14673.509116982921,18.088874725363603,6.162189382793682,5.099029338684701,0.7275563765037107,6492,112,1596,3670,138.96785286446104,79.97422326889682,0.0013956025086318614,False
0.5,0.998304327889033,2.0,4150.0,69.44574,0.3,68900.0,0.33,276.0,2700.0,34.45104923282256,8.350962920406497,22547.59988509754,25.068852028292344,10.429412801371342,9.382197204530218,2.078449880964845,3723,96,1084,1979,163.71603544548248,93.89853156143933,0.001800144876580046,False
0.01,0.6795289117281236,2.0,4151.0,72.46512,0.08,68900.0,0.33,276.0,2700.0,28.38851605967544,0.14194048590327288,383.23931193883675,14.341853685858274,4.215674998756837,14.046662373817165,4.073734512853564,35696,320,11892,17852,4828.210806934899,2770.929476518173,0.048184764065936865,True
0.02,0.4867370648934891,2.0,4152.0,72.46512,0.1,68900.0,0.33,276.0,2700.0,17.69634747769524,0.1769467196161337,477.756142963561,9.09365453785228,1.9715956044124103,8.60269293984296,1.7946488847962767,14120,194,4682,7091,1689.1583412999562,961.7436581756515,0.01376267516607509,True
0.03,0.6654863386609466,2.0,4153.0,72.46512,0.1,68900.0,0.33,276.0,2700.0,26.98863873365059,0.4047730323369944,1092.887187309885,13.928042498376412,4.017189756981198,13.060596235274177,3.6124167246442034,21154,246,6972,10690,1748.725665911752,995.2712183397616,0.015327702875421352,True
0.04,0.6287836655400485,2.0,4154.0,72.46512,0.1,68900.0,0.33,276.0,2700.0,24.62509044165077,0.4923677675464611,1329.392972375445,12.86988067971834,3.525515599999922,11.755209761932429,3.033147832453461,19406,234,6384,9824,1260.5915460522758,718.7053866100978,0.01040436786514683,True
0.05,0.487686329202458,2.0,4155.0,72.46512,0.1,68900.0,0.33,276.0,2700.0,17.0246667875639,0.4253548703012988,1148.458149813507,9.117207053688702,1.980239063093108,7.907459733875196,1.5548841927918091,13523,188,4436,6863,749.4660815906728,428.4257091017207,0.005777730451413221,True
0.06000000000000001,0.7595573174275908,2.0,4156.0,72.46512,0.2,68900.0,0.33,276.0,2700.0,31.73539375677825,0.9516094233612307,2569.3454430753227,16.794761254932666,5.460508352092683,14.940632501845585,4.508898928731452,6092,136,2004,3080,892.6306879297354,509.73566833183924,0.009612839765220265,True
0.06999999999999999,0.5238912539252779,2.0,4157.0,72.46512,0.1,68900.0,0.33,276.0,2700.0,18.32505853541505,0.6406586712194073,1729.7784122923997,10.032403447296165,2.326794772104385,8.292655088118885,1.6861361008849776,14894,198,4884,7562,576.4352419045081,330.20334407305126,0.004648001542014975,True
0.08,0.5008902262421504,2.0,4158.0,72.46512,0.1,68900.0,0.33,276.0,2700.0,16.962339058435674,0.6774212320450023,1829.0373265215062,9.447161745431782,2.102795248898956,7.515177313003893,1.425374016853954,13627,188,4478,6904,463.532253883422,266.0671469173336,0.003876385752969874,True
0.09,0.6920099083809113,2.0,4159.0,72.46512,0.2,68900.0,0.33,276.0,2700.0,26.833140314279184,1.2059645001129193,3256.1041503048823,14.713807801774696,4.396992733655386,12.119332512504489,3.191028233542467,5338,124,1760,2692,557.3068897005139,319.45316823377726,0.005396687398571461,True
0.09999999999999999,0.4896580853794083,2.0,4160.0,72.46512,0.1,68900.0,0.33,276.0,2700.0,15.970784320584633,0.7964448209268375,2150.4010165024615,9.166201335457995,1.9982642587513169,6.804582985126638,1.2018194378244793,12915,182,4242,6546,348.92341967536413,201.4401528675159,0.0030589470171781333,True
0.11,0.7819345304171594,2.0,4161.0,72.46512,0.3,68900.0,0.33,276.0,2700.0,31.62687422666816,1.7366904425854641,4689.064194980753,17.509429656499524,5.8443009772945125,14.117444570168637,4.107610534709048,3161,96,1034,1604,515.4786010922635,297.1950551917179,0.00543657706954477,True
0.12,0.7331912429427964,2.0,4162.0,72.46512,0.3,68900.0,0.33,276.0,2700.0,28.39943694027235,1.7003471016789165,4590.9371745330745,15.968849185376484,5.028622843423233,12.430587754895864,3.3282757417443163,2905,88,946,1480,442.61522306232933,255.03280422572553,0.004451961994856785,True
0.13,0.6729017359057011,2.0,4163.0,72.46512,0.2,68900.0,0.33,276.0,2700.0,24.672089659346703,1.5990844418175774,4317.527992907459,14.145944325972131,4.1212787852465915,10.526145333374572,2.522194343429014,5502,122,1808,2784,373.676274131005,214.95771898466143,0.003662801645876823,True
0.14,0.6573323420200997,2.0,4164.0,72.46512,0.3,68900.0,0.33,276.0,2700.0,23.554194517522095,1.6430465960655825,4436.225809377072,13.690032225473573,3.9045920481744445,9.864162292048523,2.2615454521088623,2313,78,758,1170,351.9191138542317,203.14832662543088,0.003309043353110902,True
0.15000000000000002,0.7995997453544637,2.0,4165.0,72.46512,0.3,68900.0,0.33,276.0,2700.0,31.548364428679545,2.3590587486803893,6369.458621437051,18.08249835249588,6.158658960880151,13.465866076183666,3.799600212199762,3010,94,988,1522,482.7279439486879,278.50950574725704,0.005510827402904213,True
0.16,0.7970390384977581,2.0,4166.0,72.46512,0.3,68900.0,0.33,276.0,2700.0,31.103878954308627,2.4797316740052904,6695.275519814284,17.998941654739305,6.112462000634219,13.104937299569322,3.6327303266289284,3026,94,994,1529,363.2186157662394,209.5796925334408,0.0038231980740714828,True
0.17,0.5123339331384283,2.0,4167.0,72.46512,0.2,68900.0,0.33,276.0,2700.0,15.511254920775759,1.3081669051278817,3532.050643845281,9.736675181192986,2.2125592136011716,5.774579739582773,0.9043923084732899,3387,92,1116,1707,228.47275656104418,131.85470347395497,0.0019977830888694504,False
0.18000000000000002,0.6386355996195741,2.0,4168.0,72.46512,0.3,68900.0,0.33,276.0,2700.0,21.557272532697908,1.9279400157056545,5205.438042405267,13.15059411151041,3.6536895984472553,8.406678421187499,1.7257495827416007,2287,76,744,1165,268.35858504400215,154.91912721044386,0.0025209580925592175,False
0.19,0.6940775061591439,2.0,4169.0,72.46512,0.3,68900.0,0.33,276.0,2700.0,24.303269399220945,2.2944451369186756,6195.001869680424,14.775803602107745,4.427479042653043,9.5274657971132,2.1330339057343672,2440,80,800,1234,274.97361424299874,158.7558649270347,0.0026845028710272972,False
0.2,0.8889866263080373,2.0,4170.0,72.46512,0.3,68900.0,0.33,276.0,2700.0,35.725852937667554,3.555830132947611,9600.74135895855,21.102503201461634,7.908475673251648,14.62334973620592,4.352645540304037,3369,100,1106,1704,326.1693637908314,188.14604608636654,0.003636399772154321,True
0.21000000000000002,0.8176828747674206,2.0,4171.0,72.46512,0.3,68900.0,0.33,276.0,2700.0,30.954106252120383,3.230784963429379,8723.119401259322,18.677247838883115,6.491012200137359,12.276858413237267,3.26022723670798,3157,94,1036,1597,287.6940347244829,165.9456405061867,0.0030713416449938574,True
0.22,0.9070921058532114,2.0,4172.0,72.46512,0.3,68900.0,0.33,276.0,2700.0,36.30544934398029,3.9712983087875524,10722.505433726392,21.73866749907458,8.296293212653378,14.566781844905712,4.324994903865825,3419,100,1126,1724,304.40520395053517,175.57011544603571,0.0034079753330826796,True
0.23,0.9053319906531712,2.0,4173.0,72.46512,0.3,68900.0,0.33,276.0,2700.0,35.894119739111076,4.102341264786957,11076.321414924783,21.676461571881205,8.258085409779044,14.217658167229871,4.155744144992087,3398,100,1116,1718,290.5406616269634,167.5526091116381,0.0032588033167173323,True
0.24000000000000005,0.7200418473262967,2.0,4174.0,72.46512,0.3,68900.0,0.33,276.0,2700.0,24.491656920926026,2.9100459126156393,7857.123964062226,15.563476511216583,4.821312092629693,8.928180409709443,1.9112661800140538,2519,82,830,1268,230.02284164496749,132.73233003468584,0.002276472666464669,False
0.25,0.7379039732985184,2.0,4175.0,72.46512,0.3,68900.0,0.33,276.0,2700.0,25.23780246533277,3.1220003846917015,8429.401038667595,16.115192179331903,5.104224342041835,9.122610286000867,1.9822239573501337,2548,82,838,1285,228.91969155184265,132.1118291922047,0.002268041186390966,False
0.26,0.639341997531148,2.0,4176.0,72.46512,0.3,68900.0,0.33,276.0,2700.0,19.74607266898459,2.530178358648332,6831.481568350497,13.170815395071932,3.6629862920615657,6.575257273912657,1.1328079334132335,2023,70,666,1018,190.20489310799573,109.73620539077476,0.0018176298622300966,False
0.27,0.7841181348371312,2.0,4177.0,72.46512,0.3,68900.0,0.33,276.0,2700.0,27.361952237523855,3.652639573265317,9862.126847816357,17.579842096513957,5.882611499935019,9.782110141009898,2.2299719266697022,2666,86,880,1340,223.33946058568011,128.74336081819007,0.0022950746395934488,False
0.28,0.6882590097372709,2.0,4178.0,72.46512,0.2,68900.0,0.33,276.0,2700.0,21.826452502802287,3.009727189104588,8126.263410582387,14.601613391937056,4.342013257384805,7.224839110865231,1.332286068280217,4490,110,1492,2246,192.76315156453896,111.08673577854084,0.0018806429811993794,False
0.29000000000000004,0.6205253385122897,2.0,4179.0,72.46512,0.3,68900.0,0.33,276.0,2700.0,18.162795877781775,2.582525200126091,6972.818040340447,12.636453693649537,3.420196954332822,5.526342184132238,0.8376717542067307,1794,66,596,894,172.2663261783265,99.31182953731056,0.001597996734316662,False
0.3,0.6589475693175249,2.0,4180.0,72.46512,0.3,68900.0,0.33,276.0,2700.0,19.86680858979864,2.9234726207051707,7893.376075903961,13.73704702084957,3.9267425228921984,6.129761568949071,1.0032699021870277,1941,70,640,975,176.07071495499255,101.53432023116113,0.0016678560607660065,False
0.31,0.8482237616218959,2.0,4181.0,72.46512,0.3,68900.0,0.33,276.0,2700.0,30.104197130905277,4.603756430794922,12430.14236314629,19.700391089916796,7.07699610148227,10.403806040988481,2.473239670687348,2898,90,960,1452,209.4932760982644,120.60017483603379,0.0022673614730792427,False
0.32,0.665898560011438,2.0,4182.0,72.46512,0.2,68900.0,0.33,276.0,2700.0,19.79032250549516,3.0978224621640065,8364.120647842818,13.940119366524842,4.022933682494321,5.850203138970317,0.9251112203303142,4023,102,1320,2021,167.25798033156386,96.19766471818109,0.0016162247346494022,False
0.33,0.9143966252174816,2.0,4183.0,72.46512,0.3,68900.0,0.33,276.0,2700.0,33.63305973681639,5.474188579779995,14780.309165405988,21.99765561055631,8.456028805922056,11.635404126260081,2.9818402261420607,3325,98,1100,1669,210.56385757270783,120.98684037356914,0.002375056889864243,False
0.34,0.6604376483525485,2.0,4184.0,72.46512,0.3,68900.0,0.33,276.0,2700.0,19.09753402595564,3.164262679307998,8543.509234131596,13.780477243246057,3.947244158963767,5.317056782709582,0.7829814796557688,1898,68,628,950,151.61750270493428,87.2083223111782,0.001515137875692176,False
0.3500000000000001,0.9152060959284937,2.0,4185.0,72.46512,0.3,68900.0,0.33,276.0,2700.0,33.14345466773881,5.710307376839187,15417.829917465804,22.026438637738135,8.473846912247604,11.117016030000674,2.763539535408417,3087,94,1026,1542,201.60166661699063,115.83046429681279,0.0022559690086845167,False
0.36000000000000004,0.6970498517577852,2.0,4186.0,72.46512,0.3,68900.0,0.33,276.0,2700.0,20.528181785442168,3.5973566234823355,9712.862883402306,14.865116026089346,4.471530516152101,5.663065759352822,0.8741738926697655,2032,72,670,1021,155.31141552333332,88.9960514507317,0.001542838344535162,False
0.37,0.7559168175663527,2.0,4187.0,72.46512,0.2,68900.0,0.33,276.0,2700.0,23.40078949627945,4.223058661690177,11402.258386563479,16.679683670014605,5.39957659709178,6.721105826264846,1.1765179354016029,6046,114,1588,3338,175.3767439506712,100.86441633566363,0.0016935020043572597,False
0.38,0.8439797367080659,2.0,4188.0,72.46512,0.3,68900.0,0.33,276.0,2700.0,28.092604879696953,5.222671279083899,14101.212453526528,19.55681051996346,6.993691990742869,8.535794359733494,1.77102071165897,2726,86,906,1361,176.2480848346469,101.26497562494895,0.001883030260618084,False
0.39,0.7818706927075397,2.0,4189.0,72.46512,0.05,68900.0,0.33,276.0,2700.0,24.36149035237668,4.6262531956345905,12490.883628213394,17.507372950623147,5.843183281056734,6.854117401753534,1.2169300854221436,261012,454,25976,178040,237.0255611943151,132.74095430508774,0.0017054801584168733,False
0.4,0.8407571104975559,2.0,4190.0,72.46512,0.3,68900.0,0.33,276.0,2700.0,27.42803368716247,5.351565450879329,14449.22671737419,19.44808749617234,6.930842957495555,7.979946190990127,1.5792775066162257,2712,86,898,1359,166.62507505242974,95.67747236653554,0.0017910970146381492,False
0.4100000000000001,0.8168606541112415,2.0,4191.0,72.46512,0.2,68900.0,0.33,276.0,2700.0,25.842970232271657,5.153461092763693,13914.344950461971,18.650026867081035,6.4756665731505905,7.192943365190622,1.3222054803868977,7054,120,1736,3986,171.67657886911098,98.90719044252654,0.0017152779589100808,False
0.42000000000000004,0.9202426925941175,2.0,4192.0,72.46512,0.3,68900.0,0.33,276.0,2700.0,31.636777357286128,6.488553700683983,17519.094991846756,22.205899126195273,8.585236867104733,9.430878231090855,2.0966831664207497,3033,92,1008,1515,171.58519260921878,98.31489620233404,0.0019263710476892628,False
0.43,0.8739646447483975,2.0,4193.0,72.46512,0.3,68900.0,0.33,276.0,2700.0,28.636849742553622,5.990403623242771,16174.089782755482,20.580935950861015,7.595398845812284,8.055913791692607,1.6049952225695128,2813,88,916,1421,158.97357074462897,91.16469978100797,0.0017709998277505169,False
0.44,0.8623513868885506,2.0,4194.0,72.46512,0.3,68900.0,0.33,276.0,2700.0,27.73062952846186,5.9223295438593455,15990.289768420233,20.181607559997172,7.358709161759507,7.5490219684646895,1.4363796179001618,2840,86,908,1444,154.8646867212064,88.48328604440366,0.0017113861913384016,False
0.45,0.8304687501251666,2.0,4195.0,72.46512,0.3,68900.0,0.33,276.0,2700.0,25.702906554722677,5.592302221107023,15099.215996988962,19.102731784860705,6.732532877640558,6.600174769861972,1.1402306565335358,2490,80,832,1232,151.5246692436509,86.86304284884973,0.0015868719608104777,False
0.46,0.9967769200463428,2.0,4196.0,72.46512,0.2,68900.0,0.33,276.0,2700.0,35.37744383721322,7.932952040872497,21418.970510355743,25.01136451959525,10.391166351075086,10.36607931761797,2.458214310202589,9314,144,2308,5248,178.81249787924065,102.77598527749454,0.00202356491977836,False
0.4700000000000001,0.924314106803696,2.0,4197.0,72.46512,0.3,68900.0,0.33,276.0,2700.0,30.654229669461863,6.986297589607769,18863.003491940977,22.351434900931903,8.675942407204658,8.30279476852996,1.6896448175968892,3048,90,968,1558,171.08673797417933,98.0937867293934,0.0017725795413968113,False
0.4800000000000001,1.1021409673628577,2.0,4198.0,72.46512,0.3,68900.0,0.33,276.0,2700.0,41.796452756305456,9.799525318349449,26458.718359543513,29.11446712609676,13.240174864361265,12.681985630208697,3.440649546011816,4250,110,1340,2176,179.95177033305842,103.54883445758877,0.002209382049314794,False
0.49,0.8138813220806409,2.0,4199.0,72.46512,0.2,68900.0,0.33,276.0,2700.0,23.939747322654522,5.618834604648902,15170.853432552036,18.55153349098272,6.420248728356896,5.388213831671802,0.8014141237079935,6532,114,1608,3686,557.3673253570576,319.0394363334906,0.0014792924811283805,True
0.5,0.8584911174102869,2.0,4200.0,72.46512,0.3,68900.0,0.33,276.0,2700.0,26.16953107831034,6.280583381778371,16957.5751308016,20.04962064120652,7.281057591089513,6.119910437103819,1.0004742093111423,2720,80,814,1427,165.02682468529625,95.1203734361476,0.001534643142607753,False
0.01,0.7030399774624438,2.0,4201.0,75.4845,0.08,68900.0,0.33,276.0,2700.0,29.79046115869142,0.14895021139835216,402.1655707755508,15.045780723021823,4.561115081725719,14.744680435669599,4.412164870327366,37278,328,12412,18654,5294.794618957177,3017.844008985703,0.05310156383996615,True
0.02,0.3455713273373962,2.0,4202.0,75.4845,0.08,68900.0,0.33,276.0,2700.0,11.266491240791524,0.11264815724709627,304.15002456715996,5.843247599876837,0.923197980826679,5.423243640914687,0.8105498235795827,14748,186,4850,7467,149911.2513734376,80137.41678012538,0.0806160945520806,True
0.03,0.47031427247565727,2.0,4203.0,75.4845,0.1,68900.0,0.33,276.0,2700.0,16.659246551028392,0.2498321495976612,674.5468039136853,8.689768271547676,1.8255781506043092,7.969478279480716,1.575746001006648,13242,186,4360,6696,1214.019528112257,693.2146695779952,0.009234251798971303,True
0.04,0.7086771988995867,2.0,4204.0,75.4845,0.1,68900.0,0.33,276.0,2700.0,29.238262050385767,0.5846311997211612,1578.5042392471353,15.216625354081302,4.6464126486721185,14.021636696304466,4.061781448950957,23831,262,7842,12062,1552.965636703285,886.1176627374218,0.013312774556515259,True
0.05,0.39636758323585675,2.0,4205.0,75.4845,0.1,68900.0,0.33,276.0,2700.0,12.815347238571983,0.3201218815763382,864.3290802561131,6.955170018899829,1.2479793218686268,5.8601772196721535,0.9278574402922886,10429,160,3424,5287,1143.4335057702306,595.070944955894,0.004628087982035925,True
0.06000000000000001,0.6327926630569891,2.0,4206.0,75.4845,0.1,68900.0,0.33,276.0,2700.0,24.30465906758435,0.7286873826854122,1967.455933250613,12.983815612678386,3.5773391671720485,11.320843454905964,2.8486517844866364,19008,230,6248,9630,919.4326231739033,525.4578119508143,0.007277217313396653,True
0.06999999999999999,0.554853549448811,2.0,4207.0,75.4845,0.2,68900.0,0.33,276.0,2700.0,19.888198178461348,0.6953685587260271,1877.4951085602731,10.841209126462717,2.649880085944277,9.046989051998631,1.95451152721825,4414,106,1446,2239,587.5373449321169,338.8531189857202,0.005230273900619488,True
0.08,0.5098540828612232,2.0,4208.0,75.4845,0.2,68900.0,0.33,276.0,2700.0,17.39730927849341,0.6948200408467117,1876.0141102861214,9.673658307012575,2.1884918851006585,7.723650971480835,1.4936718442539467,3828,98,1252,1944,486.076248817251,280.47678731530766,0.004136023285520665,True
0.09,0.39960607317963615,2.0,4209.0,75.4845,0.2,68900.0,0.33,276.0,2700.0,12.123444762555517,0.5440282002852895,1468.8761407702818,7.0282590793148625,1.2706218479898466,5.095185683240654,0.726593647704557,2727,80,892,1383,358.270867292932,206.84750537478735,0.002719461490917827,True
0.09999999999999999,0.42517957716582333,2.0,4210.0,75.4845,0.2,68900.0,0.33,276.0,2700.0,13.029800575877934,0.6493956336915021,1753.3682109670556,7.614683380017355,1.4578224925383159,5.415117195860579,0.8084268588468138,2895,84,946,1470,336.44616125663106,193.99062329640435,0.002666224553418804,True
0.11,0.5897327728127817,2.0,4211.0,75.4845,0.2,68900.0,0.33,276.0,2700.0,20.701761318395974,1.1358092326304914,3066.684928102327,11.781192565296767,3.0443171159742093,8.920568753099207,1.908507883343718,4423,108,1444,2251,406.59515657627395,234.16480630085078,0.0037297885990300182,True
0.12,0.46568686276455795,2.0,4212.0,75.4845,0.2,68900.0,0.33,276.0,2700.0,14.422893370092353,0.8617544874683285,2326.737116164487,8.577190298412441,1.7856277122466018,5.845703071679912,0.9238732247782733,3058,86,1004,1546,300.7766212237088,173.64785222334382,0.0025313507778982752,True
0.13,0.5446967000539874,2.0,4213.0,75.4845,0.3,68900.0,0.33,276.0,2700.0,17.945546904801933,1.161859162772167,3137.019739484851,10.573233589331565,2.541130645675415,7.372313315470368,1.3792714829032477,1882,68,612,958,333.98644069757364,191.76664851856933,0.0028808841211156078,True
0.14,0.4540134485087597,2.0,4214.0,75.4845,0.2,68900.0,0.33,276.0,2700.0,13.480694139286552,0.9379015695890913,2532.334237890547,8.295584756728706,1.6871495974104262,5.185109382557846,0.7492480278213349,2898,84,956,1458,257.3097474190782,148.48304055119377,0.002131132250732637,False
0.15000000000000002,0.7547308616656538,2.0,4215.0,75.4845,0.3,68900.0,0.33,276.0,2700.0,28.83705359509667,2.155710436161669,5820.418177636507,16.642267082481517,5.379817418526451,12.194786512615153,3.224106982364782,2825,88,920,1439,379.56288399455724,218.6748897406934,0.003917114138062491,True
0.16,0.5805605815907476,2.0,4216.0,75.4845,0.3,68900.0,0.33,276.0,2700.0,19.038591267525398,1.5145086590626295,4089.1733794691,11.531042048224796,2.937406595266176,7.507549219300602,1.4228979362035465,2070,72,678,1047,288.72811660061063,166.69328712078914,0.0025752485106197162,True
0.17,0.5365533728562542,2.0,4217.0,75.4845,0.3,68900.0,0.33,276.0,2700.0,16.654935335853434,1.4053797404092467,3794.525299104966,10.360254966177948,2.4558976533315358,6.294680369675486,1.050517912922289,1743,64,570,882,305.93791458778037,176.54592956675955,0.002207546517112505,True
0.18000000000000002,0.8703298420544245,2.0,4218.0,75.4845,0.3,68900.0,0.33,276.0,2700.0,35.11909783784188,3.1485042931686147,8500.96159155526,20.45558679361931,7.520819114678213,14.663511044222567,4.372314821509598,3372,100,1108,1704,367.34799783792863,212.06610003392873,0.0040769983191191045,True
0.19,0.5216904613074109,2.0,4219.0,75.4845,0.2,68900.0,0.33,276.0,2700.0,15.526510181249943,1.4606530112114295,3943.7631302708596,9.975830889125247,2.3047778072175427,5.550679292124697,0.8441247960061131,3469,92,1144,1747,220.51578015040354,127.00963154596558,0.0019301539352899974,False
0.2,0.7438314367588598,2.0,4220.0,75.4845,0.3,68900.0,0.33,276.0,2700.0,26.8505730318656,2.6683021423674136,7204.415784392017,16.30004846686615,5.200293983106542,10.55052456499945,2.5319918407391286,2592,84,852,1308,289.7133002334124,167.2220623917682,0.0029309809400079314,True
0.21000000000000002,0.8676429851855729,2.0,4221.0,75.4845,0.3,68900.0,0.33,276.0,2700.0,34.0622108671999,3.557135948012727,9604.267059634363,20.363141771747124,7.465982114691283,13.699069095452778,3.9088461666785554,3282,98,1078,1659,318.42484989949935,183.6090194253562,0.0034835952262867544,True
0.22,0.7461331196762515,2.0,4222.0,75.4845,0.1,68900.0,0.33,276.0,2700.0,26.46222467667762,2.8885435953841316,7799.067707537155,16.37206770514078,5.237894383402793,10.090156971536842,2.3493507880186613,28504,244,6980,16170,266.4135874472862,153.77350213632062,0.0027128532663456325,False
0.23,0.6989426001281076,2.0,4223.0,75.4845,0.3,68900.0,0.33,276.0,2700.0,23.578446063869695,2.6860387921339477,7252.304738761659,14.922104652652221,4.499720358649407,8.656341411217474,1.8136815665154593,2293,78,754,1156,245.15654986602271,141.53666462664629,0.0023669830088598643,False
0.24000000000000005,0.5593448700371523,2.0,4224.0,75.4845,0.3,68900.0,0.33,276.0,2700.0,16.25507250482753,1.9216557826838199,5188.470613246313,10.960533637593903,2.6988392042636793,5.294538867233628,0.7771834215798594,1635,62,538,822,193.6479114944778,111.48620938135153,0.0017178067243988774,False
0.25,0.6242352868739407,2.0,4225.0,75.4845,0.3,68900.0,0.33,276.0,2700.0,19.203831026293944,2.3677539548118482,6392.93567799199,12.741105749597834,3.467271564926986,6.46272527669611,1.0995176101151376,1955,70,646,980,202.07881502349574,116.37361387035772,0.0019034136401971538,False
0.26,0.777032226750406,2.0,4226.0,75.4845,0.3,68900.0,0.33,276.0,2700.0,27.20827661831191,3.5002648720608844,9450.715154564388,17.351786646825364,5.758851089790055,9.856489971486546,2.258586217729171,2679,86,884,1347,238.321499371514,137.4427580469082,0.002443710371550811,False
0.27,0.6813804665022334,2.0,4227.0,75.4845,0.3,68900.0,0.33,276.0,2700.0,21.69300089357728,2.8873311418325285,7795.794082947827,14.396785728125778,4.242280567966641,7.296215165451503,1.3549494261341124,2289,76,754,1152,205.4777486058687,118.5366356961482,0.001991921096965422,False
0.28,0.7744722689108259,2.0,4228.0,75.4845,0.3,68900.0,0.33,276.0,2700.0,26.55594123313117,3.67185561135063,9914.010150646702,17.26970633176257,5.714536343742187,9.286234901368598,2.0426807323915575,2706,86,890,1365,223.46989549581923,128.7304322040051,0.0022798228288630237,False
0.29000000000000004,0.6387525312164377,2.0,4229.0,75.4845,0.2,68900.0,0.33,276.0,2700.0,19.064920725989204,2.7133333031161686,7325.999918413655,13.153940518799356,3.6552275140634456,5.910980207189848,0.941894210947277,4149,102,1382,2068,183.70763559137242,105.9022695105773,0.0017248471069705978,False
0.3,0.6443147573936925,2.0,4230.0,75.4845,0.3,68900.0,0.33,276.0,2700.0,19.130083476738413,2.812963853746147,7595.0024051145965,13.313520062989939,3.728836154693788,5.816563413748474,0.9158723009476408,1974,70,650,993,174.61995208827597,100.24594229409335,0.0016915924632508366,False
0.31,0.7467937161681304,2.0,4231.0,75.4845,0.2,68900.0,0.33,276.0,2700.0,24.279196106562136,3.7008812720217334,9992.37943445868,16.392762239538197,5.248716548657598,7.886433867023939,1.547835276635865,5027,116,1640,2541,201.129904651088,115.94870372461746,0.0019908719726466116,False
0.32,0.7251103910443364,2.0,4232.0,75.4845,0.3,68900.0,0.33,276.0,2700.0,22.872306129635366,3.590939842026385,9695.53757347124,15.719216078919452,4.900590667420818,7.153090050715914,1.3096508253944332,2400,78,788,1212,184.8907366869845,106.48400880440158,0.001854226054261252,False
0.33,0.9823779360037146,2.0,4233.0,75.4845,0.3,68900.0,0.33,276.0,2700.0,38.01853959122024,6.197792755756639,16734.040440542925,24.472307392000854,10.03491530246891,13.546232199219386,3.837122546712271,3632,104,1202,1823,234.8657910423628,134.88881206550303,0.0027333860457182607,False
0.34,0.7768698392715573,2.0,4234.0,75.4845,0.3,68900.0,0.33,276.0,2700.0,25.234801296980212,4.207598115382174,11360.514911531869,17.346575100018576,5.7560338000569,7.888226196961636,1.5484356846747263,2591,84,856,1301,187.02382165224373,107.64659786044204,0.0019367167203559843,False
0.3500000000000001,0.7864798447929082,2.0,4235.0,75.4845,0.2,68900.0,0.33,276.0,2700.0,25.53517787491487,4.378858938094939,11822.919132856334,17.65613261847772,5.924220048488853,7.8790452564371485,1.5453611103939142,6155,120,1756,3301,196.0218795970368,112.91469296841136,0.0019372017846382961,False
0.36000000000000004,1.0332920454228762,2.0,4236.0,75.4845,0.3,68900.0,0.33,276.0,2700.0,40.55920171509926,7.202940210820614,19447.938569215657,26.40174983875893,11.329742538395744,14.157451876340332,4.126802327575129,3863,108,1276,1943,275.12867503669315,143.6768223332065,0.007253296759170963,False
0.37,0.951413029366142,2.0,4237.0,75.4845,0.3,68900.0,0.33,276.0,2700.0,34.88492242799869,6.34762325405824,17138.58278595725,23.330720940810604,9.29486933027515,11.554201487188084,2.94724607621691,3293,98,1090,1652,204.49552572503927,117.26354071029887,0.0023618271320109438,False
0.38,0.7329073543784574,2.0,4238.0,75.4845,0.3,68900.0,0.33,276.0,2700.0,21.959877157247217,4.057453011818452,10955.12313190982,15.960051504616606,5.024090718582064,5.99982565263061,0.9666377067636125,2217,74,736,1107,157.74388900292732,90.19075553475787,0.0016266985500842696,False
0.39,1.0011165129398514,2.0,4239.0,75.4845,0.3,68900.0,0.33,276.0,2700.0,37.54744442996152,7.197514240763639,19433.288450061827,25.174848440164045,10.500060046469926,12.372595989797478,3.302545805706287,3547,102,1176,1777,206.404892116051,118.301590658105,0.002419779803101464,False
0.4,0.9334167348569045,2.0,4240.0,75.4845,0.2,68900.0,0.33,276.0,2700.0,32.9569868544496,6.457356084336756,17434.861427709242,22.67832215209066,8.880885392451452,10.278664702358942,2.423529308114696,8839,140,2206,4966,197.20302783349402,113.42351850678278,0.0021738648104028205,False
0.4100000000000001,0.7991971959163294,2.0,4241.0,75.4845,0.08,68900.0,0.33,276.0,2700.0,24.863632491262184,4.952696855856709,13372.281510813113,18.069352116152732,6.151382507469941,6.794280375109452,1.198685651613232,72523,286,10238,47166,186.95796645647786,106.00171508815502,0.001750999133176556,False
0.42000000000000004,0.9911110362505495,2.0,4242.0,75.4845,0.3,68900.0,0.33,276.0,2700.0,36.07416670368057,7.420405463426818,20035.09475125241,24.798628105301745,10.2500579169785,11.275538598378823,2.829652453551682,3288,98,1100,1632,192.97164055648634,110.59293523835144,0.0022329024895453276,False
0.43,0.8376209441164169,2.0,4243.0,75.4845,0.3,68900.0,0.33,276.0,2700.0,26.552811081935804,5.542335311210221,14964.305340267596,19.34253200354764,6.870016103709746,7.210279078388165,1.3276807924995255,2774,84,876,1422,158.06910030981228,90.65093017076707,0.0017471017239733466,False
0.44,0.8299594777734343,2.0,4244.0,75.4845,0.1,68900.0,0.33,276.0,2700.0,25.897028952575383,5.51893741716432,14901.131026343664,19.085705828721164,6.722808720200971,6.811323123854219,1.2038713030366512,44129,238,6988,28083,190.4430124396272,107.13939098400736,0.0017324207864399502,False
0.45,0.9529295929692904,2.0,4245.0,75.4845,0.3,68900.0,0.33,276.0,2700.0,32.88458554590395,7.208179994122811,19462.08598413159,23.386071032068067,9.330293816150768,9.498514513835886,2.1221138220279565,3016,92,1000,1508,171.96713991705124,99.05269769799585,0.0019791094680479656,False
0.46,1.013161535090897,2.0,4246.0,75.4845,0.3,68900.0,0.33,276.0,2700.0,36.427483733256054,8.174461216962344,22071.04528579833,25.63109623432746,10.806035750971603,10.796387498928592,2.6315745340092587,3491,100,1158,1740,179.14788139649852,102.29856517379403,0.0021225329446903766,False
0.4700000000000001,0.8181267372034271,2.0,4247.0,75.4845,0.2,68900.0,0.33,276.0,2700.0,24.589585716606354,5.561106260686725,15014.986903854158,18.69194969925252,6.4993055914796525,5.897636017353836,0.9381993307929273,6541,114,1624,3683,162.12551876243546,93.1108165718965,0.0016068991330020173,False
0.4800000000000001,0.9440619667527012,2.0,4248.0,75.4845,0.3,68900.0,0.33,276.0,2700.0,31.601034698730924,7.352624984531555,19852.0874582352,23.063248029462418,9.124347676854407,8.537786669268506,1.771722692322852,3014,90,968,1530,177.03542100120274,101.7667928932159,0.0018640986440873375,False
0.49,0.8653986242246616,2.0,4249.0,75.4845,0.2,68900.0,0.33,276.0,2700.0,26.774363559651544,6.313315582713172,17045.952073325563,20.286060510260135,7.42036639702187,6.4883030493914085,1.107050814308698,7072,120,1746,3985,163.64678019997723,94.16873397329829,0.0016633705767975405,False
0.5,0.9782346367260498,2.0,4250.0,75.4845,0.3,68900.0,0.33,276.0,2700.0,33.20186724180612,8.038667422652376,21704.402041161415,24.31815944414925,9.933838698438963,8.883707797656871,1.8951712757865877,3767,96,1078,2014,173.91891557967193,99.94658993926728,0.0019003646369684557,False
0.01,0.47888993165306354,2.0,4251.0,78.50388,0.05,68900.0,0.33,276.0,2700.0,17.554882943771485,0.08777232032375598,236.98526487414114,8.899824090073198,1.900998004312425,8.655058853698288,1.8132256839886691,56482,382,18714,28405,4150.624410186944,2366.4180307486954,0.028976302919627273,True
0.02,0.49967035149850775,2.0,4252.0,78.50388,0.1,68900.0,0.33,276.0,2700.0,18.33552613477944,0.18333850618696082,495.0139667047942,9.416494355849157,2.091289603875599,8.919031778930282,1.9079510976886382,14655,198,4850,7374,2720.7279108523417,1552.728447336736,0.03120930924384742,True
0.03,0.36787749599518166,2.0,4253.0,78.50388,0.1,68900.0,0.33,276.0,2700.0,12.004026111818158,0.1800038430095068,486.01037612566836,6.32354029700874,1.058871947037877,5.680485814809418,0.8788681040283701,10236,156,3356,5196,996.7818092007523,569.1081607044995,0.0070517461637577845,True
0.04,0.7297265488648415,2.0,4254.0,78.50388,0.1,68900.0,0.33,276.0,2700.0,30.50708446617519,0.6100076480369542,1647.0206496997762,15.861617119290212,4.973481516477934,14.645467346884978,4.3634738684409795,24234,266,7968,12276,1666.1223951370903,949.7154991448848,0.014565018385491313,True
0.05,0.4310022541186492,2.0,4255.0,78.50388,0.1,68900.0,0.33,276.0,2700.0,14.362484089183756,0.3588003028417954,968.7608176728477,7.750500049726867,1.5025553288009459,6.611984039456889,1.1437550259591505,11353,170,3720,5767,700.8698720088549,401.4126998353457,0.0053502367119637306,True
0.06000000000000001,0.7551649706269915,2.0,4256.0,78.50388,0.2,68900.0,0.33,276.0,2700.0,31.464412752259378,0.9434799932256644,2547.395981709294,16.655959001207442,5.387044947524901,14.808453751051935,4.443564954299236,6134,136,2016,3104,955.4538377734114,545.4804850506235,0.01030686897375726,True
0.06999999999999999,0.6266982627166757,2.0,4257.0,78.50388,0.1,68900.0,0.33,276.0,2700.0,23.700931394235276,0.8288142212781152,2237.798397450911,12.810773644902122,3.498738364477137,10.890157749333154,2.6699241431990215,18605,228,6120,9419,755.819087855821,432.1856236588556,0.006383734099970458,True
0.08,0.7627720597319969,2.0,4258.0,78.50388,0.2,68900.0,0.33,276.0,2700.0,31.334785733707307,1.252319099055867,3381.261567450841,16.8966574172117,5.5146628969610525,14.438128316495607,4.262343797905185,6151,136,2020,3115,754.5665151389686,432.0559473146294,0.007816209549238045,True
0.09,0.5727500322356187,2.0,4259.0,78.50388,0.2,68900.0,0.33,276.0,2700.0,20.31467230756658,0.9126334398108518,2464.1102874893,11.319694056142602,2.848169192131616,8.994978251423976,1.9355357523207641,4437,106,1456,2247,545.7971203870899,314.8535609749578,0.004646350599352141,True
0.09999999999999999,0.4793504756788501,2.0,4260.0,78.50388,0.2,68900.0,0.33,276.0,2700.0,15.486601790023407,0.7722356943987779,2085.0363748767004,8.911157145812846,1.9050993746086327,6.575444644210561,1.1328636802098546,3319,90,1090,1678,382.46575866733156,220.78560277235516,0.003226361336395858,True
0.11,0.4804118726273382,2.0,4261.0,78.50388,0.2,68900.0,0.33,276.0,2700.0,15.316197465454009,0.8396032207186598,2266.928695940381,8.937296274586926,1.9145715191021278,6.378901190867083,1.0749682983834679,3370,90,1102,1711,352.9120167883467,203.66906913287883,0.0029633302035301473,True
0.12,0.4664517330052285,2.0,4262.0,78.50388,0.2,68900.0,0.33,276.0,2700.0,14.457728628284773,0.8638446029601505,2332.3804279924066,8.595761324659009,1.792195251129704,5.8619673036257645,0.9283506481695534,3060,86,1004,1548,313.3345359826215,180.8976920978294,0.0026380111837876223,True
0.13,0.4641874857499181,2.0,4263.0,78.50388,0.2,68900.0,0.33,276.0,2700.0,14.14378023318629,0.9147443291171545,2469.809688616317,8.540828132297696,1.7727945376205891,5.602952100888594,0.8580502085034346,3095,86,1016,1565,287.92947283934916,166.1212951181866,0.0024363613153934893,True
0.14,0.6110264911683823,2.0,4264.0,78.50388,0.3,68900.0,0.33,276.0,2700.0,21.077225476562894,1.4696587631984372,3968.0786606357806,12.370082197315739,3.3014321158471676,8.707143279247155,1.8317733526487303,2132,74,700,1076,362.3324480187015,209.13706093271935,0.0032495323753653116,True
0.15000000000000002,0.46542600421697317,2.0,4265.0,78.50388,0.2,68900.0,0.33,276.0,2700.0,13.784893094250004,1.0267983985981735,2772.3556762150683,8.570860023173015,1.783391104533177,5.214033071076988,0.7565927059350035,2870,84,948,1442,255.67754751630335,147.44011090354593,0.00214946755995155,False
0.16,0.47883488435539934,2.0,4266.0,78.50388,0.2,68900.0,0.33,276.0,2700.0,14.182510159508086,1.1260221704212434,3040.259860137357,8.89846984422198,1.9005081303207165,5.284040315286106,0.7744859598994731,3146,88,1036,1586,248.53379671543402,143.44832769885596,0.0021020982982635,False
0.17,0.5104766046286924,2.0,4267.0,78.50388,0.2,68900.0,0.33,276.0,2700.0,15.42476617545424,1.3008153617755525,3512.201476793992,9.689463029203214,2.194518866854195,5.7353031462510256,0.8937035050786426,3362,90,1106,1697,247.1124109424328,142.6147571028024,0.0021543332502017704,False
0.18000000000000002,0.6499143212315799,2.0,4268.0,78.50388,0.3,68900.0,0.33,276.0,2700.0,22.15497304014782,1.981733061376148,5350.679265715599,13.474956232485248,3.8038376785385544,8.680016807662572,1.8221046171624065,2243,76,732,1139,294.71156518005006,170.15143077185945,0.002791924671316023,True
0.19,0.8735734156473027,2.0,4269.0,78.50388,0.3,68900.0,0.33,276.0,2700.0,35.02938588329615,3.313426202905819,8946.250747845712,20.567428147399383,7.587349627188678,14.461957735896767,4.2739234242828585,3358,100,1104,1696,364.9424990748332,210.47545440571758,0.004033624667748476,True
0.2,0.8825098141241592,2.0,4270.0,78.50388,0.3,68900.0,0.33,276.0,2700.0,35.30726463239394,3.513971302420233,9487.72251653463,20.87693104436437,7.772529786693459,14.43033358802957,4.258558484273227,3354,100,1104,1692,351.0936020645913,202.64756432414632,0.0038945600420329895,True
0.21000000000000002,0.8339111712266666,2.0,4271.0,78.50388,0.3,68900.0,0.33,276.0,2700.0,31.949938646436827,3.3353473648322516,9005.437885047078,19.21798950146789,6.798490821993631,12.731949144968937,3.463143457161379,3220,96,1054,1633,322.77966459814377,186.20479220347914,0.003423241488311204,True
0.22,0.5478590109083326,2.0,4272.0,78.50388,0.3,68900.0,0.33,276.0,2700.0,16.12716543705345,1.7516870790255963,4729.55511336911,10.656389179846618,2.5746979127010534,5.470776257206831,0.8230108336754571,1632,62,538,819,211.93792512191467,122.3288683329568,0.0018770806755913,False
0.23,0.8252036003908862,2.0,4273.0,78.50388,0.3,68900.0,0.33,276.0,2700.0,30.858425897337725,3.52323647298302,9512.738477054154,18.927022349777914,6.632417008398918,11.93140354755981,3.109180535415898,3228,94,1062,1629,292.0514713380631,168.2712237381538,0.0030972241764577377,True
0.24000000000000005,0.6936128286513312,2.0,4274.0,78.50388,0.3,68900.0,0.33,276.0,2700.0,23.04784226061305,2.7367881533780825,7389.328014120822,14.761861138585672,4.420616298644032,8.285981122027376,1.6838281452659496,2301,78,754,1164,242.0285030475767,139.444818870185,0.0023462340810957547,False
0.25,0.7704428597011507,2.0,4275.0,78.50388,0.3,68900.0,0.33,276.0,2700.0,27.084659110288804,3.352857465311209,9052.715156340264,17.14084442828842,5.645209385690528,9.943814682000383,2.292351920379319,2707,86,888,1369,255.78442206853276,147.63779987797295,0.0025995486213890116,False
0.26,0.934705503127848,2.0,4276.0,78.50388,0.3,68900.0,0.33,276.0,2700.0,36.92392887964043,4.7632996660335944,12860.909098290706,22.724771792493822,8.910142421407524,14.199157087146606,4.14684275537393,3490,102,1148,1762,290.8477315059526,167.5151201870559,0.0032964101266256957,True
0.27,0.6399777566379328,2.0,4277.0,78.50388,0.3,68900.0,0.33,276.0,2700.0,19.558432209992493,2.5991643695485807,7017.743797781168,13.189025301253118,3.671365545911418,6.369406908739375,1.0722011763628374,2034,70,672,1020,201.0417452036604,115.91292877598215,0.001912450812081585,False
0.28,0.8444870132874476,2.0,4278.0,78.50388,0.3,68900.0,0.33,276.0,2700.0,30.671720060204944,4.248064647140959,11469.77454728059,19.573948488665206,7.003617049258725,11.097771571539738,2.7555524021177664,2896,90,962,1447,248.14496877741976,143.06301104490677,0.0026677675038130687,False
0.29000000000000004,0.6210256636901417,2.0,4279.0,78.50388,0.3,68900.0,0.33,276.0,2700.0,18.187335740215087,2.58608348017892,6982.425396483084,12.650546933633844,3.426522815613606,5.536788806581242,0.8404393354346857,1794,66,596,894,186.75794762578056,107.66577408173157,0.0017330828540609476,False
0.3,0.714662276309108,2.0,4280.0,78.50388,0.3,68900.0,0.33,276.0,2700.0,22.77040838304514,3.3590125896921537,9069.333992168815,15.398886414490823,4.738030303583305,7.371521968554317,1.3790177138911517,2221,76,734,1114,203.32345992612036,117.24555944104904,0.0020107745321079657,False
0.31,0.6270466156171561,2.0,4281.0,78.50388,0.2,68900.0,0.33,276.0,2700.0,18.06791819259243,2.738133195356432,7392.959627462366,12.820639484442617,3.5032027529421113,5.247278708149812,0.7650695575856794,3569,96,1178,1788,172.9012940185749,99.7565062721838,0.0016652621869719766,False
0.32,0.8421310019232713,2.0,4282.0,78.50388,0.3,68900.0,0.33,276.0,2700.0,29.481552578126653,4.648419273785044,12550.73203921962,19.494407100228624,6.957594331775087,9.987145477898029,2.3091750579900427,2789,88,924,1397,220.15939980079477,126.646300156042,0.002355883637528382,False
0.33,1.0125421566919826,2.0,4283.0,78.50388,0.3,68900.0,0.33,276.0,2700.0,40.038840971272464,6.531142483465258,17634.084705356196,25.607546158259456,10.790167697325423,14.431294813013007,4.2590252138601645,3867,108,1280,1941,250.6302916456131,143.52671624735657,0.002968048491872095,False
0.34,0.7698851668985962,2.0,4284.0,78.50388,0.3,68900.0,0.33,276.0,2700.0,24.847418777127455,4.141743087007203,11182.706334919449,17.1230413663283,5.635655024806207,7.724377410799153,1.4939119377990036,2513,82,834,1256,191.79261032008156,110.39869014083101,0.001990662045336528,False
0.3500000000000001,0.6954485662335851,2.0,4285.0,78.50388,0.2,68900.0,0.33,276.0,2700.0,20.657612270417392,3.525284957307934,9518.269384731422,14.816973341872632,4.447765774734973,5.8406389285447595,0.9224808174270387,4522,104,1372,2360,194.8249025453327,112.4041382837709,0.0017243122845158213,False
0.36000000000000004,0.90084419144256,2.0,4286.0,78.50388,0.3,68900.0,0.33,276.0,2700.0,31.990474566513317,5.660569324075144,15283.53717500289,21.518206289196417,8.161161100917866,10.4722682773169,2.5005917768427217,2950,92,978,1477,209.32731935873844,120.34052794117866,0.002335364716605319,False
0.37,1.0620763725004745,2.0,4287.0,78.50388,0.3,68900.0,0.33,276.0,2700.0,42.237188567337554,7.707792489835929,20811.03972255701,27.521389546282546,12.105763229943982,14.715799021055009,4.397970740108053,4005,110,1330,2004,235.0877430627252,134.3427166111978,0.0028609008598267966,False
0.38,1.0065602928239208,2.0,4288.0,78.50388,0.3,68900.0,0.33,276.0,2700.0,38.18746625452395,7.140694940301032,19279.876338812785,25.38059926605633,10.63766607321826,12.806866988467618,3.4969711329172277,3753,106,1246,1878,219.4487336855109,125.57841391819922,0.0025926715511788764,False
0.39,0.7289974970644042,2.0,4289.0,78.50388,0.3,68900.0,0.33,276.0,2700.0,21.54317817048317,4.076682320165356,11007.042264446462,15.839091432589699,4.961925787967077,5.704086737893471,0.8852434678017209,2221,74,734,1114,160.82533259444736,92.1052865371185,0.0016544794895700507,False
0.4,0.8647585258163245,2.0,4290.0,78.50388,0.3,68900.0,0.33,276.0,2700.0,28.818769965560904,5.629712706559019,15200.224307709352,20.26409990743748,7.407388351000562,8.554670058123424,1.7776756444415431,2801,88,928,1403,183.50027232274212,105.01891883657115,0.0020127364588640733,False
0.4100000000000001,0.8450778746678589,2.0,4291.0,78.50388,0.2,68900.0,0.33,276.0,2700.0,27.439991221052523,5.480850395463767,14798.29606775217,19.593918462472274,7.015188438793967,7.846072758580249,1.5343380433301999,7348,124,1832,4126,189.00190608158863,108.83314957490664,0.0019462787320106503,False
0.42000000000000004,0.8905120323098311,2.0,4292.0,78.50388,0.3,68900.0,0.33,276.0,2700.0,29.85037436738728,6.113409072804963,16506.2044965734,21.155782903034034,7.9407061874425935,8.694591464353245,1.8272971146376307,2783,88,924,1391,181.50900319067432,104.02510585729256,0.002005013898581115,False
0.43,1.0217465013756053,2.0,4293.0,78.50388,0.3,68900.0,0.33,276.0,2700.0,37.79490324693442,7.9593851266849285,21490.339842049307,25.95850778264753,11.027481931356652,11.836395464286888,3.0680968046717236,3648,104,1216,1816,200.20491781600833,114.61405529139523,0.002375060601982486,False
0.44,0.8669742355900956,2.0,4294.0,78.50388,0.3,68900.0,0.33,276.0,2700.0,27.99661450575982,5.9808462388649,16148.28484493523,20.34016071788035,7.452371956780413,7.656453787879467,1.4715257179155135,2803,86,900,1423,170.55070244409634,97.67852379010827,0.0018971718194420346,False
0.45,1.0712158801265779,2.0,4295.0,78.50388,0.1,68900.0,0.33,276.0,2700.0,40.53715617173592,8.930008384935007,24111.02263932452,27.881249540340797,12.35893805224218,12.655906631395126,3.428929667307173,69770,310,10724,44690,238.85425581634507,132.77276564553924,0.0024750753637579536,False
0.46,1.0572919901863829,2.0,4296.0,78.50388,0.3,68900.0,0.33,276.0,2700.0,39.32278814135315,8.84038123082468,23869.029323226634,27.333845879266708,11.974539250211123,11.988942262086443,3.134158019386444,4022,106,1290,2045,196.82673140270202,113.32685954112029,0.0023402175155569664,False
0.4700000000000001,0.8837602073665285,2.0,4297.0,78.50388,0.3,68900.0,0.33,276.0,2700.0,28.27119264223648,6.426283888209807,17350.96649816648,20.92039718213231,7.798661330980731,7.35079546010417,1.372377442770924,2909,86,904,1503,160.10071620350772,91.70675259233835,0.001815587858503455,False
0.4800000000000001,0.8078390425602875,2.0,4298.0,78.50388,0.2,68900.0,0.33,276.0,2700.0,23.82282830559072,5.485855450177906,14811.809715480347,18.352467512136972,6.30875704563706,5.470360793453747,0.8229015954591539,6626,114,1640,3732,165.04903898380732,95.20151268031681,0.001615026005844974,False
0.49,1.1305536352984422,2.0,4299.0,78.50388,0.3,68900.0,0.33,276.0,2700.0,43.47421054437397,10.404778093970169,28092.900853719457,30.26868171093109,14.083743669721509,13.205528833442877,3.6789655757513398,4373,110,1358,2260,202.02254666281428,115.45422306786814,0.0024338691615008587,False
0.5,1.0353031292927937,2.0,4300.0,78.50388,0.3,68900.0,0.33,276.0,2700.0,36.807003432479,8.939951470320603,24137.868969865627,26.479299453483925,11.382916633988438,10.327703978995075,2.442965163667836,3792,100,1154,1979,190.8928765998637,109.47024141157802,0.0021251993625790526,False
0.01,0.3527211983941868,2.0,4301.0,81.52326,0.05,68900.0,0.33,276.0,2700.0,11.778615759016072,0.058890984399978044,159.0056578799407,5.995835667074738,0.9655211747071492,5.7827800919413335,0.9066301903071711,38052,304,12604,19140,3046.6617693428448,1733.7753255180735,0.01986404686165758,True
0.02,0.4553329997802672,2.0,4302.0,81.52326,0.1,68900.0,0.33,276.0,2700.0,16.179314772569963,0.16177639256488097,436.7962599251786,8.327245482869436,1.6981169309876536,7.852069289700527,1.5363405384227726,12930,184,4286,6495,1805.6590861477646,1030.3331792298743,0.01407970842550735,True
0.03,0.42023122230995746,2.0,4303.0,81.52326,0.1,68900.0,0.33,276.0,2700.0,14.317332651511949,0.21470344110491354,579.6992909832666,7.49993045669306,1.4204265099220965,6.8174021948188885,1.205723068817183,11789,172,3874,5972,1150.9608255440364,656.2840102303836,0.008642733231129008,True
0.04,0.3527264164068402,2.0,4304.0,81.52326,0.08,68900.0,0.33,276.0,2700.0,11.15474709008594,0.22296090051516543,601.9944313909466,5.995947495800391,0.9655524613452895,5.158799594285548,0.7425915608301241,14385,184,4720,7299,761.0597412705256,436.19431113809185,0.005324582475075395,True
0.05,0.7408856318775814,2.0,4305.0,81.52326,0.1,68900.0,0.33,276.0,2700.0,30.888211096195096,0.7719434780170767,2084.2473906461073,16.208069021839947,5.152412751055877,14.68014207435515,4.3804692730388,24610,268,8096,12460,1392.1179133675137,793.335973207869,0.01239204624941337,True
0.06000000000000001,0.3619345556917585,2.0,4306.0,81.52326,0.1,68900.0,0.33,276.0,2700.0,11.134183993223475,0.3335731304545876,900.6474522273865,6.194355873834629,1.021675831809086,4.939828119388846,0.6881027013544984,9143,146,3000,4637,485.0010531500627,278.57412010600734,0.0037793065199089116,True
0.06999999999999999,0.58138330732955,2.0,4307.0,81.52326,0.2,68900.0,0.33,276.0,2700.0,21.26589371137202,0.7435879023779016,2007.6873364203343,11.553393686806757,2.9469026738223096,9.712500024565262,2.203314771444408,4692,112,1534,2385,667.7318681201591,384.6574349277035,0.00600468242029636,True
0.08,0.7689511730407192,2.0,4308.0,81.52326,0.2,68900.0,0.33,276.0,2700.0,31.71553358514369,1.2675490131133214,3422.3823354059678,17.093243265162336,5.619676126670055,14.622290319981353,4.352127113556733,6564,140,2162,3315,792.6377809081279,453.16741427211866,0.008235189213673236,True
0.09,0.6089773476921821,2.0,4309.0,81.52326,0.1,68900.0,0.33,276.0,2700.0,22.219172819323138,0.998335962839898,2695.5070996677246,12.312916440536025,3.2761426310521315,9.906256378787113,2.2778066682122335,18104,222,5960,9158,573.8598078543394,329.46520001897034,0.005063461983571538,True
0.09999999999999999,0.43960916878135586,2.0,4310.0,81.52326,0.2,68900.0,0.33,276.0,2700.0,13.669810377571668,0.6813961237761909,1839.7695341957153,7.952821040469687,1.5701325657047183,5.716989337101981,0.8887364419285274,2972,84,974,1505,368.0339176170657,212.4230195217447,0.003003581027126875,True
0.11,0.45174113504094643,2.0,4311.0,81.52326,0.2,68900.0,0.33,276.0,2700.0,14.00320096757077,0.7673884133351061,2071.9487160047865,8.241166443072604,1.6683612807511254,5.762034524498166,0.9009728674160193,3099,86,1016,1569,345.5598391124533,199.2746171595544,0.002847709559330795,True
0.12,0.4587930788566321,2.0,4312.0,81.52326,0.2,68900.0,0.33,276.0,2700.0,14.110249740127053,0.8429958696706588,2276.0888481107786,8.41047290220749,1.727073758813373,5.699776837919563,0.8840778891427143,3087,86,1012,1563,322.02691635063053,185.63972005783242,0.002682844727430989,True
0.13,0.7155156353804905,2.0,4313.0,81.52326,0.3,68900.0,0.33,276.0,2700.0,27.09086394212947,1.7563047701984558,4742.022879535831,15.424946734399537,4.75118220109797,11.665917207729933,2.9948774308995145,2698,86,882,1369,452.2426249235796,261.0104841819475,0.004494016948270144,True
0.14,0.7533531058145786,2.0,4314.0,81.52326,0.3,68900.0,0.33,276.0,2700.0,29.033960255296332,2.0266301977097765,5471.901533816396,16.59884364499282,5.356918356603358,12.435116610303513,3.3302881588935813,2807,88,916,1427,441.00422146111146,254.58458245570657,0.004501413423950011,True
0.15000000000000002,0.7902814121330608,2.0,4315.0,81.52326,0.3,68900.0,0.33,276.0,2700.0,30.976955832643338,2.3162031039776747,6253.748380739722,17.779229410162536,5.991574890910196,13.197726422480802,3.6753717869325215,3084,94,1012,1560,430.61075914148256,248.60538362328757,0.004512378523574675,True
0.16,0.779247255380185,2.0,4316.0,81.52326,0.3,68900.0,0.33,276.0,2700.0,30.02342136108626,2.3932950665474,6461.8966796779805,17.422940355640712,5.797364574980423,12.600481005445548,3.404069508433023,2999,92,984,1517,401.3616479297357,231.7205590754702,0.004161457765836153,True
0.17,0.7261146204769335,2.0,4317.0,81.52326,0.3,68900.0,0.33,276.0,2700.0,26.624811180499545,2.252819187204401,6082.611805451883,15.750149360093854,4.9163918967991815,10.874661820405692,2.6635727095947805,2683,84,874,1366,355.0663623929371,204.86154229343023,0.0035647636630592207,True
0.18000000000000002,0.7218308616910971,2.0,4318.0,81.52326,0.3,68900.0,0.33,276.0,2700.0,26.116464353266508,2.3382672795568307,6313.3216548034425,15.618373271173626,4.84920446922833,10.498091082092882,2.5109371896714996,2623,84,864,1321,335.56468683152445,193.23399083527192,0.003351935756367012,True
0.19,0.8645790037076235,2.0,4319.0,81.52326,0.3,68900.0,0.33,276.0,2700.0,34.4533652558618,3.258704243299555,8798.501456908798,20.25794268204268,7.4037510497454155,14.195422573819119,4.14504680644586,3373,100,1110,1702,374.37316298765495,216.11314311534767,0.004111703130638204,True
0.2,0.714517551018881,2.0,4320.0,81.52326,0.3,68900.0,0.33,276.0,2700.0,25.186760827164193,2.5019209218972733,6755.186489122638,15.394468534044341,4.735802014973661,9.792292293119852,2.2338810930763877,2380,80,782,1201,305.0272694807924,176.0815020407215,0.0029947514607483404,True
0.21000000000000002,0.5448848475127406,2.0,4321.0,81.52326,0.3,68900.0,0.33,276.0,2700.0,16.195752744216534,1.6811578450994733,4539.126181768578,10.578174051128032,2.5431204374597676,5.617578693088502,0.8619625923602943,1650,64,544,828,228.8031039867215,131.97645190980023,0.002016998302764019,False
0.22,0.7436353358000365,2.0,4322.0,81.52326,0.3,68900.0,0.33,276.0,2700.0,26.319737338470127,2.872869988181432,7756.748968089866,16.293918658898356,5.19709812901973,10.02581867957177,2.3242281408382977,2524,82,830,1273,285.551510057399,164.70396758018944,0.0028966609446394263,True
0.23,0.6133843523086315,2.0,4323.0,81.52326,0.3,68900.0,0.33,276.0,2700.0,19.100790718033988,2.17110842736309,5861.992753880343,12.43599094995505,3.3306767263507493,6.664799768078938,1.1595682989876592,1943,70,636,983,232.17855112207621,133.9989766038164,0.0021603393863584876,False
0.24000000000000005,0.90206911700543,2.0,4324.0,81.52326,0.3,68900.0,0.33,276.0,2700.0,35.38944360568308,4.217780314786492,11388.00684992353,21.561351165445014,8.187545722650169,13.828092440238063,3.969765407863677,3238,98,1064,1636,314.3500641520453,181.015616748486,0.0035072459263673613,True
0.25,0.8077164579654634,2.0,4325.0,81.52326,0.3,68900.0,0.33,276.0,2700.0,29.265650122347193,3.6254813418185043,9788.799622909963,18.348438396797633,6.306507562800659,10.91721172554956,2.681026220982155,2730,88,900,1374,277.93970168849387,160.31597646373385,0.0028870746712148683,True
0.26,0.7097074530676601,2.0,4326.0,81.52326,0.3,68900.0,0.33,276.0,2700.0,23.440508126004858,3.0104549680609707,8128.228413764621,15.247935105689276,4.662105766577925,8.192573020315582,1.6516507985169544,2320,78,762,1171,237.89414897972966,137.29124627854026,0.002338801977222099,False
0.27,0.7524246492306559,2.0,4327.0,81.52326,0.3,68900.0,0.33,276.0,2700.0,25.556550791417486,3.4089103780408245,9204.058020710227,16.569607910188896,5.3415206246673845,8.98694288122859,1.93261024662656,2467,82,812,1243,242.55894496086722,139.8827194982478,0.002447912222910985,False
0.28,0.5962365688832681,2.0,4328.0,81.52326,0.2,68900.0,0.33,276.0,2700.0,17.190502849156584,2.3606942375941853,6373.8744415043,11.959849898063586,3.1215199891338696,5.230652951092997,0.7608257515396843,3463,94,1148,1733,186.88210544820242,107.4540324022183,0.0017708644859854524,False
0.29000000000000004,0.6083379672041698,2.0,4329.0,81.52326,0.3,68900.0,0.33,276.0,2700.0,17.56891807384045,2.496412918554598,6740.314880097415,12.295100994523807,3.2682756885012494,5.273817079316643,0.7718627699466514,1812,66,600,906,183.87571211889667,106.06358491884018,0.0017563745702048777,False
0.3,0.6785238137782106,2.0,4330.0,81.52326,0.3,68900.0,0.33,276.0,2700.0,20.86925405840341,3.0738394409958936,8299.366490688913,14.312070458091043,4.201275000676402,6.557183600312367,1.1274355596805083,2088,72,690,1047,200.7026988842646,115.6963359597288,0.0019449106428381332,False
0.31,0.8883074587236499,2.0,4331.0,81.52326,0.3,68900.0,0.33,276.0,2700.0,32.54871668033882,4.982656960957123,13453.173794584232,21.078799908579622,7.894151587038,11.469916771759198,2.911494626080877,3196,96,1052,1612,247.72051135368304,142.57212647393578,0.0027124271106712234,False
0.32,0.8055215103439586,2.0,4332.0,81.52326,0.3,68900.0,0.33,276.0,2700.0,27.33988676764131,4.30575274410739,11625.532409089952,18.276358694445506,6.266312829316723,9.063528073195805,1.960560085209333,2611,86,860,1315,219.90860293651858,126.62490676047358,0.0023090175419716932,False
0.33,0.8346037289535184,2.0,4333.0,81.52326,0.3,68900.0,0.33,276.0,2700.0,28.781962043637087,4.6737574604050645,12619.145143093674,19.241213418707193,6.811808430373093,9.540748624929893,2.1380509699680283,2868,88,950,1437,222.94643727322313,128.2276547248974,0.0023510080690916616,False
0.34,0.9135867641265818,2.0,4334.0,81.52326,0.3,68900.0,0.33,276.0,2700.0,33.311137289541506,5.580575234117591,15067.553132117495,21.96887518227369,8.438225415739053,11.342262107267818,2.8576501816214623,3194,96,1058,1601,230.43728705122808,132.4701006522775,0.002591878064903661,False
0.3500000000000001,0.8614576152064573,2.0,4335.0,81.52326,0.3,68900.0,0.33,276.0,2700.0,29.865404104860783,5.136648528335529,13868.951026505929,20.151015191249968,7.340685085215033,9.714388913610815,2.2040365568795037,2912,90,966,1457,215.70779027759434,123.97985632619573,0.0023274160815490172,False
0.36000000000000004,0.8649309452796996,2.0,4336.0,81.52326,0.3,68900.0,0.33,276.0,2700.0,29.819025963808993,5.269708575588368,14228.213154088593,20.270014289795256,7.410882786098968,9.549011674013737,2.1411742105106004,2914,90,966,1459,210.16622938245786,120.63049159044907,0.0022816266114900484,False
0.37,0.6782842294263318,2.0,4337.0,81.52326,0.2,68900.0,0.33,276.0,2700.0,19.37328606833111,3.4779705275197323,9390.520424303277,14.304974802542251,4.1978469025844785,5.068311265788861,0.7198763750647461,4984,102,1350,2717,190.98036877271215,110.17501840349684,0.0016718831459151741,False
0.38,1.0359482570513727,2.0,4338.0,81.52326,0.3,68900.0,0.33,276.0,2700.0,40.15399533615834,7.514335465811562,20288.705757691216,26.50419782590533,11.400007195846863,13.64979751025301,3.885671730035301,3731,106,1238,1868,233.9911892112671,133.83975593674924,0.0028028535095310798,False
0.39,0.8535398637211408,2.0,4339.0,81.52326,0.3,68900.0,0.33,276.0,2700.0,28.406019791126532,5.414936436190811,14620.32837771519,19.880880002184586,7.18220482599618,8.525139788941946,1.767268389805369,2724,86,904,1362,194.58887304142854,111.71375087660033,0.0021022761482763297,False
0.4,0.7536855383466907,2.0,4340.0,81.52326,0.2,68900.0,0.33,276.0,2700.0,22.62583106077084,4.391124925601006,11856.037299122716,16.609316724727456,5.3624380929456565,6.016514336043382,0.9713131673446505,6022,110,1514,3373,184.85115294572648,106.64587764942259,0.0017822389881588972,False
0.4100000000000001,0.8995940500261599,2.0,4341.0,81.52326,0.3,68900.0,0.33,276.0,2700.0,30.63882077866754,6.1366104547748055,16568.848227891976,21.47421213153196,8.13428780358039,9.16460864713558,1.9976773488055848,2868,90,950,1437,192.99090029074196,110.27049743744945,0.0021480465953765994,False
0.42000000000000004,0.8686785041243084,2.0,4342.0,81.52326,0.3,68900.0,0.33,276.0,2700.0,28.566775340770022,5.8438532772153176,15778.403848481357,20.398748742786136,7.487086967169264,8.168026597983886,1.6432336899539468,2802,88,924,1406,181.48046722280066,104.00723784535072,0.002017799725592151,False
0.43,1.0315233069282541,2.0,4343.0,81.52326,0.3,68900.0,0.33,276.0,2700.0,38.43948765831805,8.097970775132403,21864.52109285749,26.333629341998957,11.283105002392084,12.105858316319093,3.185134227259681,3648,104,1218,1815,210.39880449581105,119.93011058907778,0.0024962279534371957,False
0.44,1.0914090268852359,2.0,4344.0,81.52326,0.3,68900.0,0.33,276.0,2700.0,42.201962098098804,9.10602270917947,24586.26131478457,28.68378005116512,12.93003377892211,13.518182046933685,3.8240110697426406,3865,108,1286,1928,213.5167706182704,121.54361875621707,0.002645024643450605,False
0.45,0.9831953470010706,2.0,4345.0,81.52326,0.2,68900.0,0.33,276.0,2700.0,34.77568473424576,7.633677311499718,20610.92874104924,24.502769433177843,10.054931684521659,10.272915301067915,2.4212543730219407,9088,142,2236,5134,200.41526066531327,115.13909642151634,0.002278857117334924,False
0.46,0.8560986721092725,2.0,4346.0,81.52326,0.2,68900.0,0.33,276.0,2700.0,26.917121102746755,5.987077811944886,16165.110092251192,19.968008251922083,7.233187625668614,6.9491128508246724,1.246109813723728,7204,122,1786,4057,181.6443009609502,104.61668479731195,0.0018697426705199317,False
0.4700000000000001,0.8358761680299445,2.0,4347.0,81.52326,0.3,68900.0,0.33,276.0,2700.0,25.563851617200477,5.7900587473263645,15633.158617781184,19.28391423475076,6.836318864983218,6.279937382449717,1.0462601176568533,2609,80,828,1331,177.89465331250233,102.19623095787443,0.001745758251375903,False
0.4800000000000001,1.1783046258958636,2.0,4348.0,81.52326,0.3,68900.0,0.33,276.0,2700.0,47.157069970238034,11.086073449693265,29932.398314171816,32.25418409808925,15.57628002116979,14.902885872148786,4.490206571476525,4613,116,1476,2347,212.69982848486103,122.19268412701182,0.00272924172787385,False
0.49,0.7964191859792863,2.0,4349.0,81.52326,0.2,68900.0,0.33,276.0,2700.0,23.009208180652863,5.390852514858496,14555.30179011794,17.978740439737564,6.101311572705493,5.030467740915299,0.7104590578469967,6472,112,1600,3650,163.83577443827295,94.13565862067954,0.0016326020473426239,False
0.5,0.9658843011620654,2.0,4350.0,81.52326,0.3,68900.0,0.33,276.0,2700.0,32.4432181303227,7.849005144781526,21192.31389091012,23.861235441453157,9.636326796820386,8.581982688869541,1.7873216520388597,3635,94,1060,1927,186.69062299181155,106.83342431581553,0.002021188279747785,False
0.01,0.3239716051340152,2.0,4351.0,84.54263999999999,0.05,68900.0,0.33,276.0,2700.0,10.574336727269658,0.05286958924124599,142.74789095136418,5.390083370762336,0.801900672497258,5.184253356507322,0.7490310832560121,34550,284,11446,17375,2654.530892473794,1509.4401756458758,0.018543883991761368,True
0.02,0.5565769869177108,2.0,4352.0,84.54263999999999,0.1,68900.0,0.33,276.0,2700.0,21.24780727815939,0.21246131762077655,573.6455575760967,10.88693712496104,2.668603625912753,10.360870153198348,2.456142308291976,16344,214,5428,8196,2291.421923972508,1304.7897083306077,0.019930138251943966,True
0.03,0.37414128811901637,2.0,4353.0,84.54263999999999,0.1,68900.0,0.33,276.0,2700.0,12.273542837279825,0.18404659389143285,496.9258035068687,6.460660053737958,1.0989102190516415,5.812882783541867,0.9148636251602087,10074,156,3312,5100,1046.922364071232,597.5964601098699,0.0077525752809532176,True
0.04,0.5781486628965121,2.0,4354.0,84.54263999999999,0.1,68900.0,0.33,276.0,2700.0,21.867460121230337,0.4372151611380544,1180.480935072747,11.465613591137018,2.909673592831854,10.40184653009332,2.4724584316937994,17576,220,5776,8906,1383.8209873413973,789.361649246489,0.010556024266100379,True
0.05,0.359007331264107,2.0,4355.0,84.54263999999999,0.08,68900.0,0.33,276.0,2700.0,11.214058952467418,0.2800896744238863,756.2421209444931,6.131051737221578,1.0036362672214947,5.08300721524584,0.7235465927976084,15110,188,4962,7661,637.3725333426812,365.25987529321543,0.004590639421941511,True
0.06000000000000001,0.47738198750919686,2.0,4356.0,84.54263999999999,0.1,68900.0,0.33,276.0,2700.0,16.296889500503262,0.4884542956729826,1318.826598317053,8.862753940356159,1.8876055237334313,7.434135560147103,1.3991512280604486,13120,184,4316,6640,701.8560262478697,402.2697134015359,0.0055433724738656685,True
0.06999999999999999,0.7274101164403971,2.0,4357.0,84.54263999999999,0.2,68900.0,0.33,276.0,2700.0,29.482386484523527,1.031165149438204,2784.1459034831505,15.790091963586846,4.936822019906207,13.69229452093668,3.905656870468003,5952,132,1954,3015,869.4186426492475,497.31302966754026,0.008878557792220763,True
0.08,0.4560733768953817,2.0,4358.0,84.54263999999999,0.2,68900.0,0.33,276.0,2700.0,14.848183044252377,0.5928549914776694,1600.7084769897074,8.345028927247379,1.7042888153527354,6.503154117004998,1.1114338238750658,3177,88,1042,1608,490.5321571526449,283.20060876813454,0.004011331169342667,True
0.09,0.7828327625596267,2.0,4359.0,84.54263999999999,0.3,68900.0,0.33,276.0,2700.0,32.276847281443835,1.450931313635325,3917.5145468153773,17.538379513484745,5.860041510136448,14.73846776795909,4.409110196501123,3149,96,1036,1589,727.7863586087652,419.729410604066,0.007813959522969132,True
0.09999999999999999,0.6777206705608063,2.0,4360.0,84.54263999999999,0.1,68900.0,0.33,276.0,2700.0,25.74230849289338,1.285021029542273,3469.556779764137,14.288289836020759,4.189789909068656,11.45401865687262,2.904768879526383,20483,242,6758,10340,604.1203285342002,346.54244343917264,0.0055057305281155725,True
0.11,0.7861239571023642,2.0,4361.0,84.54263999999999,0.3,68900.0,0.33,276.0,2700.0,31.885687572238464,1.7509251765918172,4727.497976797907,17.644627377007343,5.917938495608659,14.241060195231121,4.167013319016842,3172,96,1038,1609,596.0578978550141,344.1167708394085,0.0064013659079137164,True
0.12,0.6805186619511127,2.0,4362.0,84.54263999999999,0.3,68900.0,0.33,276.0,2700.0,25.363009207901925,1.5181614377371793,4099.035881890384,14.371206938316982,4.229884375803923,10.991802269584943,2.7117229380667442,2527,82,824,1285,485.24498256048975,279.0910463179925,0.004682843973185189,True
0.13,0.6883222041882248,2.0,4363.0,84.54263999999999,0.3,68900.0,0.33,276.0,2700.0,25.536819772807533,1.6552918991925203,4469.288127819805,14.603500694235606,4.342936057959136,10.933319078571927,2.6876441587666156,2537,82,832,1283,455.53324113636637,262.97271291749826,0.0044157850104444,True
0.14,0.815955286954835,2.0,4364.0,84.54263999999999,0.3,68900.0,0.33,276.0,2700.0,32.856147643139764,2.2941833148588144,6194.294950118799,18.62007284824114,6.458795012605659,14.236074794898624,4.164611697746844,3367,98,1106,1702,494.0214859911976,285.07822870822304,0.005314457615994317,True
0.15000000000000002,0.5195314022737445,2.0,4365.0,84.54263999999999,0.2,68900.0,0.33,276.0,2700.0,16.280099311956388,1.213938864926153,3277.6349353006135,9.920449404659033,2.28329920644432,6.359649907297355,1.0693603415181667,3512,94,1158,1769,301.8414282679218,174.20230331050146,0.002656352562398717,True
0.16,0.6183135450347199,2.0,4366.0,84.54263999999999,0.3,68900.0,0.33,276.0,2700.0,20.97314733908663,1.6692731447875295,4507.03749092633,12.574226920873784,3.3923165675203655,8.398920418212846,1.723043422732836,2209,74,720,1123,342.3602910579775,197.59456880293038,0.0031380311461050923,True
0.17,0.4734474555734675,2.0,4367.0,84.54263999999999,0.2,68900.0,0.33,276.0,2700.0,13.736648594053033,1.1573253673564494,3124.7784918624134,8.766299496707019,1.8529246144278808,4.9703490973460145,0.6955992470714314,2905,84,954,1468,251.52082166001185,145.0955971465453,0.0021175834314609778,False
0.18000000000000002,0.548732966132703,2.0,4368.0,84.54263999999999,0.3,68900.0,0.33,276.0,2700.0,17.02162401474539,1.5197316490899282,4103.275452542806,10.67941488644563,2.584021180017932,6.342209128299762,1.0642895309280038,1727,64,568,869,311.4788896809381,179.6858236977475,0.0024179826378979644,True
0.19,0.5794893638452507,2.0,4369.0,84.54263999999999,0.3,68900.0,0.33,276.0,2700.0,18.302775732298592,1.7243982385610517,4655.87524411484,11.501964926424378,2.925069914938972,6.800810805874214,1.2006716763779202,2064,72,678,1041,275.57900281300755,159.1040950715544,0.002465197162874244,False
0.2,0.5033391125719772,2.0,4370.0,84.54263999999999,0.2,68900.0,0.33,276.0,2700.0,14.477000616179039,1.4309449007987587,3863.5512321566484,9.508839123894676,2.1260057638390415,4.968161492284363,0.6950608630402828,3103,86,1022,1564,228.44575734592476,131.74228394432032,0.0019833924442909556,False
0.21000000000000002,0.7380322369009686,2.0,4371.0,84.54263999999999,0.3,68900.0,0.33,276.0,2700.0,26.258362563167324,2.737731876089307,7391.876065441129,16.119182913035598,5.106291590573428,10.139179650131727,2.368559714484121,2611,84,858,1318,306.0018780435285,176.66023999398038,0.003104086515784438,True
0.22,0.6898512707450788,2.0,4372.0,84.54263999999999,0.3,68900.0,0.33,276.0,2700.0,23.327676763236575,2.5437433249057406,6868.106977245499,14.64919686246355,4.3653007112374755,8.678479900773025,1.821557386331735,2350,78,770,1189,283.0987898912866,163.44495233043284,0.002713665257279384,True
0.23,0.5943966203506188,2.0,4373.0,84.54263999999999,0.3,68900.0,0.33,276.0,2700.0,18.15696643583553,2.0625686349102663,5568.935314257719,11.909199227166402,3.0995610912229683,6.247767208669126,1.036992456312702,1938,68,636,978,234.92792546798623,135.60367802594487,0.002155176128268263,False
0.24000000000000005,0.5784008833548935,2.0,4374.0,84.54263999999999,0.3,68900.0,0.33,276.0,2700.0,17.163959596809274,2.030722233721624,5482.950031048385,11.472448765772667,2.912566317099282,5.691510831036608,0.8818440833776577,1884,68,620,948,223.4688422812847,128.74851396396588,0.0020098367136521795,False
0.25,0.7017656189310117,2.0,4375.0,84.54263999999999,0.3,68900.0,0.33,276.0,2700.0,23.249022119979415,2.873402841522533,7758.187672110839,15.00727001806144,4.541965905256434,8.241752101917974,1.6685630637339006,2279,78,748,1151,253.50881355740663,146.28336485575633,0.00247485900719321,False
0.26,0.8274886741676499,2.0,4376.0,84.54263999999999,0.3,68900.0,0.33,276.0,2700.0,30.18138428955772,3.886768869322843,10494.275947171676,19.003194631161815,6.67575365549437,11.178189658395905,2.788984786171527,2932,90,970,1471,281.81161749087545,162.4631255536886,0.002998042907059677,True
0.27,0.6344831853507704,2.0,4377.0,84.54263999999999,0.3,68900.0,0.33,276.0,2700.0,19.281628905636932,2.561795923460581,6916.8489933435685,13.03198100790173,3.5993292991422132,6.249647897735201,1.0375333756816323,2016,70,664,1014,214.5980615229218,123.78785451557025,0.0020371627998313053,False
0.28,0.8296575742345007,2.0,4378.0,84.54263999999999,0.2,68900.0,0.33,276.0,2700.0,29.779411708233763,4.1231414778649915,11132.481990235477,19.075615689079747,6.717048201250298,10.703796019154016,2.593906723385307,6251,134,2068,3143,263.9097654317151,152.07557169562145,0.0028050807092447273,False
0.29000000000000004,0.6005429683814374,2.0,4379.0,84.54263999999999,0.2,68900.0,0.33,276.0,2700.0,17.192990707884448,2.441903450490977,6593.139316325638,12.078730406743773,3.173279686950886,5.114260301140675,0.731376236459909,3513,94,1162,1760,189.24243961648955,109.04188171290063,0.0017992195937187464,False
0.3,0.9922070953966816,2.0,4380.0,84.54263999999999,0.3,68900.0,0.33,276.0,2700.0,39.55943450714854,5.877366508307668,15868.889572430704,24.839718794167442,10.277261196279733,14.719715712981095,4.399894687972065,3754,106,1238,1891,289.48549431522434,166.20252382372354,0.0033847232161039716,True
0.31,0.9390447737484132,2.0,4381.0,84.54263999999999,0.3,68900.0,0.33,276.0,2700.0,35.75876321149756,5.480214173286726,14796.578267874162,22.881474184578373,9.009091171925645,12.877289026919186,3.5288769986389186,3381,100,1114,1704,267.5924763604482,153.85838175457383,0.003041970421845898,False
0.32,0.742531050537916,2.0,4382.0,84.54263999999999,0.3,68900.0,0.33,276.0,2700.0,23.812605677767916,3.7413877697276465,10101.746978264646,16.259418481319486,5.179124046621686,7.55318719644843,1.4377362768940394,2347,78,774,1180,218.77325125066935,126.1412154760411,0.0021451946184865398,False
0.33,0.8473891857852516,2.0,4383.0,84.54263999999999,0.3,68900.0,0.33,276.0,2700.0,29.53773634246006,4.798460219711206,12955.842593220257,19.67212060849602,7.060566429253987,9.865615733964042,2.2621062095427806,2796,88,928,1398,234.69614861969367,135.0418704393569,0.002489439018292613,False
0.34,0.7844293687424123,2.0,4384.0,84.54263999999999,0.2,68900.0,0.33,276.0,2700.0,25.656829705280987,4.279342944793308,11554.225950941933,17.58988789282928,5.888084506078012,8.066941812451706,1.6087415612847034,5631,120,1750,2908,223.8916293195212,129.02752618852506,0.002208027410562523,False
0.3500000000000001,0.9399733105708055,2.0,4385.0,84.54263999999999,0.3,68900.0,0.33,276.0,2700.0,34.70284867392917,5.983201327922498,16154.643585390746,22.915067540231547,9.030353057913798,11.78778113369762,3.0471517299913,3314,98,1094,1667,241.1794856445382,138.39249122055108,0.00273083631648257,False
0.36000000000000004,1.0115068627755202,2.0,4386.0,84.54263999999999,0.3,68900.0,0.33,276.0,2700.0,39.08921697066685,6.938342956822777,18733.5259834215,25.568203622085377,10.7636767284405,13.52101334858147,3.8253337716177223,3758,106,1244,1886,249.21594321963877,142.6808950460148,0.002949947290875189,False
0.37,0.8036946222186591,2.0,4387.0,84.54263999999999,0.3,68900.0,0.33,276.0,2700.0,26.030046887904398,4.709471279140793,12715.57245368014,18.21645799797557,6.232978695349769,7.813588889928827,1.5235074162089761,2549,84,840,1283,199.7004700447986,114.74395338643285,0.0021057819783434585,False
0.38,0.7800234708840559,2.0,4388.0,84.54263999999999,0.2,68900.0,0.33,276.0,2700.0,24.485602473952248,4.537340821992317,12250.820219379257,17.447904024098182,5.81089821902142,7.037698449854066,1.2735573970291023,6597,118,1720,3655,204.27199654768577,117.77039567788732,0.002009758195110483,False
0.39,0.9645779943044348,2.0,4389.0,84.54263999999999,0.3,68900.0,0.33,276.0,2700.0,35.18215033544519,6.736281892332949,18187.96110929896,23.813130331825676,9.605188126017657,11.369020003619518,2.868906233684708,3418,100,1140,1702,225.77962808392186,129.46745867475173,0.002567378423356382,False
0.4,1.0905928748148672,2.0,4390.0,84.54263999999999,0.3,68900.0,0.33,276.0,2700.0,43.32252608681532,8.530463930809486,23032.25261318561,28.651145218851962,12.906636771080594,14.67138086796336,4.376172840271108,3986,110,1324,1994,238.98160833378793,136.6694333960489,0.002983342878819011,False
0.4100000000000001,0.8390015292491906,2.0,4391.0,84.54263999999999,0.3,68900.0,0.33,276.0,2700.0,27.092704691354243,5.409656656875582,14606.072973564073,19.388968578133237,6.896752165135061,7.703736113221005,1.487095508259479,2658,84,870,1337,187.7809812994218,107.75280026688914,0.0020390009909277826,False
0.42000000000000004,0.7758205689506373,2.0,4392.0,84.54263999999999,0.2,68900.0,0.33,276.0,2700.0,23.37529622718007,4.75364266336171,12834.835191076616,17.3129165502832,5.737850214512955,6.062379676896867,0.9842075511512451,6493,114,1636,3635,193.4662781528218,111.52740077033427,0.0018448358658144225,False
0.43,0.8238676331158665,2.0,4393.0,84.54263999999999,0.1,68900.0,0.33,276.0,2700.0,25.78147829639994,5.376498762319585,14516.54665826288,18.882549053400343,6.607160838355158,6.898929242999596,1.230662076035573,41869,234,6740,26531,196.3053922847127,113.18431229399873,0.001958568874136373,False
0.44,0.8541202821492605,2.0,4394.0,84.54263999999999,0.3,68900.0,0.33,276.0,2700.0,27.259695321082383,5.818724018235862,15710.554849236827,19.900629006710837,7.193749786050243,7.359066314371546,1.375025767814381,2790,84,880,1430,183.04165863681882,104.95972085957607,0.001968145345586743,False
0.45,0.9701213170546161,2.0,4395.0,84.54263999999999,0.3,68900.0,0.33,276.0,2700.0,33.95312939551822,7.448602360285964,20111.226372772104,24.017559866235448,9.73775824582972,9.93556952928277,2.2891558855437566,3263,96,1084,1625,195.546671677151,111.88476807056644,0.00231391538426041,False
0.46,1.0962539326417815,2.0,4396.0,84.54263999999999,0.1,68900.0,0.33,276.0,2700.0,41.96036330446334,9.447023518339009,25506.963499515325,28.877854156846194,13.069473887203195,13.082509147617149,3.622450368864186,72363,314,10902,46550,270.6246047217553,153.38624533838055,0.002700706004874936,False
0.4700000000000001,1.0361674826086693,2.0,4397.0,84.54263999999999,0.3,68900.0,0.33,276.0,2700.0,37.65542655959086,8.631578858788087,23305.262918727836,26.512661104167677,11.405818521047332,11.14276545542318,2.7742396622592445,3474,100,1152,1732,200.384215930432,114.17866535755454,0.002405110019520352,False
0.4800000000000001,0.9869306972279359,2.0,4398.0,84.54263999999999,0.3,68900.0,0.33,276.0,2700.0,34.2417555426541,7.986397987072847,21563.274565096686,24.642186541784994,10.146718386590205,9.599569000869103,2.1603203995173583,3406,96,1086,1735,204.56083472901923,117.17681487245306,0.0022210061234908835,False
0.49,0.9685823797691364,2.0,4399.0,84.54263999999999,0.3,68900.0,0.33,276.0,2700.0,32.85298752742465,7.802578454817577,21066.961828007457,23.960728697787804,9.700840464880462,8.892258829636848,1.8982620100628855,3607,96,1080,1893,202.8964873569244,116.76434960438255,0.002145327425336321,False
0.5,1.0888651315757232,2.0,4400.0,84.54263999999999,0.3,68900.0,0.33,276.0,2700.0,40.33955362913463,9.823089019484378,26522.340352607822,28.582114537579,12.8571945930822,11.757439091555629,3.034105573597822,4433,106,1276,2371,209.85743932894326,119.99030512165764,0.0024617275162294944,False
0.01,0.35858062272451313,2.0,4401.0,87.56201999999999,0.05,68900.0,0.33,276.0,2700.0,12.029155241867967,0.0601436818142367,162.3879408984391,6.1218417254779,1.0010220602465854,5.907313516390067,0.9408783784323487,38932,306,12908,19564,122490.57214377765,63036.89895968838,0.033659059058589264,True
0.02,0.39878101011616096,2.0,4402.0,87.56201999999999,0.08,68900.0,0.33,276.0,2700.0,13.572476567852059,0.13570801051746179,366.41162839714684,7.00961331528812,1.2648307841647588,6.562863252563939,1.129122773647297,17508,206,5754,8871,1713.1463941403645,975.9565719228647,0.012756129039261672,True
0.03,0.5460911111776395,2.0,4403.0,87.56201999999999,0.1,68900.0,0.33,276.0,2700.0,20.4423152369173,0.3065781798859934,827.7610856921822,10.609869809665536,2.555899617503465,9.832445427251763,2.2493214376174717,16622,212,5458,8429,1706.35334655951,972.369456906803,0.013288813387755885,True
0.04,0.42686878049877097,2.0,4404.0,87.56201999999999,0.1,68900.0,0.33,276.0,2700.0,14.396310260061213,0.28779216391467166,777.0388425696135,7.653997097804188,1.4707184354197849,6.742313162257025,1.1829262715051132,11830,172,3882,6001,985.3821421606503,563.7423174664199,0.007238683012693321,True
0.05,0.39725171430268413,2.0,4405.0,87.56201999999999,0.08,68900.0,0.33,276.0,2700.0,12.85409157059391,0.321090489877048,866.9443226680297,6.975097700843838,1.2541374116507722,5.878993869750072,0.9330469217737242,16653,200,5468,8445,5962.124524336942,3237.291580855885,0.005381870889551327,True
0.06000000000000001,0.5121270226785596,2.0,4406.0,87.56201999999999,0.1,68900.0,0.33,276.0,2700.0,17.98181004688848,0.5390019120645363,1455.305162574248,9.731411352885594,2.2105451382509593,8.250398694002886,1.6715432261864231,15036,198,4926,7641,801.1447705935514,459.1419227093606,0.006284512933292707,True
0.06999999999999999,0.4182991882308072,2.0,4407.0,87.56201999999999,0.08,68900.0,0.33,276.0,2700.0,13.35660572282321,0.4667628227786919,1260.2596215024682,7.455293408798569,1.405979523941753,5.90131231402464,0.939216701163061,17157,204,5644,8685,520.457818915049,299.37034720761574,0.004209920315907944,True
0.08,0.7470152532459712,2.0,4408.0,87.56201999999999,0.2,68900.0,0.33,276.0,2700.0,30.372561432054592,1.213830126989758,3277.3413428723466,16.399704796785173,5.2523489222960364,13.97285663526942,4.038518795306278,6036,134,1988,3048,809.1397773695619,463.1943153679284,0.008404343533512893,True
0.09,0.46875486216132217,2.0,4409.0,87.56201999999999,0.1,68900.0,0.33,276.0,2700.0,15.214055777511302,0.6831056959583649,1844.3853790875853,8.651770024681841,1.8120568717037018,6.56228575282946,1.1289511757453368,12269,176,4028,6221,448.0591872819061,258.43000107859376,0.0038531627079766637,True
0.09999999999999999,0.4812157885434718,2.0,4410.0,87.56201999999999,0.2,68900.0,0.33,276.0,2700.0,15.573825928230193,0.7765969013091154,2096.8116335346117,8.957113236193093,1.9217643183217314,6.616712692037099,1.145167417012616,3315,90,1090,1674,427.9297355101011,247.03047727900224,0.003616231405912376,True
0.11,0.4293090721542538,2.0,4411.0,87.56201999999999,0.2,68900.0,0.33,276.0,2700.0,13.00471964235415,0.7124719404481931,1923.6742392101212,7.710917922717629,1.4894658419399394,5.293801719636521,0.7769939014917463,2878,84,942,1459,473.0610341649627,269.55515850728614,0.003842837731130473,True
0.12,0.7033543225312509,2.0,4412.0,87.56201999999999,0.3,68900.0,0.33,276.0,2700.0,26.66229741261283,1.5961187300198336,4309.520571053551,15.055286405561283,4.565846142669514,11.607011007051547,2.9697274126496804,2711,86,888,1373,519.2564736977977,299.52215838887724,0.005076534470156196,True
0.13,0.7744194889402488,2.0,4413.0,87.56201999999999,0.3,68900.0,0.33,276.0,2700.0,30.584548028165187,1.9833942357907777,5355.164436635099,17.268015772495357,5.713624893764265,13.31653225566983,3.730230657973487,3101,94,1014,1574,527.4842455453432,303.06406012377073,0.005410138672695923,True
0.14,0.5398810128683553,2.0,4414.0,87.56201999999999,0.3,68900.0,0.33,276.0,2700.0,17.48156018555901,1.2179621928281634,3288.4979206360413,10.44708388911424,2.490517242817703,7.0344762964447725,1.2725550499895395,1875,68,612,951,360.34720932743636,208.03645299380602,0.0030847714072225574,True
0.15000000000000002,0.5407463709425331,2.0,4415.0,87.56201999999999,0.3,68900.0,0.33,276.0,2700.0,17.298640924806406,1.290329485889907,3483.889611902749,10.469709484913652,2.499567499476566,6.828931439892754,1.2092380135866592,1855,68,606,940,341.0551849920765,196.8727623082664,0.0028991838040100613,True
0.16,0.653393948301805,2.0,4416.0,87.56201999999999,0.3,68900.0,0.33,276.0,2700.0,22.834969510845305,1.8182189185282258,4909.191080026209,13.575671342553978,3.850900638288681,9.259298168291327,2.032681719760455,2297,78,752,1163,370.0312930873373,213.57134559345957,0.003477295624317461,True
0.17,0.5477335058419427,2.0,4417.0,87.56201999999999,0.3,68900.0,0.33,276.0,2700.0,17.19282580813674,1.4511004305535642,3917.9711624946235,10.653084130404467,2.5733606892739265,6.539741677732271,1.1222602587203623,1732,64,568,874,301.80883845329794,174.2480826949955,0.0026305217447417295,True
0.18000000000000002,0.5239513113090803,2.0,4418.0,87.56201999999999,0.3,68900.0,0.33,276.0,2700.0,15.842801728931708,1.4136376433666917,3816.8216370900677,10.033948960927829,2.327397338418644,5.808852768003879,0.9137596950519524,1608,62,522,819,273.93079909110435,158.1502316436447,0.0023653477572396896,False
0.19,0.7320501348618884,2.0,4419.0,87.56201999999999,0.3,68900.0,0.33,276.0,2700.0,26.437331791374437,2.4971810641732586,6742.388873267798,15.933498642025716,5.010420833082151,10.50383314934872,2.513239768908892,2678,84,880,1352,347.6094230581386,200.43124375202302,0.003486652388056739,True
0.2,0.7242301485287863,2.0,4420.0,87.56201999999999,0.3,68900.0,0.33,276.0,2700.0,25.73324854308462,2.5565696934893074,6902.73817242113,15.692122811992055,4.886765870868145,10.041125731092565,2.3301961773788378,2549,82,834,1292,328.9332774256047,189.86746177699587,0.0032749567871014343,True
0.21000000000000002,0.5210437191055732,2.0,4421.0,87.56201999999999,0.2,68900.0,0.33,276.0,2700.0,15.083693504040024,1.5643916248809384,4223.857387178534,9.959229175399688,2.2983313854641625,5.124464328640336,0.7339397605832241,3274,90,1082,1645,232.54191855041282,134.03848693449896,0.0020544941139480663,False
0.22,0.8920092242688731,2.0,4422.0,87.56201999999999,0.3,68900.0,0.33,276.0,2700.0,35.32777867411539,3.8637545351024105,10432.137244776508,21.208134006559444,7.972419638288762,14.11964466755595,4.108665103186351,3346,100,1102,1687,361.5266160453128,208.4429522367639,0.004018811384304999,True
0.23,0.8679106463780908,2.0,4423.0,87.56201999999999,0.3,68900.0,0.33,276.0,2700.0,33.50219759213942,3.8272702178851943,10333.629588290025,20.372342887754304,7.471433768852232,13.129854704385114,3.6441635509670376,3276,98,1078,1653,340.04735546043156,196.11791958293543,0.003712981798812986,True
0.24000000000000005,0.7170199216172077,2.0,4424.0,87.56201999999999,0.3,68900.0,0.33,276.0,2700.0,24.324791668360334,2.890022082307756,7803.0596222309405,15.470929971710664,4.774420315018776,8.85386169664967,1.8843982327110198,2483,80,814,1256,278.1482617669726,160.53111151351334,0.0027379785847380365,True
0.25,0.6105489822097252,2.0,4425.0,87.56201999999999,0.1,68900.0,0.33,276.0,2700.0,18.521116140492715,2.282414594086694,6162.519404034073,12.356751512509323,3.295528473767373,6.164364627983392,1.0131138796806791,20324,196,4970,11529,237.6320761386802,137.0757755729888,0.0021743321904332583,False
0.26,0.802622406987612,2.0,4426.0,87.56201999999999,0.3,68900.0,0.33,276.0,2700.0,28.70016569224791,3.6942104516725647,9974.368219515925,18.181340862920102,6.213465560773842,10.518824829327809,2.519255109101277,2723,88,898,1370,284.17417461533944,163.84773780834186,0.002966044687846931,True
0.27,0.6910818443477211,2.0,4427.0,87.56201999999999,0.3,68900.0,0.33,276.0,2700.0,22.205627919473066,2.9565357903284575,7982.646633886835,14.68601524063228,4.383350276155623,7.519612678840787,1.4268144858271654,2227,76,734,1120,238.47523073803058,137.4682001188965,0.0023508267266995667,False
0.28,0.9746385199804535,2.0,4428.0,87.56201999999999,0.3,68900.0,0.33,276.0,2700.0,38.977362534575015,5.410854593552768,14609.307402592474,24.18471870520428,9.846627789677862,14.792643829370736,4.435773196125094,3735,106,1234,1878,312.02226773783747,179.51801920939286,0.00364419402456635,True
0.29000000000000004,0.8666833868272918,2.0,4429.0,87.56201999999999,0.3,68900.0,0.33,276.0,2700.0,31.756105669184095,4.5535551198794275,12294.598823674454,20.330169436152453,7.446457499227886,11.425936233031642,2.8929023793484587,3202,96,1054,1615,274.10557715918037,157.71269103014467,0.002988404012071994,False
0.3,0.8391755554899007,2.0,4430.0,87.56201999999999,0.3,68900.0,0.33,276.0,2700.0,29.82347839713924,4.416973091806227,11925.827347876813,19.394825425316423,6.900126864059876,10.428652971822817,2.483153772253649,2892,90,958,1449,258.55477362652556,148.8050695924185,0.002778750718187765,False
0.31,0.7446141873482106,2.0,4431.0,87.56201999999999,0.3,68900.0,0.33,276.0,2700.0,24.159703961326798,3.682359989510261,9942.371971677705,16.324525649176636,5.213062434410419,7.835178312150163,1.5307024449001578,2431,80,800,1225,231.50594726177488,133.43398518644088,0.002296719023536889,False
0.32,0.9915695515905734,2.0,4432.0,87.56201999999999,0.3,68900.0,0.33,276.0,2700.0,38.92251011843022,6.158972480233618,16629.22569663077,24.81581393412173,10.261432408157505,14.106696184308486,4.102459927923888,3733,106,1234,1876,282.30784493132353,162.20255851468883,0.0033032958726099686,True
0.33,0.8891054813681569,2.0,4433.0,87.56201999999999,0.3,68900.0,0.33,276.0,2700.0,32.06081331144097,5.214767919593058,14079.873382901256,21.10665249520095,7.910984059117094,10.954160816240016,2.6962161395240365,2953,92,978,1480,250.39791526691374,143.88311157781726,0.002757682248111446,False
0.34,0.8430980177663915,2.0,4434.0,87.56201999999999,0.3,68900.0,0.33,276.0,2700.0,29.029797927685138,4.852747542601647,13102.418365024447,19.527037679637946,6.976461507543162,9.502760248047192,2.1237139649415147,2821,88,934,1414,235.5010107784985,135.3953177202126,0.0024935267802064075,False
0.3500000000000001,1.0252020867353817,2.0,4435.0,87.56201999999999,0.3,68900.0,0.33,276.0,2700.0,40.30464009147683,6.96351482599334,18801.49003018202,26.09081898490769,11.117412290716908,14.213821106569139,4.153897464723568,3874,108,1278,1951,266.25364431086757,152.71249822476477,0.0031948811246036513,False
0.36000000000000004,0.754868856402656,2.0,4436.0,87.56201999999999,0.2,68900.0,0.33,276.0,2700.0,23.56805362741149,4.144533555036813,11190.240598599396,16.646618961805498,5.382114264058335,6.921434665605993,1.2375807090215218,5745,114,1598,3112,221.15261690220836,127.52310790974646,0.0020844851470392224,False
0.37,0.9726777504351134,2.0,4437.0,87.56201999999999,0.3,68900.0,0.33,276.0,2700.0,36.24993257376452,6.600150131024917,17820.405353767277,24.112097549100078,9.799278342242106,12.13783502466444,3.1991282112171886,3560,102,1182,1781,246.12675449316768,140.9407059323186,0.002825326094885573,False
0.38,0.6936402867267748,2.0,4438.0,87.56201999999999,0.2,68900.0,0.33,276.0,2700.0,19.940161699731835,3.6737070748905287,9919.009102204427,14.762684856339853,4.421021642249669,5.177476843391982,0.7473145673591404,5089,102,1336,2807,198.08460801506843,113.93832414802257,0.001808619216545495,False
0.39,0.8064425811767342,2.0,4439.0,87.56201999999999,0.3,68900.0,0.33,276.0,2700.0,25.719078311301566,4.890982847625228,13205.653688588116,18.306590918393372,6.283160571612964,7.412487392908194,1.3921777239877358,2462,82,818,1229,199.03165564422332,114.23083483379624,0.002094098644298773,False
0.4,1.0423102801253086,2.0,4440.0,87.56201999999999,0.2,68900.0,0.33,276.0,2700.0,40.006219278052534,7.8672025690573415,21241.44693645482,26.750297022833827,11.569409819038825,13.255922255218707,3.702207249981483,10755,158,2674,6056,247.69349973913862,142.1210932010414,0.0029358693245187632,False
0.4100000000000001,0.8563451956081523,2.0,4441.0,87.56201999999999,0.2,68900.0,0.33,276.0,2700.0,28.088873339099873,5.613871229663435,15157.452320091275,19.976411147110237,7.238111244652381,8.112462191989636,1.6242400149889455,7504,126,1864,4226,213.12740139751256,122.69943638791948,0.00220477410131787,False
0.42000000000000004,0.8193623390449867,2.0,4442.0,87.56201999999999,0.3,68900.0,0.33,276.0,2700.0,25.755651175713922,5.253517202553817,14184.496446895306,18.732902073038666,6.522426695413738,7.022749102675256,1.2689094928599216,2815,84,892,1439,187.6822127819206,107.7517820350892,0.0020090255602166467,False
0.43,0.9284681802479977,2.0,4443.0,87.56201999999999,0.2,68900.0,0.33,276.0,2700.0,31.886663394220335,6.689113558351405,18060.606607548794,22.500354776253367,8.769101071283679,9.386308617966968,2.0799875129322736,8566,136,2144,4810,218.49948948698406,125.60205924083591,0.002355792420536589,False
0.44,1.0524313062818589,2.0,4444.0,87.56201999999999,0.3,68900.0,0.33,276.0,2700.0,39.553234235432036,8.523302579392425,23012.91696435955,27.143900387397572,11.842139938515803,12.409333848034464,3.3188373591233784,3808,106,1266,1899,221.31107333898277,126.48246621418414,0.0027025434323321874,False
0.45,0.780308246436098,2.0,4445.0,87.56201999999999,0.1,68900.0,0.33,276.0,2700.0,22.97887774602437,4.979395739149902,13444.368495704737,17.457066414709654,5.815868260085687,5.521811331314716,0.8364725209357848,39440,220,6214,25133,190.33120525407125,109.7886973710767,0.0018296962719348395,False
0.46,0.9966260688165067,2.0,4446.0,87.56201999999999,0.2,68900.0,0.33,276.0,2700.0,35.36783893398833,7.9307429131307705,21413.00586545308,25.0056900678504,10.387393783983628,10.362148866137932,2.456650870852857,9298,144,2308,5236,216.03444441180034,124.17116007037264,0.0024445709532130377,False
0.4700000000000001,1.1001501308883899,2.0,4447.0,87.56201999999999,0.3,68900.0,0.33,276.0,2700.0,41.94302350762669,9.639164141576497,26025.74318225654,29.034353523636028,13.182292484338781,12.908669983990663,3.5431283427622837,4171,110,1346,2112,223.2811618990897,128.36722234686013,0.002707833589574227,False
0.4800000000000001,0.9209624251432611,2.0,4448.0,87.56201999999999,0.2,68900.0,0.33,276.0,2700.0,30.216397335672212,7.020312017397468,18954.842446973165,22.231596195507766,8.601228422216598,7.984801140164446,1.5809164048191304,8283,130,2030,4688,198.3557119027054,113.97149281902452,0.0021261536904412276,False
0.49,0.9046058040892454,2.0,4449.0,87.56201999999999,0.3,68900.0,0.33,276.0,2700.0,29.02104322856605,6.863752101597216,18532.130674312484,21.650819401649255,8.242353565933891,7.370223826916796,1.3786014643366755,3084,86,906,1635,195.12313446465285,112.16420855239042,0.0020244462354505736,False
0.5,0.8369559545784715,2.0,4450.0,87.56201999999999,0.3,68900.0,0.33,276.0,2700.0,24.981272409985547,5.983518714697238,16155.500529682544,19.320181888351588,6.857160954202293,5.661090521633959,0.8736422395050543,2805,80,808,1495,185.85800713398234,107.19037545602035,0.0018146383368622659,False
0.01,0.5033881327340983,2.0,4451.0,90.5814,0.04,68900.0,0.33,276.0,2700.0,18.769228252070775,0.09384404686525119,253.37892653617823,9.510075278964534,2.126471918972493,9.259152973106241,2.032627872107242,94500,496,31146,47775,5528.190058868364,3144.5124437879813,0.036150036879429324,True
0.02,0.5161777194032466,2.0,4452.0,90.5814,0.1,68900.0,0.33,276.0,2700.0,19.16355441334318,0.191618788972613,517.3707302260551,9.83465724919023,2.2501731040489292,9.328897164152952,2.058554315076316,15539,204,5154,7802,2340.3456419729437,1335.6240170014376,0.018885395450582973,True
0.03,0.4501400750933196,2.0,4453.0,90.5814,0.1,68900.0,0.33,276.0,2700.0,15.700724034309976,0.23545431184688426,635.7266419865875,8.202901519953857,1.6551973200510008,7.49782251435612,1.4197430082041165,12998,182,4274,6581,1397.3170747850863,796.8306799893958,0.010475261085819055,True
0.04,0.49009091662473453,2.0,4454.0,90.5814,0.1,68900.0,0.33,276.0,2700.0,17.378697088121807,0.3474399004758116,938.0877312846912,9.176969423577997,2.0022340073029343,8.20172766454381,1.6547941068271228,14126,192,4636,7166,1232.7326860074168,705.0683897035852,0.008930694625550696,True
0.05,0.4541348993824934,2.0,4455.0,90.5814,0.1,68900.0,0.33,276.0,2700.0,15.429408583207964,0.38547341519239925,1040.778221019478,8.298496966422768,1.6881572802687175,7.1309116167851965,1.3026838650763182,12745,180,4186,6460,871.8812467300074,499.2559861323575,0.006591046970296494,True
0.06000000000000001,0.42508238942274723,2.0,4456.0,90.5814,0.08,68900.0,0.33,276.0,2700.0,13.875094876216831,0.4158004569443877,1122.6612337498468,7.612423660260759,1.4570825484568273,6.262671215956073,1.0412820915124397,17941,210,5900,9085,671.4013049534802,384.99217068316,0.005124791769779132,True
0.06999999999999999,0.6995816948268454,2.0,4457.0,90.5814,0.2,68900.0,0.33,276.0,2700.0,27.83389575996559,0.9734679740786748,2628.363530012422,14.941367443135281,4.509263151453014,12.892528316830308,3.5357951773743395,5458,126,1798,2755,912.0271758157375,520.9705616433974,0.008882001242028736,True
0.08,0.43383507403169724,2.0,4458.0,90.5814,0.2,68900.0,0.33,276.0,2700.0,13.836607996557664,0.5523919895698802,1491.4583718386766,7.816885022950467,1.5246050804030293,6.019722973607196,0.9722130908331491,3078,86,1008,1560,502.71471364737874,290.13778590415046,0.0040291155750479275,True
0.09,0.6892279332472953,2.0,4459.0,90.5814,0.2,68900.0,0.33,276.0,2700.0,26.672940032044046,1.1987554874123383,3236.6398160133135,14.63056132090592,4.35617512614387,12.042378711138126,3.1574196387315316,5364,124,1768,2706,693.3203930926812,397.4356138591644,0.00669990897939666,True
0.09999999999999999,0.5528989579975486,2.0,4460.0,90.5814,0.1,68900.0,0.33,276.0,2700.0,19.058316511469606,0.9508214304710878,2567.217862271937,10.789438255229985,2.6287405623551474,8.26887825623962,1.6779191318840596,15239,202,5012,7715,510.62406629835806,293.6381747701412,0.004481945443645562,True
0.11,0.5695993842686606,2.0,4461.0,90.5814,0.2,68900.0,0.33,276.0,2700.0,19.66478440086083,1.0787755021660501,2912.6938558483353,11.234873708090669,2.8126385060981893,8.429910692770163,1.7338630039321392,4271,104,1396,2171,470.5618786548051,271.0958489570193,0.004270095087209259,True
0.12,0.473745939759736,2.0,4462.0,90.5814,0.2,68900.0,0.33,276.0,2700.0,14.791413474040517,0.8838656937054952,2386.437373004837,8.773603152186668,1.8555423061568774,6.017810321853849,0.9716766124513823,3187,88,1038,1624,368.4257142105373,212.10436520373037,0.0031023391811369223,True
0.13,0.6031854555987524,2.0,4463.0,90.5814,0.2,68900.0,0.33,276.0,2700.0,20.911798881078163,1.3546655412301238,3657.596961321334,12.151908456732945,3.2052942250375875,8.759890424345217,1.8506286838074637,4239,106,1386,2154,421.47177371285517,243.28505045916506,0.003943557566622981,True
0.14,0.4997938567269734,2.0,4464.0,90.5814,0.2,68900.0,0.33,276.0,2700.0,15.567637522877844,1.0839876064404828,2926.7665373893033,9.419597549240896,2.092452781788655,6.148039973636948,1.0084651753481721,3338,90,1096,1688,513.5079510573723,296.42628630143736,0.010556677324262593,True
0.15000000000000002,0.6774595763562063,2.0,4465.0,90.5814,0.3,68900.0,0.33,276.0,2700.0,24.404950261301796,1.8233026861270571,4922.917252543054,14.280562474227118,4.186060328220795,10.124387787074678,2.3627576420937375,2505,82,822,1266,426.8395457344033,246.11786568057693,0.004044378809271552,True
0.16,0.5352239214447052,2.0,4466.0,90.5814,0.3,68900.0,0.33,276.0,2700.0,16.81010283705754,1.3362295846252012,3607.8198784880433,10.325643069180877,2.44214721008112,6.484459767876661,1.1059176254559187,1704,64,558,861,320.325524148388,184.67463286202528,0.002786982523775388,True
0.17,0.5050506048319197,2.0,4467.0,90.5814,0.2,68900.0,0.33,276.0,2700.0,15.173091170734095,1.2794229863743396,3454.4420632107167,9.552034055695195,2.14231702179649,5.6210571150389,0.8628940354221506,3250,88,1072,1636,281.2264487289594,162.2141624688067,0.0024550225958230956,True
0.18000000000000002,0.7933134087447483,2.0,4468.0,90.5814,0.3,68900.0,0.33,276.0,2700.0,30.311673297348488,2.715836084524205,7332.757428215353,17.877667455386828,6.045630627772612,12.43400584196166,3.329794543248407,2939,92,966,1484,406.2435143821572,234.4952481586844,0.00424759327149847,True
0.19,0.5165166150718622,2.0,4469.0,90.5814,0.2,68900.0,0.33,276.0,2700.0,15.286182383975856,1.4378218704703911,3882.119050270056,9.843313861321656,2.2535074935556576,5.4428685226542,0.8156856230852665,3426,92,1122,1737,258.8579532250905,148.9854767066177,0.002286726080784137,False
0.2,0.6697239534685244,2.0,4470.0,90.5814,0.3,68900.0,0.33,276.0,2700.0,22.727772548093228,2.256022093990179,6091.2596537734835,14.052395804915212,4.076474757443425,8.675376743178015,1.8204526634532456,2330,78,762,1181,317.40738694088594,183.24766138254,0.003050084910964299,True
0.21000000000000002,0.7365115406608047,2.0,4471.0,90.5814,0.3,68900.0,0.33,276.0,2700.0,26.17181336422132,2.728644210199978,7367.33936753994,16.071895290727987,5.081815172143011,10.099918073493335,2.3531709619430328,2614,84,858,1321,327.2464380013012,188.8517134945203,0.003316386933780914,True
0.22,0.6382953999087131,2.0,4472.0,90.5814,0.3,68900.0,0.33,276.0,2700.0,20.596066036107956,2.243266144921593,6056.818591288302,13.140860059238564,3.6492174259762176,7.455205976869392,1.4059512810546244,2149,74,706,1084,282.6872381354134,162.98903382019756,0.0026303449708812267,True
0.23,0.7679603594878242,2.0,4473.0,90.5814,0.3,68900.0,0.33,276.0,2700.0,27.45859020965409,3.1322553688994006,8457.089496028382,17.06165635645446,5.602755559985824,10.39693385319963,2.4705001910864235,2797,88,920,1411,313.82389246110205,181.07520413427162,0.003231169349014625,True
0.24000000000000005,0.6746897799312426,2.0,4474.0,90.5814,0.3,68900.0,0.33,276.0,2700.0,22.03564689499263,2.6153247095036307,7061.376715659803,14.19869288536661,4.146619502884797,7.836954009626021,1.5312947933811665,2325,78,766,1170,272.2461627832376,157.12413059142415,0.002611401315409841,False
0.25,0.796870049411099,2.0,4475.0,90.5814,0.3,68900.0,0.33,276.0,2700.0,28.623789888804726,3.545248812625698,9572.171794089383,17.993433282594182,6.109420841360648,10.630356606210544,2.56417202873495,2738,88,902,1379,302.39425371279856,174.38858359173565,0.0031467214697467475,True
0.26,0.958696966791257,2.0,4476.0,90.5814,0.3,68900.0,0.33,276.0,2700.0,38.5117948532839,4.969722242607241,13418.25005503955,23.59709104154914,9.465778143874806,14.91470381173476,4.496055901267565,3733,106,1234,1876,342.0989511884629,196.94026815853024,0.0039532081289251645,True
0.27,0.8009013551279031,2.0,4477.0,90.5814,0.3,68900.0,0.33,276.0,2700.0,28.338446748412654,3.784466332235301,10218.059097035313,18.125033476852945,6.182222994912249,10.213413271559709,2.3977566626769478,2739,88,902,1380,284.45824995390234,164.0004501055048,0.0029563932297111627,True
0.28,0.8633091203144899,2.0,4478.0,90.5814,0.3,68900.0,0.33,276.0,2700.0,31.820191801735728,4.408850690955266,11903.896865579218,20.21441151977118,7.378053468793403,11.605780281964549,2.969202777838137,3213,96,1060,1617,293.1709126194553,168.65150329386267,0.0031765157814277038,True
0.29000000000000004,0.6408054621796166,2.0,4479.0,90.5814,0.2,68900.0,0.33,276.0,2700.0,19.16757352780195,2.728217959379016,7366.188490323343,13.21274830819114,3.6822919918871837,5.954825219610809,0.9540740325081676,4224,104,1410,2101,215.447187265687,124.05086172200271,0.002085646995820465,False
0.3,0.7095119192647283,2.0,4480.0,90.5814,0.3,68900.0,0.33,276.0,2700.0,22.495449771791797,3.3177687980041535,8957.975754611214,15.24199072023937,4.659124861019657,7.2534590515524275,1.3413560630155033,2233,76,736,1123,231.2131354963622,133.36940011755001,0.002297623539082937,False
0.31,0.7890886632666801,2.0,4481.0,90.5814,0.3,68900.0,0.33,276.0,2700.0,26.64528227785827,4.067624628572638,10982.586497146121,17.740568459096345,5.970391795142785,8.904713818761927,1.9027671665701469,2630,86,868,1322,248.43311816096968,142.75889974480927,0.0025662690535524523,False
0.32,0.9868032666211014,2.0,4482.0,90.5814,0.3,68900.0,0.33,276.0,2700.0,38.604064152240426,6.108021125643246,16491.657039236765,24.637424581945226,10.143578521218886,13.9666395702952,4.0355573955756405,3633,104,1202,1824,291.759605813518,167.42767408905303,0.0033941983132226056,True
0.33,0.8061231383771088,2.0,4483.0,90.5814,0.3,68900.0,0.33,276.0,2700.0,27.127954582381747,4.400846229298285,11882.284819105369,18.296103461435123,6.277314338097794,8.831851120946624,1.876468108799509,2550,84,844,1278,238.72588463333386,137.17492493541172,0.0025022511490822596,False
0.34,0.9147793806166533,2.0,4484.0,90.5814,0.3,68900.0,0.33,276.0,2700.0,33.38572288367779,5.593254785120743,15101.787919826005,22.01126351201893,8.464451131507566,11.374459371658862,2.8711963463868235,3201,96,1060,1605,259.53418484557096,149.22752781705572,0.0028853051319465708,False
0.3500000000000001,0.7552342511254919,2.0,4485.0,90.5814,0.2,68900.0,0.33,276.0,2700.0,23.814052366756897,4.07766197416735,11009.687330251845,16.658144565867133,5.388198956375315,7.155907800889764,1.3105369822079647,5451,114,1596,2895,231.1225012175874,133.13431467785335,0.00220366627961766,False
0.36000000000000004,0.8752334152684436,2.0,4486.0,90.5814,0.3,68900.0,0.33,276.0,2700.0,30.435320284712784,5.380641553351042,14527.732194047814,20.62476872645102,7.621539133210575,9.810551558261764,2.240897579859533,2859,90,950,1428,239.39456590199097,137.64060015746395,0.002576443043001642,False
0.37,0.7358950673202984,2.0,4487.0,90.5814,0.3,68900.0,0.33,276.0,2700.0,22.33309064123903,4.025534373507698,10868.942808470785,16.052741970936573,5.071913181411068,6.280348670302455,1.0463788079033698,2221,74,736,1111,195.7333559635602,112.46044029822284,0.0020048105234506926,False
0.38,0.9393068228423154,2.0,4488.0,90.5814,0.3,68900.0,0.33,276.0,2700.0,33.850473291870934,6.316666277396955,17054.998948971777,22.89095261375142,9.01508848337206,10.959520678119514,2.6984222059751044,3069,94,1020,1533,239.41454003979132,137.5206687172818,0.0027190901416784623,False
0.39,0.8921882310411084,2.0,4489.0,90.5814,0.3,68900.0,0.33,276.0,2700.0,30.694231340040346,5.861137688228568,15825.071758217133,21.21439696252038,7.97621659844642,9.479834377519968,2.1150789102178527,2894,90,960,1448,223.83727664558333,128.3313113468711,0.0024668873221564054,False
0.4,0.8378316454902331,2.0,4490.0,90.5814,0.3,68900.0,0.33,276.0,2700.0,27.260500551408782,5.31805882372859,14358.758824067192,19.349615937294953,6.874092348053673,7.910884614113829,1.5560335243250831,2727,86,900,1369,211.17137525406207,121.26755831782442,0.0022313216604167943,False
0.4100000000000001,0.9737148888767345,2.0,4491.0,90.5814,0.3,68900.0,0.33,276.0,2700.0,35.227620129855254,7.077314321768282,19108.748668774362,24.15049807893565,9.824305836514714,11.077122050919602,2.7469915147464325,3323,98,1112,1649,235.93320509975683,135.9020114215425,0.0026826844379266826,False
0.42000000000000004,0.7838137659357618,2.0,4492.0,90.5814,0.3,68900.0,0.33,276.0,2700.0,23.80512940440054,4.843907630578006,13078.550602560617,17.570020238691065,5.877262237502952,6.235109165709474,1.033354606924946,2326,78,774,1157,185.0889681176196,106.22684781849063,0.0019607476281885156,False
0.43,0.9814855561182702,2.0,4493.0,90.5814,0.3,68900.0,0.33,276.0,2700.0,35.1911322803899,7.399574368877853,19978.850795970204,24.43907069683839,10.013091538969343,10.752061583551512,2.61351717009149,3348,98,1118,1665,222.2264303681126,127.17785457456938,0.002589638426466437,False
0.44,1.1083465982015321,2.0,4494.0,90.5814,0.3,68900.0,0.33,276.0,2700.0,43.3767558382748,9.364477332017136,25284.088796446267,29.364828192578337,13.421624823074735,14.011927645696467,4.057147491057599,4036,110,1342,2015,237.74422002014458,135.39288313681024,0.003001250180728141,False
0.45,1.108349540137354,2.0,4495.0,90.5814,0.3,68900.0,0.33,276.0,2700.0,43.08457951465348,9.50317863709145,25658.582320146914,29.36494711208293,13.421711212688678,13.719632402570547,3.9185325755972276,4040,110,1342,2017,236.06586258743698,134.36364268157158,0.0029422407679748548,False
0.46,0.9207905255138579,2.0,4496.0,90.5814,0.3,68900.0,0.33,276.0,2700.0,30.684113278181695,6.853486012295249,18504.41223319717,22.22545757022119,8.597407346693892,8.458655707960503,1.7439213343986433,3049,90,988,1541,217.76304399367277,125.0482393896533,0.002247625015274888,False
0.4700000000000001,1.1468254184782263,2.0,4497.0,90.5814,0.3,68900.0,0.33,276.0,2700.0,45.2006322222185,10.404702189505578,28092.69591166506,30.93883119325321,14.58171233592465,14.26180102896529,4.177010146419072,4309,114,1406,2176,242.109196994755,138.9795555655789,0.002968826857080251,False
0.4800000000000001,0.9829386712131718,2.0,4498.0,90.5814,0.3,68900.0,0.33,276.0,2700.0,33.99194556253877,7.926443591845433,21401.39769798267,24.49320221809362,10.048643644743347,9.498743344445145,2.122200052897914,3407,96,1088,1733,211.30081682628065,121.72928281742995,0.002365208618796448,False
0.49,1.1825648563714668,2.0,4499.0,90.5814,0.3,68900.0,0.33,276.0,2700.0,47.16454744835076,11.308910635444478,30534.058715700092,32.43411038017289,15.714073381003923,14.73043706817787,4.405162745559444,4727,116,1484,2429,231.3163109846489,132.27633929460265,0.0029919248030121086,False
0.5,0.9346528580418362,2.0,4500.0,90.5814,0.2,68900.0,0.33,276.0,2700.0,30.558960229457263,7.377940669565166,19920.439807825947,22.7228735464854,8.90894612380888,7.836086682971864,1.5310054542437141,8318,132,2046,4699,201.5809954401741,116.123635953207,0.0021645028119533865,False
0.01,0.3166610825569446,2.4000000000000004,4501.0,3.01938,0.05,68900.0,0.33,276.0,2700.0,11.841314389509664,0.05920447755244705,159.85208939160705,6.035219905135823,0.889056411823843,5.806094484373841,0.8298519342713959,38633,294,12794,19436,96.01155688839651,54.71592686642814,0.0007397073893229172,False
0.02,0.5052299140897862,2.4000000000000004,4502.0,3.01938,0.1,68900.0,0.33,276.0,2700.0,21.10216744527559,0.21100491929193785,569.7132820882322,10.826345022805494,2.464795936801423,10.275822422470096,2.2537910175094855,16962,206,5610,8541,1412.0453902221134,752.4044723894223,0.0008821789909025777,True
0.03,0.6122652137703632,2.4000000000000004,4503.0,3.01938,0.1,68900.0,0.33,276.0,2700.0,26.984244943865342,0.40470712549009874,1092.7092388232666,13.943480823930118,3.787850538850522,13.040764119935224,3.3831434133604232,22411,240,7378,11338,66.44579232156407,37.841491016443015,0.0005914421395614284,False
0.04,0.5322878713943819,2.4000000000000004,4504.0,3.01938,0.1,68900.0,0.33,276.0,2700.0,22.056099340736957,0.4409879455281859,1190.6674529261018,11.587146535240418,2.7679860955945492,10.468952805496539,2.3269981500663635,17954,212,5898,9101,44.368639359594845,25.31586499490115,0.0003725977175132323,False
0.05,0.504907339007808,2.4000000000000004,4505.0,3.01938,0.1,68900.0,0.33,276.0,2700.0,20.277720444461927,0.5066812117237489,1368.039271654122,10.817386014787889,2.4613050727148402,9.460334429674038,1.9546238609910913,16748,202,5498,8495,33.30657198107117,19.02660940210587,0.00028340218207476285,False
0.06000000000000001,0.6263857341094407,2.4000000000000004,4506.0,3.01938,0.2,68900.0,0.33,276.0,2700.0,26.948300918595518,0.8079966382157474,2181.590923182518,14.376204051250841,3.987788985265458,12.572096867344676,3.1797923470497107,5528,120,1816,2798,31.53836410362838,18.009109218428186,0.00031611020045470994,False
0.06999999999999999,0.7582138228792542,2.4000000000000004,4507.0,3.01938,0.2,68900.0,0.33,276.0,2700.0,34.98778722203876,1.2238541752512389,3304.4062731783447,18.65785328204344,6.160399060866099,16.32993393999532,4.93654488561486,7183,140,2356,3643,32.411497483797845,18.520158878465153,0.0003594477188312648,False
0.08,0.5150768072903035,2.4000000000000004,4508.0,3.01938,0.2,68900.0,0.33,276.0,2700.0,20.04060008649817,0.8005516731675039,2161.4895175522606,11.101085131194043,2.5727524685849095,8.939514955304126,1.7722007954174055,4338,104,1422,2199,19.367074618497615,11.181300209084892,0.00018840438141548598,False
0.09,0.6761548896199066,2.4000000000000004,4509.0,3.01938,0.2,68900.0,0.33,276.0,2700.0,29.097867518108174,1.3078772242852241,3531.268505570105,15.941337135452066,4.741970006266884,13.156530382656108,3.43409278198166,6329,128,2086,3194,22.71674024759644,13.015788345710044,0.00024010560279493265,False
0.09999999999999999,0.41321322117488685,2.4000000000000004,4510.0,3.01938,0.1,68900.0,0.33,276.0,2700.0,14.332692365497557,0.7145402231724848,1929.258602565709,8.376755614542212,1.5829247978595467,5.955936750955345,0.8683845746870619,11677,164,3840,5911,12.48771018353896,7.2041270640690325,0.000116970382084513,False
0.11,0.7077898294020695,2.4000000000000004,4511.0,3.01938,0.3,68900.0,0.33,276.0,2700.0,30.473633632683846,1.6732622099163257,4517.807966774079,16.968549159140206,5.262454834809158,13.50508447354364,3.5891926248928323,2980,88,982,1501,20.329427673885995,11.736303974814284,0.00021210527210547997,False
0.12,0.4608269435720536,2.4000000000000004,4512.0,3.01938,0.2,68900.0,0.33,276.0,2700.0,16.217016159082448,0.9694018548080129,2617.3850079816348,9.617719554792759,2.011090694265877,6.599296604289689,1.0416888394578643,3385,90,1110,1714,12.09030407274225,6.980298323947937,0.00011301594461357985,False
0.13,0.7543643887991804,2.4000000000000004,4513.0,3.01938,0.3,68900.0,0.33,276.0,2700.0,32.840589220003295,2.1300369132602577,5751.099665802696,18.52663660966059,6.088829559013819,14.313952610342707,3.958792645753561,3311,92,1076,1691,17.85947071408976,10.29544600686597,0.00019801220601094942,False
0.14,0.530389039264408,2.4000000000000004,4514.0,3.01938,0.1,68900.0,0.33,276.0,2700.0,19.335243999248945,1.3477200597864603,3638.8441614234425,11.533155832416588,2.746035323438322,7.802088166832357,1.3983152636518617,15926,198,5262,8025,11.57085561833792,6.67127471047405,0.00011672203460230729,False
0.15000000000000002,0.6079953226212857,2.4000000000000004,4515.0,3.01938,0.3,68900.0,0.33,276.0,2700.0,23.35594190235451,1.7446270592060098,4710.493059856227,13.813616820436428,3.72859080911788,9.542325081918081,1.98396374991187,2382,76,780,1206,13.238176963609797,7.641811597444598,0.00013021451191659497,False
0.16,0.7273540929998648,2.4000000000000004,4516.0,3.01938,0.3,68900.0,0.33,276.0,2700.0,30.216899581417778,2.4087733241740183,6503.68797526985,17.61640400190475,5.600753721167387,12.600495579513026,3.191980396993369,2903,86,950,1472,14.112724441116471,8.147251629609958,0.0001551105534655476,False
0.17,0.5029047471809349,2.4000000000000004,4517.0,3.01938,0.2,68900.0,0.33,276.0,2700.0,17.174586250555016,1.4495500681591198,3913.7851840296235,10.761825736820015,2.4396979129931577,6.412760513735002,0.990147844834038,3517,92,1156,1777,9.338860599345619,5.386085488610252,9.200998910999338e-05,False
0.18000000000000002,0.8182170904870576,2.4000000000000004,4518.0,3.01938,0.3,68900.0,0.33,276.0,2700.0,35.49398119910035,3.1822437956818774,8592.058248341069,20.751346878319687,7.342286989324288,14.74263432078066,4.1600431936424105,3645,98,1188,1857,14.033465576153645,8.098877338201612,0.0001631491826685679,False
0.19,0.4907044251322364,2.4000000000000004,4519.0,3.01938,0.08,68900.0,0.33,276.0,2700.0,16.096321981231156,1.5147851322096468,4089.9198569660466,10.425515248043716,2.310455524712036,5.67080673318744,0.7956703925023894,27707,218,6816,15689,8.52256534726359,4.9197640577990756,8.20167007779405e-05,False
0.2,0.8985965884797442,2.4000000000000004,4520.0,3.01938,0.3,68900.0,0.33,276.0,2700.0,40.365002458763485,4.0197450850572,10853.311729654439,23.697557843544704,9.127589649940042,16.66744461521878,5.107844564882842,3689,102,1212,1865,13.806885426175464,7.971364650171931,0.00016836903094766804,False
0.21000000000000002,0.5213516934236274,2.4000000000000004,4521.0,3.01938,0.1,68900.0,0.33,276.0,2700.0,17.190688556374628,1.7856261053760736,4821.190484515399,11.277433209546816,2.642963278335976,5.913255346827812,0.8573371729599024,18709,182,4642,10558,8.352280443104744,4.819818318193146,8.096861029792734e-05,False
0.22,0.6530624004441379,2.4000000000000004,4522.0,3.01938,0.3,68900.0,0.33,276.0,2700.0,24.094549190484663,2.62809929190303,7095.868088138181,15.207386662292748,4.382345013856727,8.887162528191915,1.7542457219536973,2454,78,802,1245,9.50681924768069,5.488710943043007,0.0001007273531402847,False
0.23,0.8970842431411938,2.4000000000000004,4523.0,3.01938,0.3,68900.0,0.33,276.0,2700.0,39.2920716068863,4.4931057295811065,12131.385469868988,23.640625851946172,9.091793816460932,15.65144575494013,4.598688086879825,3605,100,1180,1829,11.971661510646836,6.897729674635412,0.00014740942272851567,False
0.24000000000000005,0.7809959155322536,2.4000000000000004,4524.0,3.01938,0.3,68900.0,0.33,276.0,2700.0,31.277965354062783,3.724402924592049,10055.887896398533,19.442056761296552,6.5943721361412955,11.83590859276623,2.8699692115492463,3101,90,1024,1559,10.238419546467261,5.905995631247161,0.00011731867018519459,False
0.25,0.6570675340908125,2.4000000000000004,4525.0,3.01938,0.3,68900.0,0.33,276.0,2700.0,23.55445287555578,2.911581685969582,7861.270552117871,15.333721486245102,4.443505489224905,8.220731389310677,1.531923803255323,2353,76,778,1180,8.394757681443595,4.8373222850183675,9.104154973543947e-05,False
0.26,0.8297552725496828,2.4000000000000004,4526.0,3.01938,0.3,68900.0,0.33,276.0,2700.0,33.83529891982994,4.361777771258231,11776.799982397222,21.164283140249918,7.584098857390193,12.67101577958002,3.222321086131962,3196,92,1060,1600,10.033719241014037,5.784950809407763,0.00011865915393411592,False
0.27,0.6266063824006884,2.4000000000000004,4527.0,3.01938,0.08,68900.0,0.33,276.0,2700.0,21.3585447636956,2.842179564298502,7673.884823605955,14.383005580734475,3.990961820474428,6.975539182961127,1.148782256175926,48009,256,8966,29524,7.895321092692405,4.55521568994749,8.162334980258814e-05,False
0.28,0.7746602736521045,2.4000000000000004,4528.0,3.01938,0.3,68900.0,0.33,276.0,2700.0,29.756813538642316,4.119977734122191,11123.939882129916,19.222662372151927,6.4718897618641495,10.534151166490389,2.3519120277419585,3004,88,992,1510,8.92974187378879,5.153647770634091,0.00010103304491604324,False
0.29000000000000004,0.9190494855496332,2.4000000000000004,4529.0,3.01938,0.3,68900.0,0.33,276.0,2700.0,38.931545791695704,5.593993937643605,15103.783631637732,24.473149268434863,9.620186987727111,14.458396523260841,4.026193050083506,3750,102,1232,1896,10.009349850809313,5.775754519491962,0.00012333401801235166,False
0.3,0.7774759196888059,2.4000000000000004,4530.0,3.01938,0.3,68900.0,0.33,276.0,2700.0,29.385128999500587,4.351220682160475,11748.295841833284,19.320039697853566,6.5261510182765345,10.06508930164702,2.1749303361160592,2963,86,978,1490,8.45868197197873,4.867869037933721,0.00017988990476777733,False
0.31,0.6256383227975596,2.4000000000000004,4531.0,3.01938,0.08,68900.0,0.33,276.0,2700.0,20.364844534546766,3.0941567783593538,8354.223301570255,14.353174034318497,3.977052655057684,6.011670500228268,0.8828958766983304,49729,250,8704,30941,7.398163220419714,4.1860867243046975,7.305612416668124e-05,False
0.32,0.6549293510988963,2.4000000000000004,4532.0,3.01938,0.2,68900.0,0.33,276.0,2700.0,21.726507945121345,3.4076121325041973,9200.552757761332,15.266226139744203,4.41079136591475,6.460281805377141,1.0031792334105525,4673,106,1516,2363,7.008385014991981,4.041264379897222,7.405873903307023e-05,False
0.33,1.0257154876342807,2.4000000000000004,4533.0,3.01938,0.3,68900.0,0.33,276.0,2700.0,45.26192403021537,7.392951188190835,19960.968208115257,28.688406434424117,12.452910520996626,16.57351759579125,5.059959332805791,4228,110,1398,2125,9.843931395940169,5.673011760415244,0.00012717495054286317,False
0.34,0.9287459909334268,2.4000000000000004,4534.0,3.01938,0.3,68900.0,0.33,276.0,2700.0,38.07838169381529,6.391006782844135,17255.718313679165,24.844522782474655,9.859289614573376,13.233858911340633,3.4682828317292405,3632,100,1196,1832,8.737947001354414,5.04069336430309,0.00010822205275525121,False
0.3500000000000001,0.9105690835015983,2.4000000000000004,4535.0,3.01938,0.3,68900.0,0.33,276.0,2700.0,36.55229925131646,6.306855178965279,17028.50898320625,24.150289255184628,9.41401511125222,12.402009996131834,3.107159932286942,3348,96,1110,1677,8.527546757857866,4.90743402241826,0.00010293223895858965,False
0.36000000000000004,1.0108011957830518,2.4000000000000004,4536.0,3.01938,0.3,68900.0,0.33,276.0,2700.0,43.21806230954013,7.681535117819963,20740.1448181139,28.08182327137418,12.02957358195728,15.13623903816595,4.348038464137317,4070,108,1346,2045,9.040115522619095,5.20963802277666,0.00011541987094141588,False
0.37,0.9716929233761331,2.4000000000000004,4537.0,3.01938,0.3,68900.0,0.33,276.0,2700.0,40.14056322006321,7.319916800590167,19763.77536159345,26.517789575309454,10.962050590725053,13.622773644753753,3.642133790134886,3864,104,1282,1935,8.502131820308383,4.901546050381108,0.0001068692902897827,False
0.38,0.9209617648161696,2.4000000000000004,4538.0,3.01938,0.3,68900.0,0.33,276.0,2700.0,36.381131274495665,6.797491294094958,18353.226494056387,24.546201985131738,9.667056317613456,11.834929289363927,2.869565023518498,3395,96,1122,1706,7.885322389390566,4.537651742620844,9.730784816472101e-05,False
0.39,0.8820126788974472,2.4000000000000004,4539.0,3.01938,0.3,68900.0,0.33,276.0,2700.0,33.53779932231931,6.415633444773402,17322.210300888186,23.076400201437433,8.739751656979244,10.461399120881875,2.3241182122058426,3155,92,1046,1580,7.498475302725697,4.326377487754462,8.974333399896952e-05,False
0.4,0.9848298998950644,2.4000000000000004,4540.0,3.01938,0.3,68900.0,0.33,276.0,2700.0,40.155934100540954,7.897145533555031,21322.292940598585,27.038881354241404,11.313832206568238,13.11705274629955,3.4166866730132064,3948,104,1308,1978,8.955990334774764,5.170678033791536,0.000217107401225937,False
0.4100000000000001,0.7611203215938201,2.4000000000000004,4541.0,3.01938,0.2,68900.0,0.33,276.0,2700.0,25.601195368818438,5.103897245755739,13780.522563540497,18.757174623144646,6.214772374697663,6.844020745673792,1.1108751289419239,6834,114,1712,3834,6.77561591495669,3.9112176538054686,7.307818948963706e-05,False
0.42000000000000004,1.0371299331174568,2.4000000000000004,4542.0,3.01938,0.3,68900.0,0.33,276.0,2700.0,43.24841723593229,8.926998075199673,24102.89480303912,29.156422952813966,12.783040732009658,14.091994283118321,3.8560426568099846,4039,106,1344,2017,8.088978883769215,4.652706991350186,0.00010445081854150498,False
0.43,0.9853569653509097,2.4000000000000004,4543.0,3.01938,0.3,68900.0,0.33,276.0,2700.0,39.310201294415165,8.28517420689216,22369.970358608833,27.059878452451112,11.328089000011415,12.250322841964053,3.0429147931192553,3649,100,1218,1816,7.425931614667161,4.274131285204278,9.558769581214478e-05,False
0.44,0.8583907005776628,2.4000000000000004,4544.0,3.01938,0.3,68900.0,0.33,276.0,2700.0,30.712499493571087,6.578340936183048,17761.52052769423,22.20356341067263,8.204978103846411,8.508936082898458,1.6266371676633629,3017,86,960,1539,6.54122111970913,3.762526184099329,7.850934053444406e-05,False
0.45,1.1071829190575695,2.4000000000000004,4545.0,3.01938,0.3,68900.0,0.33,276.0,2700.0,47.437828040469704,10.482659555400101,28303.180799580274,32.10046096585242,14.927934535888788,15.337367074617283,4.445274980488687,4353,112,1442,2180,7.912398520972106,4.540392101380811,0.00010717997784562916,False
0.46,1.0055316462325126,2.4000000000000004,4546.0,3.01938,0.2,68900.0,0.33,276.0,2700.0,39.835075907682274,8.958207417080379,24187.160026117024,27.868840564676315,11.8821564906862,11.966235343005959,2.9239490736058205,10825,150,2690,6100,7.551375190894807,4.353117992912947,9.377799440322447e-05,False
0.4700000000000001,0.9653785850286076,2.4000000000000004,4547.0,3.01938,0.3,68900.0,0.33,276.0,2700.0,36.82278793331,8.435908781612076,22776.953710352605,26.268868234386826,10.795394709183366,10.553919698923178,2.3594859275712903,3593,98,1162,1816,6.769397795804414,3.883909371608628,8.654356033304442e-05,False
0.4800000000000001,0.9671314184184263,2.4000000000000004,4548.0,3.01938,0.3,68900.0,0.33,276.0,2700.0,36.665598275787254,8.568120243025074,23133.9246561677,26.337867261640564,10.841500119157502,10.32773101414669,2.2733798761324273,3774,98,1174,1949,6.844379002834953,3.942073412298078,8.546162453543987e-05,False
0.49,1.1537378321383542,2.4000000000000004,4549.0,3.01938,0.3,68900.0,0.33,276.0,2700.0,49.67020961414753,11.922797866064691,32191.554238374665,34.1251905987659,16.46928793495273,15.545019015381634,4.5464900688880405,4908,116,1530,2531,7.641467832767013,4.3761793863368,0.00010569922957646665,False
0.5,0.9792533984470833,2.4000000000000004,4550.0,3.01938,0.3,68900.0,0.33,276.0,2700.0,36.93041683121804,8.970804820005363,24221.17301401448,26.817153838250263,11.163668440650033,10.113262992967776,2.1928636206446708,4033,98,1176,2145,7.0913333441215185,4.088867192878374,8.411074029171602e-05,False
0.01,0.47127190371901756,2.4000000000000004,4551.0,6.03876,0.05,68900.0,0.33,276.0,2700.0,19.527154044143366,0.09763367582561452,263.6109247291592,9.897568701249796,2.1130065117149477,9.62958534289357,2.015372835889333,62038,392,20562,31189,289.75444359452297,164.84766029995168,0.002413774128509686,True
0.02,0.33872630888207317,2.4000000000000004,4552.0,6.03876,0.08,68900.0,0.33,276.0,2700.0,12.632533983427766,0.12630858467345848,341.0331786183379,6.549681371648241,1.0278782592346283,6.082852611779526,0.9015696745611698,16311,194,5372,8247,103.05140127164937,58.8463088851666,0.0008218778170443086,False
0.03,0.4007373600012251,2.4000000000000004,4553.0,6.03876,0.1,68900.0,0.33,276.0,2700.0,15.37880334760008,0.23062550154623587,622.6888541748368,8.0610159036259,1.4803911870899598,7.317787443974179,1.2497656855437238,12993,174,4274,6576,80.7931470633051,46.13379004028998,0.0006858016845024494,False
0.04,0.6146413007621297,2.4000000000000004,4554.0,6.03876,0.1,68900.0,0.33,276.0,2700.0,26.830906203654,0.5364840827865266,1448.507023523622,14.015945315290878,3.8210675251274377,12.814960888363121,3.284583442340911,22537,240,7386,11452,104.9319115702268,59.73969622412548,0.0008962550331163952,False
0.05,0.5606138290090525,2.4000000000000004,4555.0,6.03876,0.1,68900.0,0.33,276.0,2700.0,23.379575916771444,0.5842275985314865,1577.4145160350135,12.403315170891688,3.1077148957178338,10.976260745879756,2.5234872971863473,19574,222,6398,9971,75.05900221147536,42.90640135973331,0.0006469020916978342,False
0.06000000000000001,0.6241852350539061,2.4000000000000004,4556.0,6.03876,0.2,68900.0,0.33,276.0,2700.0,26.816091411114623,0.8040303529913237,2170.881953076574,14.308440160310294,3.956228741333817,12.50765125080433,3.152198388342493,5569,120,1832,2815,63.63606563170894,36.411104641827656,0.0006293201221250332,False
0.06999999999999999,0.7011295081439596,2.4000000000000004,4557.0,6.03876,0.2,68900.0,0.33,276.0,2700.0,31.272894381279922,1.093832925824677,2953.348899726628,16.75019287579789,5.1501666264143715,14.522701505482033,4.056333700589694,6662,132,2184,3380,60.61965444543338,34.636644789158915,0.0006348838304703106,False
0.08,0.38097705337510723,2.4000000000000004,4558.0,6.03876,0.08,68900.0,0.33,276.0,2700.0,13.24590502160377,0.5287638705717249,1427.6624505436573,7.568925822187423,1.3259811265013166,5.676979199416347,0.7972172559295917,16930,196,5572,8566,38.64476630935682,22.088741186248132,0.0002588829988200589,False
0.09,0.6902818416547369,2.4000000000000004,4559.0,6.03876,0.2,68900.0,0.33,276.0,2700.0,29.977123977012113,1.3474437649359008,3638.0981653269323,16.396942571246917,4.970384764635481,13.580181405765195,3.6229409996995807,6142,128,2018,3109,47.95499672548801,27.484604244468915,0.0004936570282182266,False
0.09999999999999999,0.5691645912886993,2.4000000000000004,4560.0,6.03876,0.2,68900.0,0.33,276.0,2700.0,22.49454185981809,1.1226326978885122,3031.1082842989827,12.653654633169205,3.2148416824369024,9.840887226648883,2.09220898454839,4637,108,1518,2354,34.29600316607279,19.792300185208074,0.00034769260777647767,False
0.11,0.7919060053674235,2.4000000000000004,4561.0,6.03876,0.3,68900.0,0.33,276.0,2700.0,35.948432122817785,1.974376126873691,5330.815542558966,19.822222258809937,6.808557822011023,16.126209864007848,4.834181695137332,3600,98,1182,1821,43.798085275716055,25.28623498948413,0.0004936205019731229,False
0.12,0.5199620582254303,2.4000000000000004,4562.0,6.03876,0.1,68900.0,0.33,276.0,2700.0,19.279817515552978,1.153169936196243,3113.558827729856,11.238293885074853,2.6273189605144522,8.041523630478125,1.4741490243182092,16222,198,5358,8179,26.000322449545695,14.99755425256558,0.00026194314244868175,False
0.13,0.6586728554647897,2.4000000000000004,4563.0,6.03876,0.3,68900.0,0.33,276.0,2700.0,26.86890812448553,1.7418776420516007,4703.069633539322,15.384471676471986,4.468161766587419,11.484436448013543,2.726284124535818,2653,82,872,1339,32.398660897647154,18.703352266388414,0.00032984244686727106,False
0.14,0.46022872879102605,2.4000000000000004,4564.0,6.03876,0.08,68900.0,0.33,276.0,2700.0,15.719346774217572,1.0946072540342635,2955.4395858925113,9.601774754965117,2.0053420019242547,6.117572019252455,0.9107347478899912,23274,220,6832,12372,20.867028900600435,12.045977719400877,0.00019727450786815023,False
0.15000000000000002,0.7479183152477493,2.4000000000000004,4565.0,6.03876,0.3,68900.0,0.33,276.0,2700.0,31.816694164810638,2.3791834788902197,6423.795393003594,18.307741579086652,5.970111564477003,13.508952585723986,3.5909280855867833,3174,90,1040,1608,31.56770366420381,18.22493120079597,0.00034236139827638226,False
0.16,0.6472048583466941,2.4000000000000004,4566.0,6.03876,0.3,68900.0,0.33,276.0,2700.0,25.353084528846054,2.019668119968279,5453.103923914354,15.02334687768145,4.293806537608368,10.329737651164605,2.2741384176400885,2589,80,848,1311,25.83673164064426,14.916538763030049,0.00026588916143417555,False
0.17,0.5345998752042156,2.4000000000000004,4567.0,6.03876,0.2,68900.0,0.33,276.0,2700.0,18.82153035225074,1.5895403168032567,4291.758855368793,11.653007550987605,2.7948517321052533,7.168522801263135,1.2053114153019966,3914,98,1288,1976,19.996451175642235,11.5258806796561,0.00019793375218270711,False
0.18000000000000002,0.4835131693231874,2.4000000000000004,4568.0,6.03876,0.2,68900.0,0.33,276.0,2700.0,15.963523476662894,1.424502600662503,3846.157021788758,10.229035583604563,2.236190224270422,5.734487893058331,0.8116876236079189,3532,90,1164,1780,17.164894305954814,9.882863965130893,0.00016750898071868893,False
0.19,0.7039085546045616,2.4000000000000004,4569.0,6.03876,0.3,68900.0,0.33,276.0,2700.0,27.909529464124812,2.6370398430845454,7120.007576328273,16.84116738990814,5.1968425568892895,11.068362074216672,2.559802713804744,2616,82,862,1317,23.81938900137552,13.750340008071463,0.0002536901917878159,False
0.2,0.645006157350803,2.4000000000000004,4570.0,6.03876,0.3,68900.0,0.33,276.0,2700.0,24.153547020310956,2.398599541211949,6476.218761272262,14.954487855954168,4.2608504123282565,9.199059164356788,1.8622508711163075,2506,78,816,1276,20.74860992655367,11.966339997635979,0.0002159973732829453,False
0.21000000000000002,0.6150621392883346,2.4000000000000004,4571.0,6.03876,0.2,68900.0,0.33,276.0,2700.0,22.198819236708275,2.311479826811104,6240.99553238998,14.028794590279913,3.826968678476167,8.170024646428361,1.5154888516650633,4682,108,1548,2354,18.85014508605796,10.84301335621742,0.0002640168933894193,False
0.22,0.8691296546728539,2.4000000000000004,4572.0,6.03876,0.3,68900.0,0.33,276.0,2700.0,37.6823588154706,4.122758350651486,11131.447546759011,22.59863133752402,8.44553986638015,15.083727477946582,4.322781515728664,3588,100,1176,1818,24.429079319158195,14.104090620578493,0.000294108902322887,False
0.23,0.7017899749233273,2.4000000000000004,4573.0,6.03876,0.3,68900.0,0.33,276.0,2700.0,26.683316872300814,3.043098935103777,8216.367124780198,16.771796249397696,5.161236705908721,9.911520622903119,2.1181377708049443,2570,80,844,1298,19.455010725416667,11.207501876939153,0.00021198451969934418,False
0.24000000000000005,0.7405727012011183,2.4000000000000004,4574.0,6.03876,0.3,68900.0,0.33,276.0,2700.0,28.75682518404076,3.421866104189399,9239.038481311378,18.05957313403543,5.836542265703465,10.697252050005332,2.414676161514066,2782,84,918,1399,19.50223773443407,11.25819810782797,0.00021893443909645963,False
0.25,0.8672334307815812,2.4000000000000004,4575.0,6.03876,0.3,68900.0,0.33,276.0,2700.0,36.62382215464849,4.545252845856163,12272.182683811641,22.52866176287028,8.402754154997412,14.095160391778208,3.8575013091412487,3466,98,1142,1747,21.86188096049631,12.620783747005415,0.00026049825538285306,False
0.26,0.9255057925130796,2.4000000000000004,4576.0,6.03876,0.3,68900.0,0.33,276.0,2700.0,40.321372010700834,5.204967273071451,14053.411637292917,24.720161180983556,9.778989980479798,15.601210829717278,4.574022707408347,3730,102,1220,1894,22.31257135732582,12.878828792038716,0.0002751809492476263,False
0.27,0.963547902467627,2.4000000000000004,4577.0,6.03876,0.3,68900.0,0.33,276.0,2700.0,42.69987665199131,5.723259369218421,15452.800296889736,26.196887169344535,10.747370650300061,16.502989482646775,5.02411128108164,4085,108,1346,2060,22.415298667109013,12.935428715277787,0.0002803643974848003,False
0.28,0.9218633280430406,2.4000000000000004,4578.0,6.03876,0.3,68900.0,0.33,276.0,2700.0,39.43694683699959,5.4751963958921905,14783.030268908915,24.580675299702364,9.689201809082709,14.856271537297225,4.2140054131905185,3736,102,1226,1891,20.73942854258067,11.969995565180195,0.00025569460708369673,False
0.29000000000000004,0.638643738309007,2.4000000000000004,4579.0,6.03876,0.1,68900.0,0.33,276.0,2700.0,21.540810726755108,3.072337353227224,8295.310853713505,14.755913798720176,4.166335939132684,6.784896928034932,1.0939985859054597,28928,208,5992,17336,15.320379415851693,8.843380538272084,0.0001573947217098874,False
0.3,0.7395606488936773,2.4000000000000004,4580.0,6.03876,0.3,68900.0,0.33,276.0,2700.0,27.081899348213685,4.005736234467438,10815.487833062083,18.02548766878351,5.818282283349667,9.056411679430177,1.8125460488822291,2705,82,890,1364,16.03719341648149,9.254359424235297,0.00017975415037635044,False
0.31,0.7202142203908877,2.4000000000000004,4581.0,6.03876,0.3,68900.0,0.33,276.0,2700.0,25.67935772654446,3.9179063231190017,10578.347072421304,17.378858122223832,5.475823626732594,8.300499604320628,1.5579173036135923,2650,80,878,1327,15.181955756232796,8.753215144041103,0.00016871732060123822,False
0.32,0.6458688748913877,2.4000000000000004,4582.0,6.03876,0.05,68900.0,0.33,276.0,2700.0,21.229908340833763,3.328156195818185,8986.0217287091,14.981492000971251,4.273763558442014,6.248416339862512,0.945607362623829,193245,406,22636,129131,18.53769469246937,10.495230184747907,0.00014788909190964746,False
0.33,0.9837848283711913,2.4000000000000004,4583.0,6.03876,0.3,68900.0,0.33,276.0,2700.0,42.22741327603366,6.892256913750847,18609.093667127287,26.997268709879812,11.285596388112909,15.230144566153847,4.393339474362062,4055,106,1338,2042,19.00768717576596,10.962114527679981,0.00024028821230450743,False
0.34,0.8537370026242023,2.4000000000000004,4584.0,6.03876,0.3,68900.0,0.33,276.0,2700.0,33.09682165878727,5.544141576889235,14969.182257600934,22.03326191115015,8.102045903196414,11.063559747637122,2.5579043263071792,3056,90,1016,1526,16.904273106732163,9.755564070164647,0.00019350694934764,False
0.3500000000000001,1.001137704318806,2.4000000000000004,4585.0,6.03876,0.3,68900.0,0.33,276.0,2700.0,42.838600386933564,7.406957877698267,19998.78626978532,27.691781422320304,11.76009159550911,15.14681896461326,4.3531337178108425,3928,106,1300,1972,23.105609036702518,13.314103995444345,0.0002845682793232584,False
0.36000000000000004,0.9185615392732496,2.4000000000000004,4586.0,6.03876,0.3,68900.0,0.33,276.0,2700.0,36.79802753160306,6.525928857791298,17620.007916036506,24.454523507150043,9.608249950098948,12.343504024453019,3.08232109230765,3329,96,1102,1670,16.521299481427807,9.525966747450907,0.00020292124075510775,False
0.37,1.0472234669320957,2.4000000000000004,4587.0,6.03876,0.3,68900.0,0.33,276.0,2700.0,45.54863159230914,8.320409449455674,22465.10551353032,29.57300733855287,13.079432323574311,15.975624253756273,4.759022874118637,4230,110,1400,2124,18.0204983987098,10.378830599834908,0.00023647993737855653,False
0.38,0.7616100223715445,2.4000000000000004,4588.0,6.03876,0.2,68900.0,0.33,276.0,2700.0,26.358466137389044,4.893184918045398,13211.599278722573,18.773929656209535,6.223961879928936,7.584536481179509,1.3307769618835383,6678,114,1728,3712,14.559299899555633,8.403787402234785,0.00015516016909717842,False
0.39,0.8339812568420069,2.4000000000000004,4589.0,6.03876,0.3,68900.0,0.33,276.0,2700.0,30.48851719560757,5.821023430064616,15716.763261174463,21.316362684315052,7.67385997031401,9.172154511292518,1.8528365402493936,3046,88,1008,1528,14.013093789273624,8.06386210719074,0.00016766325122748304,False
0.4,0.8787211226260032,2.4000000000000004,4590.0,6.03876,0.3,68900.0,0.33,276.0,2700.0,33.05276440432243,6.476511594311059,17486.58130463986,22.95393561789212,8.663996011397993,10.09882878643031,2.1874844170869334,3169,92,1046,1594,14.471051711997594,8.32240077110141,0.00017483195560477065,False
0.4100000000000001,0.8208333138008095,2.4000000000000004,4591.0,6.03876,0.3,68900.0,0.33,276.0,2700.0,29.16090758872428,5.833638250836436,15750.823277258376,20.844684725229367,7.396699205640199,8.316222863494914,1.5630609548037633,2954,86,970,1483,13.332047409506709,7.672418855992922,0.0001583622977679378,False
0.42000000000000004,1.1065154686967076,2.4000000000000004,4592.0,6.03876,0.3,68900.0,0.33,276.0,2700.0,48.34681250051566,9.997661080762189,26993.68491805791,32.071828814358824,14.906518627525973,16.274983686156837,4.908857546763784,4479,114,1488,2241,16.866976040972784,9.687136585017017,0.00022765485868414932,False
0.43,0.8956456233826042,2.4000000000000004,4593.0,6.03876,0.3,68900.0,0.33,276.0,2700.0,33.3330071168002,7.000077458706065,18900.209138506376,23.58652259590572,9.057822868247335,9.746484520894477,2.05774540954127,3090,90,1022,1547,13.647488183931543,7.843365111979418,0.0001688541432859644,False
0.44,0.8565323671209235,2.4000000000000004,4594.0,6.03876,0.3,68900.0,0.33,276.0,2700.0,30.596908177328736,6.552910846610055,17692.85928584715,22.135492649497007,8.163779741628614,8.46141552783173,1.6108688950185597,3002,86,958,1527,12.809687952387264,7.358055818770214,0.00015663574280690756,False
0.45,1.0779105652212746,2.4000000000000004,4595.0,6.03876,0.3,68900.0,0.33,276.0,2700.0,45.278495924349215,9.996809829272983,26991.386539037056,30.855263646614475,14.006555945371842,14.42323227773474,4.009746116098858,4377,110,1438,2204,15.519642366255397,8.909656848668385,0.0002068837835090513,False
0.46,0.9577727506104199,2.4000000000000004,4596.0,6.03876,0.1,68900.0,0.33,276.0,2700.0,36.59026729500804,8.211901436165311,22172.13387764634,25.970364506380132,10.596734153511868,10.619902788627908,2.3848327173465567,64756,282,9892,41554,15.6172001630387,8.860629241312424,0.0001771480018984941,False
0.4700000000000001,1.0560428293926662,2.4000000000000004,4597.0,6.03876,0.2,68900.0,0.33,276.0,2700.0,43.09228955530008,9.909241662779742,26754.952489505304,29.93909967857217,13.341860308148908,13.153189876727907,3.432618645369166,11899,158,2950,6710,15.501253917470676,8.926966192172955,0.0001966126569869646,False
0.4800000000000001,1.171538342022176,2.4000000000000004,4598.0,6.03876,0.3,68900.0,0.33,276.0,2700.0,51.35146049229034,12.092727174985743,32650.363372461507,34.91375188580202,17.08374031110132,16.43770860648832,4.991013136115576,5111,118,1632,2607,15.87633406731999,9.104550316280086,0.00021904000443750385,False
0.49,1.0782036466236327,2.4000000000000004,4599.0,6.03876,0.3,68900.0,0.33,276.0,2700.0,44.08528340040236,10.554490943697127,28497.125547982243,30.86762411296976,14.015600860570206,13.2176592874326,3.4611099168730792,4692,108,1400,2470,14.815767744405699,8.528783973957049,0.00019342288690161178,False
0.5,0.8578420000664186,2.4000000000000004,4600.0,6.03876,0.08,68900.0,0.33,276.0,2700.0,29.1887207412432,7.035380797511651,18995.52815328146,22.183455478833327,8.192800514213454,7.005265262409871,1.1574197167018028,101411,304,12008,67673,15.601674630138268,8.794608756853272,0.00014506094918037522,False
0.01,0.3800587968385425,2.4000000000000004,4601.0,9.05814,0.05,68900.0,0.33,276.0,2700.0,14.847535258798002,0.0742355818988874,200.43607112699598,7.546297131517643,1.3190413019835063,7.301238127280359,1.244805720084619,47680,334,15792,23986,356.52792087390156,202.98016354640146,0.0027683385017635426,True
0.02,0.439692943522632,2.4000000000000004,4602.0,9.05814,0.08,68900.0,0.33,276.0,2700.0,17.60215659870302,0.1760048108262098,475.2129892307665,9.059868362297424,1.8137443921504584,8.542288236405595,1.6377395813242486,22642,232,7438,11479,204.4354516081631,116.66981997862078,0.001694441238496431,False
0.03,0.5007485338381799,2.4000000000000004,4603.0,9.05814,0.1,68900.0,0.33,276.0,2700.0,20.585596974109112,0.3087274059438726,833.563996048456,10.702116041160789,2.416557515164124,9.883480932948324,2.1078301092202514,16941,204,5570,8580,161.1111416415159,91.98491453542901,0.001355814087177336,False
0.04,0.7099601798850562,2.4000000000000004,4604.0,9.05814,0.1,68900.0,0.33,276.0,2700.0,32.78307893801158,0.6555275374736801,1769.9243511789361,17.039944176933837,5.2993599883664,15.74313476107774,4.64383245089272,27136,270,8922,13747,190.99092338301574,108.84926154358251,0.0016917703003354208,False
0.05,0.3508580351881471,2.4000000000000004,4605.0,9.05814,0.1,68900.0,0.33,276.0,2700.0,12.512036174333762,0.3125391049705447,843.8555834204707,6.837751847489713,1.1090808575013664,5.674284326844049,0.7965417525308217,10466,154,3446,5291,63.72944836683075,36.56524957142758,0.0005458108047663546,False
0.06000000000000001,0.631470593764379,2.4000000000000004,4606.0,9.05814,0.2,68900.0,0.33,276.0,2700.0,27.254738473422936,0.8171897648605697,2206.412365123538,14.533256722521305,4.061288985276125,12.721481750901631,3.2440992204155554,5506,120,1808,2788,103.72805705610297,59.468988652575874,0.0009585987526737972,False
0.06999999999999999,0.7581758286099682,2.4000000000000004,4607.0,9.05814,0.2,68900.0,0.33,276.0,2700.0,34.98526018419497,1.2237657289267043,3304.167468102102,18.65655634161671,6.159690194002468,16.32870384257826,4.935924465075764,7184,140,2356,3644,97.22908426305088,55.557413991539086,0.001078246130755404,False
0.08,0.40822963989797056,2.4000000000000004,4608.0,9.05814,0.1,68900.0,0.33,276.0,2700.0,14.553582171622587,0.5810709565724776,1568.8915827456897,8.250161685392527,1.541494260213952,6.30342048623006,0.9604233036414744,12267,168,4030,6216,45.7985610646994,26.363081586447574,0.00042395424386765,False
0.09,0.5296384119564752,2.4000000000000004,4609.0,9.05814,0.2,68900.0,0.33,276.0,2700.0,20.57028123138812,0.9241358413828199,2495.1667717336136,11.511837759743411,2.737386223573409,9.058443471644708,1.813250382190589,4254,104,1392,2160,53.4394757105013,30.849308412592308,0.0005246708640189097,False
0.09999999999999999,0.41811734349930046,2.4000000000000004,4610.0,9.05814,0.2,68900.0,0.33,276.0,2700.0,14.570736655019605,0.7264424376484996,1961.3945816509488,8.501940461169767,1.6243121459496175,6.068796193849838,0.8978697083011179,3191,86,1034,1634,42.36891332511491,24.09880909817861,0.00038429751173428117,False
0.11,0.41360824718553874,2.4000000000000004,4611.0,9.05814,0.2,68900.0,0.33,276.0,2700.0,14.123463856165897,0.7740028722078389,2089.8077549611653,8.386816843975566,1.5862358213067251,5.73664701219033,0.8122329490988862,3043,84,998,1540,35.63601511845236,20.563226307743477,0.0003224254859839949,False
0.12,0.5025888461590899,2.4000000000000004,4612.0,9.05814,0.2,68900.0,0.33,276.0,2700.0,18.36176716706819,1.098086915287157,2964.834671275324,10.753070524241963,2.436299624202304,7.608696642826228,1.338212708915147,3826,96,1254,1939,38.90439760175287,22.46122840261905,0.0003764252948604693,False
0.13,0.6321197869583788,2.4000000000000004,4613.0,9.05814,0.3,68900.0,0.33,276.0,2700.0,25.293429850398915,1.6394715542359706,4426.573196437121,14.553354698454678,4.070730399788598,10.740075151944238,2.4312588455526276,2581,80,844,1309,46.44352834289645,26.811201331217315,0.00046899793458816155,False
0.14,0.5464239190767459,2.4000000000000004,4614.0,9.05814,0.2,68900.0,0.33,276.0,2700.0,20.19638065772302,1.4079996258796454,3801.5989898750427,11.99193419560062,2.9346376841564115,8.204446462122398,1.526638058276766,4457,104,1460,2261,36.02660951766433,20.75817530150889,0.00036314833992319104,False
0.15000000000000002,0.543877748684021,2.4000000000000004,4615.0,9.05814,0.2,68900.0,0.33,276.0,2700.0,19.807732674108962,1.4785113670875984,3991.980691136516,11.918653426765278,2.904197503589776,7.889079247343684,1.4256861365021776,4486,104,1472,2272,33.91560036685316,19.58034633827954,0.0003391853641992551,False
0.16,0.7492807165953725,2.4000000000000004,4616.0,9.05814,0.3,68900.0,0.33,276.0,2700.0,31.603757020472887,2.5197219192984295,6803.249182105759,18.353918813979938,5.995085506943495,13.24983820649295,3.4753635876450653,3176,90,1038,1613,44.42650163730769,25.647569250974232,0.0004844658447499945,False
0.17,0.7860069114467529,2.4000000000000004,4617.0,9.05814,0.3,68900.0,0.33,276.0,2700.0,33.673952127483716,2.851996167698058,7700.389652784756,19.61629501732591,6.692232493205692,14.057657110157805,3.840236325507634,3322,94,1090,1681,43.489035156754525,25.10285423264931,0.0004884518481991076,False
0.18000000000000002,0.8453446736458068,2.4000000000000004,4618.0,9.05814,0.2,68900.0,0.33,276.0,2700.0,37.323608190355536,3.3469102248948404,9036.65760721607,21.727521521439332,7.918419695694472,15.596086668916204,4.571509470799631,7564,146,2492,3820,41.99839123025113,24.213993384749738,0.0005117003213531678,False
0.19,0.5040863245539782,2.4000000000000004,4619.0,9.05814,0.05,68900.0,0.33,276.0,2700.0,16.77058085507459,1.578839725224772,4262.867258106884,10.794595447420392,2.452433199295725,5.9759854076542,0.873593474070953,102558,356,17790,63997,29.073539901203418,16.41415687010014,0.00025422989741538497,False
0.2,0.8056735510919538,2.4000000000000004,4620.0,9.05814,0.3,68900.0,0.33,276.0,2700.0,34.04942116661314,3.388186955842169,9148.104780773856,20.306226132184154,7.084787480571178,13.74319503442899,3.696600524729009,3352,94,1096,1702,37.67017595432267,21.731000076094475,0.00043382843742400233,False
0.21000000000000002,0.7393042127194873,2.4000000000000004,4621.0,9.05814,0.3,68900.0,0.33,276.0,2700.0,29.519206044612876,3.080120441641086,8316.325192430932,18.016855101764992,5.813661003140521,11.502350942847883,2.7335405614994355,2927,86,960,1481,33.38604295605851,19.264059731097596,0.00036983238740751157,False
0.22,0.6866148789862319,2.4000000000000004,4622.0,9.05814,0.3,68900.0,0.33,276.0,2700.0,26.050653616288916,2.8432707787414992,7676.831102602048,16.27819810888074,4.910475607375319,9.772455507408175,2.0672048286338196,2614,80,858,1321,29.636306462486857,17.107631595004822,0.0003219142857327544,False
0.23,0.540125332500534,2.4000000000000004,4623.0,9.05814,0.08,68900.0,0.33,276.0,2700.0,17.696137704696543,2.009573330829284,5425.847993239066,11.810952968853345,2.8596759347166656,5.885184735843199,0.8501026038873816,36133,232,7570,21586,23.921687992314226,13.80163666930116,0.00023484457117656208,False
0.24000000000000005,0.6387953634427174,2.4000000000000004,4624.0,9.05814,0.3,68900.0,0.33,276.0,2700.0,22.772853865751244,2.7037895459946664,7300.2317741855995,14.76063425575111,4.168573664398099,8.012219610000134,1.4647841184034323,2374,76,780,1198,25.61912422539302,14.778486302325003,0.00027341154311213414,False
0.25,0.7863479409099776,2.4000000000000004,4625.0,9.05814,0.3,68900.0,0.33,276.0,2700.0,31.331069053081077,3.883658708160241,10485.878512032652,19.628175951323936,6.698924253557111,11.702893101757141,2.81526554539687,3096,90,1024,1554,29.811959522134305,17.173844367220944,0.0003517975048519958,False
0.26,0.690019177890842,2.4000000000000004,4626.0,9.05814,0.3,68900.0,0.33,276.0,2700.0,25.19669131471915,3.238758782593827,8744.648713003333,16.38842569373612,4.966079000558854,8.808265620983029,1.727320217965027,2494,78,820,1258,25.641658718579475,14.76926793291117,0.0002798526276694218,False
0.27,0.8934459841553137,2.4000000000000004,4627.0,9.05814,0.3,68900.0,0.33,276.0,2700.0,37.78960207348451,5.060372301120003,13663.005213024007,23.503899674792816,9.006031920509335,14.285702398691694,3.945659619389332,3670,100,1204,1858,31.411083268311984,18.1306423006806,0.00037944325222252366,False
0.28,0.8234139687291224,2.4000000000000004,4628.0,9.05814,0.3,68900.0,0.33,276.0,2700.0,32.84224516669959,4.551938162050209,12290.233037535563,20.936922146504603,7.450611124487868,11.905323020194988,2.8986729624376597,3269,92,1082,1640,28.045826049760773,16.181921539530414,0.00032892439962696674,False
0.29000000000000004,0.7732718405937243,2.4000000000000004,4629.0,9.05814,0.3,68900.0,0.33,276.0,2700.0,29.397182184159476,4.211511214550854,11371.080279287306,19.17471764966347,6.445233671581156,10.222464534496005,2.233722457030302,3042,88,1000,1536,25.84681231999501,14.916920207429257,0.0002992430774037889,False
0.3,0.883340255443267,2.4000000000000004,4630.0,9.05814,0.3,68900.0,0.33,276.0,2700.0,36.198592611827515,5.373240224009487,14507.748604825616,23.125870647397083,8.770420177650122,13.072721964430432,3.3971799536406344,3495,98,1150,1764,28.175769533731664,16.26472692947873,0.0003394948204301215,False
0.31,0.860376952273017,2.4000000000000004,4631.0,9.05814,0.3,68900.0,0.33,276.0,2700.0,34.38244420057268,5.2668847265932985,14220.588761801906,22.276415778134947,8.249152304470707,12.106028422437731,2.9822675778774084,3213,94,1064,1611,26.974700427880084,15.554200685573097,0.00031823776225489014,False
0.32,0.8209366020815946,2.4000000000000004,4632.0,9.05814,0.3,68900.0,0.33,276.0,2700.0,31.555692586792578,4.9802816751715815,13446.76052296327,20.848373225546062,7.398852407776101,10.707319361246515,2.418570732604519,3090,90,1026,1545,25.385286552663437,14.655195569254824,0.0002908210917906616,False
0.33,0.9160959185114648,2.4000000000000004,4633.0,9.05814,0.3,68900.0,0.33,276.0,2700.0,37.51527039047652,6.114753337633915,16509.83401161157,24.360497970934077,9.548070316270616,13.154772419542446,3.433316978636701,3623,100,1194,1826,26.552144826195764,15.322437738837115,0.00032743909772595987,False
0.34,0.7191605545562998,2.4000000000000004,4634.0,9.05814,0.1,68900.0,0.33,276.0,2700.0,24.868092964648344,4.1452576988857555,11192.19578699154,17.343910806469545,5.457530531531314,7.5241821581787995,1.3122728326455588,36066,224,6752,22168,22.249589494541436,12.837787799440402,0.00023894832051582344,False
0.3500000000000001,0.9056226264465546,2.4000000000000004,4635.0,9.05814,0.3,68900.0,0.33,276.0,2700.0,36.22084356322871,6.248850433549918,16871.89617058478,23.962805756737147,9.295020685599981,12.258037806491565,3.0461702520500635,3153,94,1044,1581,24.748977779248094,14.243713642078196,0.00030644530477992317,False
0.36000000000000004,1.025950797179722,2.4000000000000004,4636.0,9.05814,0.3,68900.0,0.33,276.0,2700.0,44.31338854104514,7.878693839490661,21272.473366624785,28.69802156921841,12.4596623081142,15.615366971826731,4.5809684686235395,4077,108,1346,2052,27.148321574744102,15.63230333921367,0.00035324715867382414,False
0.37,0.7560074890749187,2.4000000000000004,4637.0,9.05814,0.3,68900.0,0.33,276.0,2700.0,26.27586725637264,4.754948047307419,12838.359727730032,18.582599845151385,6.119316648048735,7.693267411221253,1.364368600741316,2615,80,862,1314,20.6897112332289,11.929570576470955,0.0002320841309132781,False
0.38,0.8301698460047342,2.4000000000000004,4638.0,9.05814,0.3,68900.0,0.33,276.0,2700.0,30.514195119616932,5.682773424668698,15343.488246605484,21.179182445474794,7.59287609565432,9.335012674142138,1.9101026709856228,3058,88,1016,1528,21.466413375339812,12.358124520953437,0.0002555375410112698,False
0.39,0.7188341403085219,2.4000000000000004,4639.0,9.05814,0.1,68900.0,0.33,276.0,2700.0,23.650617609272718,4.4876330107293265,12116.609128969181,17.33309016794915,5.451870998010027,6.31752744132357,0.9642379872807005,37338,218,6514,23231,20.402385940459904,11.766124397195062,0.000214580359681191,False
0.4,0.9137016233116501,2.4000000000000004,4640.0,9.05814,0.3,68900.0,0.33,276.0,2700.0,35.331908083557416,6.932340330158318,18717.31889142746,24.269338631866493,9.489853252844627,11.062569451690923,2.5575129226863087,3224,94,1072,1610,23.55588637404985,13.584271289011852,0.0002761532631879623,False
0.4100000000000001,1.023460638083101,2.4000000000000004,4641.0,9.05814,0.3,68900.0,0.33,276.0,2700.0,42.57626056422217,8.583785610813496,23176.22114919644,28.59634013492447,12.388326302462048,13.979920429297696,3.804540691648551,3946,106,1310,1975,24.252257266071027,13.95454378016765,0.00031422948278606895,False
0.42000000000000004,0.9529659392264284,2.4000000000000004,4642.0,9.05814,0.3,68900.0,0.33,276.0,2700.0,37.38891133436819,7.696501835871217,20780.554956852287,25.782462907391803,10.472351346139511,11.606448426976385,2.7758495102682943,3320,96,1104,1658,22.249424004485004,12.805923587890883,0.00028007995399553326,False
0.43,0.801931435672569,2.4000000000000004,4643.0,9.05814,0.2,68900.0,0.33,276.0,2700.0,27.5211366160454,5.750525301043788,15526.418312818227,20.17419904325552,7.009046378706466,7.34693757278988,1.258521077662678,7569,120,1914,4228,20.47340069919481,11.808310477093595,0.0002246491837798226,False
0.44,0.7552304705737098,2.4000000000000004,4644.0,9.05814,0.2,68900.0,0.33,276.0,2700.0,24.558413388514484,5.224441993070522,14105.993381290411,18.556126497671617,6.104887910291643,6.002286890842868,0.8804459172211203,6607,110,1640,3723,19.368074563410918,11.167215663417524,0.00020550826268327826,False
0.45,1.0713793873946302,2.4000000000000004,4645.0,9.05814,0.3,68900.0,0.33,276.0,2700.0,44.802587909588915,9.88973052595193,26702.27242007021,30.58037669873128,13.80593298286686,14.222211210857637,3.916202456914931,4273,110,1402,2152,23.340341471002628,13.420407180348606,0.0003079960183283753,False
0.46,1.0138679676055085,2.4000000000000004,4646.0,9.05814,0.3,68900.0,0.33,276.0,2700.0,40.41321043572375,9.09117835852991,24546.18156803076,28.206096188506443,12.115884624220225,12.207114247217305,3.0247062656903143,3701,102,1226,1850,21.680569115538134,12.425203621734175,0.00028059328780291593,False
0.4700000000000001,0.9510164135960322,2.4000000000000004,4647.0,9.05814,0.3,68900.0,0.33,276.0,2700.0,35.86754324130914,8.211426278991878,22170.85095327807,25.706420114933504,10.422161913091617,10.161123126375639,2.2107356340997395,3283,94,1072,1655,20.204447731686876,11.623352828196419,0.0002540218476138027,False
0.4800000000000001,1.0871470470349982,2.4000000000000004,4648.0,9.05814,0.3,68900.0,0.33,276.0,2700.0,45.0337147167969,10.576468188867397,28556.46410994197,31.245842699126737,14.293352164700405,13.787872017670164,3.7168839758330083,4286,108,1352,2202,22.161810312239876,12.724309628593307,0.0002974703402908036,False
0.49,0.8846855385975789,2.4000000000000004,4649.0,9.05814,0.3,68900.0,0.33,276.0,2700.0,31.08531122137553,7.369497759835543,19897.643951555965,23.176046093094293,8.801564766852534,7.909265128281238,1.4320670070169914,3269,88,978,1718,19.9393217906008,11.506260324753695,0.0002259516665502824,False
0.5,1.184288985204875,2.4000000000000004,4650.0,9.05814,0.3,68900.0,0.33,276.0,2700.0,51.68655525662352,12.659839426356736,34181.56645116319,35.48349963711851,17.53254108705618,16.203055619505008,4.872701660699445,5257,118,1590,2752,23.840328911650097,13.721599836495797,0.00032323171366613394,False
0.01,0.3922064363940568,2.4000000000000004,4651.0,12.07752,0.05,68900.0,0.33,276.0,2700.0,15.44662166610772,0.07723101393543619,208.5237376256777,7.847366852579945,1.4125358883961778,7.599254813527775,1.3353048744607416,49898,344,16532,25094,508.94727765042103,289.73090224382116,0.0038355135027059476,True
0.02,0.34323900768150256,2.4000000000000004,4652.0,12.07752,0.08,68900.0,0.33,276.0,2700.0,12.843711556311161,0.12842036040229302,346.73497308619113,6.656404323001632,1.0576756102922893,6.18730723330953,0.9292552498899963,16373,194,5394,8276,208.66202023662186,118.98505028777187,0.0016705391323777784,False
0.03,0.6181638677057937,2.4000000000000004,4653.0,12.07752,0.1,68900.0,0.33,276.0,2700.0,27.340106978007153,0.4100450560023434,1107.1216512063272,14.12363558114548,3.870629212319241,13.216471396861673,3.4605841563168975,22294,240,7340,11278,269.3999307991297,153.39893523703353,0.002402742569023989,False
0.04,0.3760766474296053,2.4000000000000004,4654.0,12.07752,0.08,68900.0,0.33,276.0,2700.0,13.935666589760338,0.278579290508655,752.1640843733685,7.448409834373548,1.2891858524975466,6.48725675538679,1.0106065619888915,17981,204,5902,9122,122.0565814048348,69.80372275198248,0.0009714701677272904,False
0.05,0.4663242859184699,2.4000000000000004,4655.0,12.07752,0.1,68900.0,0.33,276.0,2700.0,18.22076661546128,0.45525736599873223,1229.194888196577,9.764666653059859,2.0643661525532906,8.45609996240142,1.6091087865545584,15346,192,5036,7786,118.95516261082015,68.07544941942996,0.0010265206384149214,False
0.06000000000000001,0.40511760182081613,2.4000000000000004,4656.0,12.07752,0.1,68900.0,0.33,276.0,2700.0,14.872408632362829,0.4457198696287669,1203.4436479976707,8.171425666805343,1.5159420207741,6.700982965557486,1.070222151145333,12509,170,4106,6344,82.86054121025882,47.57236887932236,0.000730347172689366,False
0.06999999999999999,0.3987795770794562,2.4000000000000004,4657.0,12.07752,0.1,68900.0,0.33,276.0,2700.0,14.328077083129912,0.5007643203894137,1352.0636650514168,8.011823336494093,1.4646576377220097,6.3162537466358195,0.9638933173325961,12395,168,4070,6284,69.2183695918244,39.790765351560964,0.000621281049788287,False
0.08,0.6017248336774256,2.4000000000000004,4658.0,12.07752,0.2,68900.0,0.33,276.0,2700.0,24.911688444650444,0.9953952074935924,2687.5670602326995,13.623737407276845,3.6425685123232303,11.287951037373599,2.647173304829638,5163,116,1694,2616,90.0334654578102,51.81984643870981,0.0009198464957723158,False
0.09,0.5631781083573704,2.4000000000000004,4659.0,12.07752,0.1,68900.0,0.33,276.0,2700.0,22.427133324899142,1.0076941855908128,2720.7743010951945,12.478196309472928,3.1396164334252274,9.948937015426214,2.1319222478344146,18356,214,6040,9290,77.09122492927148,44.26864650174595,0.0007566259950226902,False
0.09999999999999999,0.7218343304932815,2.4000000000000004,4660.0,12.07752,0.3,68900.0,0.33,276.0,2700.0,31.66882635856907,1.5813469228260584,4269.636691630358,17.432647334988925,5.5040228536617235,14.236179023580146,3.9226759308356653,3338,92,1092,1694,89.67893698223075,51.77374825424494,0.0009520936714612223,False
0.11,0.5648928549631341,2.4000000000000004,4661.0,12.07752,0.2,68900.0,0.33,276.0,2700.0,21.988312332669707,1.206569538415548,3257.7377537219795,12.528361911681406,3.1610563782811356,9.459950420988301,1.9544868398655877,4738,108,1542,2419,62.44460506638055,36.04630961367335,0.0006308484456941381,False
0.12,0.7740351906540823,2.4000000000000004,4662.0,12.07752,0.3,68900.0,0.33,276.0,2700.0,34.43910583376884,2.062727235289194,5569.363535280824,19.20107130161274,6.459880751055678,15.238034532156103,4.397153515766484,3449,96,1134,1742,79.7371849295268,46.036262348668544,0.0008825753726557711,False
0.13,0.493519538298802,2.4000000000000004,4663.0,12.07752,0.2,68900.0,0.33,276.0,2700.0,17.645130638688478,1.1423321054747941,3084.2966847819444,10.502783820652645,2.3399132431184273,7.142346818035833,1.1975811376436332,3731,94,1222,1892,47.211731159973276,27.221776401654257,0.000456703718786715,False
0.14,0.6937954274560989,2.4000000000000004,4664.0,12.07752,0.3,68900.0,0.33,276.0,2700.0,28.716048048918925,2.004376343263359,5411.816126811069,16.511037390119466,5.028197179360422,12.20501065879946,3.0238208360970633,2749,84,904,1387,62.592692444692865,36.11808687337336,0.0006597209875434197,False
0.15000000000000002,0.7470905152258571,2.4000000000000004,4665.0,12.07752,0.3,68900.0,0.33,276.0,2700.0,31.763745551977028,2.375212332927696,6413.073298904779,18.279706906389393,5.954968020336422,13.484038645587635,3.5797556874087264,3174,90,1040,1608,63.06464595333183,36.40904311870869,0.0006837007960189922,False
0.16,0.7981799351503986,2.4000000000000004,4666.0,12.07752,0.3,68900.0,0.33,276.0,2700.0,34.78367217621371,2.774115131757698,7490.110855745786,20.042194104348752,6.933610579339195,14.741478071864961,4.159495447581497,3461,96,1134,1754,61.61663181837365,35.57217909617658,0.0007040246968604564,False
0.17,0.5376146509825419,2.4000000000000004,4667.0,12.07752,0.1,68900.0,0.33,276.0,2700.0,18.980814262917026,1.6030794492098885,4328.314512866699,11.739089920578174,2.8301126391476368,7.241724342338852,1.2270331899377482,16233,194,5112,8365,40.610957598391465,23.40607175445428,0.00039949003025519924,False
0.18000000000000002,0.6638435142492236,2.4000000000000004,4668.0,12.07752,0.3,68900.0,0.33,276.0,2700.0,25.7864085403255,2.3085622563921406,6233.11809225878,15.54837574595991,4.548133076681808,10.238032794365589,2.239570820289668,2590,80,842,1321,46.351180704439074,26.75895850069551,0.000493493692740368,False
0.19,0.589337314946575,2.4000000000000004,4669.0,12.07752,0.3,68900.0,0.33,276.0,2700.0,21.27735758469423,2.006983514538638,5418.8554892543225,13.251529964927974,3.476113554516245,8.025827619766256,1.4691300399776073,2250,74,742,1131,40.64321511994496,23.458062847435404,0.0004037952127512243,False
0.2,0.8736314949608952,2.4000000000000004,4670.0,12.07752,0.3,68900.0,0.33,276.0,2700.0,38.625592245944276,3.845804063775284,10383.670972193268,22.76510861361911,8.547649831358298,15.860483632325167,4.701845767583014,3769,102,1238,1906,53.53676064717153,30.90946071683036,0.0006474464986608482,False
0.21000000000000002,0.8452247285608554,2.4000000000000004,4671.0,12.07752,0.3,68900.0,0.33,276.0,2700.0,36.372789809249184,3.799746736927774,10259.31618970499,21.72316464020577,7.915813847577494,14.649625169043414,4.11606711064972,3662,98,1192,1868,49.66624722312988,28.637621521753385,0.0005912779515981252,False
0.22,0.8614308250754297,2.4000000000000004,4672.0,12.07752,0.3,68900.0,0.33,276.0,2700.0,37.15788517131757,4.065066249794647,10975.678874445546,22.31511031932353,8.272649200305288,14.842774851994037,4.207582950510641,3615,100,1182,1836,48.239544497989264,27.850806977218184,0.0005811218255523368,False
0.23,0.7781784553334451,2.4000000000000004,4673.0,12.07752,0.3,68900.0,0.33,276.0,2700.0,31.386893445025105,3.584010240967066,9676.827650611078,19.344367505525128,6.539732579669929,12.042525939499978,2.955722338702863,3101,90,1026,1556,42.35444394162317,24.45256152889129,0.0004858690092862307,False
0.24000000000000005,0.794507731571316,2.4000000000000004,4674.0,12.07752,0.3,68900.0,0.33,276.0,2700.0,32.1389944413277,3.827726415063842,10334.861320672373,19.913321982053773,6.860248288465266,12.225672459273923,3.032521873401424,3043,90,1006,1528,41.6383000536353,24.015599448900947,0.0004804277689286538,False
0.25,0.81148109146625,2.4000000000000004,4675.0,12.07752,0.3,68900.0,0.33,276.0,2700.0,32.9404434003266,4.0848305015659285,11029.042354228008,20.51182124609585,7.203313299408361,12.428622154230752,3.1184827978424323,3099,90,1020,1563,40.65522028591025,23.458392929653694,0.0004760649470467629,False
0.26,0.8168868691192772,2.4000000000000004,4676.0,12.07752,0.3,68900.0,0.33,276.0,2700.0,32.99873163608895,4.253024024371903,11483.164865804138,20.70395512543182,7.314714629987511,12.29477651065713,3.061690605615609,3163,92,1050,1582,39.52998895867389,22.796571220013703,0.00046336326945225917,False
0.27,0.7802612393019888,2.4000000000000004,4677.0,12.07752,0.3,68900.0,0.33,276.0,2700.0,30.382984797648703,4.060478968882169,10963.293215981856,19.4165642449109,6.580097884374686,10.966420552737802,2.519618915492517,2923,88,966,1468,36.42191369908826,21.009599685984103,0.0004214184482991288,False
0.28,0.6405442833825525,2.4000000000000004,4678.0,12.07752,0.2,68900.0,0.33,276.0,2700.0,21.88553375142666,3.017998563911997,8148.596122562392,14.815124131613187,4.1944364699839225,7.070409619813473,1.1764379060719254,4709,108,1568,2351,29.781321091859155,17.108539872014937,0.0003210213220163621,False
0.29000000000000004,0.6809624596355863,2.4000000000000004,4679.0,12.07752,0.3,68900.0,0.33,276.0,2700.0,23.912187487686047,3.416186983562155,9223.704855617818,16.095822072659132,4.818980216544285,7.816365415026915,1.4027932329821304,2500,78,826,1255,30.862768880256873,17.791971126775746,0.0003347722770431417,False
0.3,0.6887083316074345,2.4000000000000004,4680.0,12.07752,0.3,68900.0,0.33,276.0,2700.0,24.10623624598014,3.559386769132392,9610.344276657459,16.345947397981345,4.944624139622902,7.760288847998794,1.3852373704905099,2489,78,820,1253,29.463255377586453,16.97162770295967,0.00033012010442808536,False
0.31,0.8194290733239562,2.4000000000000004,4681.0,12.07752,0.3,68900.0,0.33,276.0,2700.0,31.737773441010642,4.856960758861255,13113.794048925387,20.794564869302786,7.367463451586381,10.943208571707856,2.510502692725126,3097,90,1026,1552,34.12852147833064,19.668746121905702,0.00039772803136690286,False
0.32,0.8391489156967223,2.4000000000000004,4682.0,12.07752,0.3,68900.0,0.33,276.0,2700.0,32.718354158222795,5.166307526600425,13949.030321821148,21.50294006970363,7.784497455800697,11.215414088519164,2.6181899292002715,3078,90,1022,1539,34.901339385315126,20.144668522813387,0.0003990884506227866,False
0.33,0.7945219564546386,2.4000000000000004,4683.0,12.07752,0.3,68900.0,0.33,276.0,2700.0,29.630226206002686,4.813721047195416,12997.046827427623,19.91382053549038,6.860531556693101,9.716405670512305,2.0468105094976856,2890,86,958,1447,31.255486529451165,18.006284481300654,0.0003628182642947687,False
0.34,0.6966715170953963,2.4000000000000004,4684.0,12.07752,0.08,68900.0,0.33,276.0,2700.0,23.581767281768386,3.926582332796164,10601.772298549644,16.604662068001634,5.075818989588086,6.977105213766752,1.1492366567919219,60014,270,9748,37986,28.986848170748786,16.718992372718237,0.0003071220966056959,False
0.3500000000000001,0.7004144722615889,2.4000000000000004,4685.0,12.07752,0.08,68900.0,0.33,276.0,2700.0,23.55397114709043,4.032147760725718,10886.798953959438,16.726816947166114,5.138197995551095,6.8271541999243155,1.1060502348253767,61926,270,9800,39440,28.547974059650144,16.467584762410908,0.0003024563108760483,False
0.36000000000000004,0.9186744686141585,2.4000000000000004,4686.0,12.07752,0.3,68900.0,0.33,276.0,2700.0,36.805626126832465,6.5272966049325865,17623.700833317984,24.458833685067134,9.611011826690607,12.34679244176533,3.0837152217580206,3325,96,1102,1666,33.432563680204126,19.248451061499832,0.0004065101900579124,False
0.37,0.9271707559429225,2.4000000000000004,4687.0,12.07752,0.3,68900.0,0.33,276.0,2700.0,37.08706269352539,6.755019203180664,18238.551848587795,24.784030951128035,9.820201305575159,12.303031742397355,3.0651821023944947,3325,96,1102,1666,32.93952467100529,18.99097988373825,0.0004019506694000272,False
0.38,0.9153693038298794,2.4000000000000004,4688.0,12.07752,0.3,68900.0,0.33,276.0,2700.0,36.0077736500402,6.726553345449119,18161.69403271262,24.33281793669226,9.530379677957306,11.674955713347941,2.803826332508187,3374,96,1120,1688,31.366895385154383,18.069288172466887,0.00038608398009868267,False
0.39,0.8908965765234536,2.4000000000000004,4689.0,12.07752,0.3,68900.0,0.33,276.0,2700.0,34.11450277762304,6.528090618557508,17625.84467010527,23.408290885615887,8.94623280689218,10.70621189200715,2.418142188334672,3159,92,1048,1581,29.821530858618875,17.170061270033447,0.00036361199250785174,False
0.4,0.9936048586143802,2.4000000000000004,4690.0,12.07752,0.3,68900.0,0.33,276.0,2700.0,40.76868667577592,8.019696048602018,21653.17933122545,27.38936539521593,11.552633600641926,13.379321280559989,3.5329375520399076,3818,104,1264,1914,32.596515591557775,18.73257441743805,0.0004112312234736208,False
0.4100000000000001,0.9839926338645202,2.4000000000000004,4691.0,12.07752,0.3,68900.0,0.33,276.0,2700.0,39.801357180297394,8.014930417108909,21640.312126194054,27.005540919909958,11.291207428342245,12.795816260387436,3.2762770112333364,3809,102,1268,1901,31.23771586415682,17.990694948296184,0.0003970706714475175,False
0.42000000000000004,1.0727369547069763,2.4000000000000004,4692.0,12.07752,0.3,68900.0,0.33,276.0,2700.0,45.834565065627736,9.47008911943571,25569.24062247642,30.63742630016399,13.847486621769196,15.197138765463745,4.377397502333485,4199,110,1394,2102,89.12509976964738,50.04975095852943,0.0004368198050401037,False
0.43,0.976592000484608,2.4000000000000004,4693.0,12.07752,0.3,68900.0,0.33,276.0,2700.0,38.70838683016956,8.15578409708048,22020.617062117293,26.711609387648387,11.092437809439412,11.996777442521172,2.9366537123589325,3582,100,1196,1782,29.69013997237731,17.078488773267857,0.0003778233692825049,False
0.44,0.9403808632077608,2.4000000000000004,4694.0,12.07752,0.3,68900.0,0.33,276.0,2700.0,35.98520023593747,7.738335099503982,20893.50476866075,25.293254040806264,10.150959630597383,10.691946195131205,2.4126245310934005,3268,94,1090,1627,28.164015579432288,16.169888426884054,0.0003521264237585842,False
0.45,0.8360699050746728,2.4000000000000004,4695.0,12.07752,0.3,68900.0,0.33,276.0,2700.0,29.086506331364102,6.353612170851345,17154.75286129863,21.39169213586135,7.718461002841045,7.694814195502751,1.3648488319897005,3149,86,966,1636,24.9576309423631,14.349047433227536,0.0003013331183268777,False
0.46,0.9909221700782207,2.4000000000000004,4696.0,12.07752,0.3,68900.0,0.33,276.0,2700.0,38.83031523861203,8.727112463194224,23563.203650624404,27.282009707896417,11.479300505455436,11.548305530715613,2.7521880422612117,3709,100,1230,1852,28.626547844247593,16.41604512745176,0.00036374867389682674,False
0.4700000000000001,0.7745270232956136,2.4000000000000004,4697.0,12.07752,0.2,68900.0,0.33,276.0,2700.0,24.975582096678632,5.651815410003712,15259.901607010022,19.218058931250102,6.469328641960383,5.75752316542853,0.8175132319566707,7014,114,1760,3932,24.29865896740508,13.98464123083465,0.0002691639355297184,False
0.4800000000000001,0.964467789585399,2.4000000000000004,4698.0,12.07752,0.3,68900.0,0.33,276.0,2700.0,36.48808883833314,8.525517978036083,23018.898540697424,26.23304591230795,10.771485458683513,10.25504292602519,2.2459674806474297,3801,98,1170,1974,27.100799864909362,15.613555661838994,0.0003406287068627951,False
0.49,0.8258700398743033,2.4000000000000004,4699.0,12.07752,0.2,68900.0,0.33,276.0,2700.0,27.50725877086436,6.49287490946031,17530.76225554284,21.024862163974436,7.5021416572805295,6.482396606889925,1.0092667478202193,7433,118,1826,4202,25.719394410322344,14.833344806947748,0.0002796553698858651,False
0.5,0.8139810903932859,2.4000000000000004,4700.0,12.07752,0.08,68900.0,0.33,276.0,2700.0,26.57415367068134,6.381739029871188,17230.695380652207,20.60058572033464,7.254703753335443,5.973567950346702,0.8729647234642552,90926,284,10784,60654,28.48460120963171,16.07868379983182,0.0002739650161265555,False
0.01,0.38456260405390874,2.4000000000000004,4701.0,15.0969,0.05,68900.0,0.33,276.0,2700.0,15.06878476063887,0.07534182940809203,203.42293940184848,7.657487847544517,1.3532785688917217,7.411296913094353,1.2779367394836296,49083,340,16260,24687,624.7592281536544,355.6008562194403,0.004680938408737003,True
0.02,0.3817878732468489,2.4000000000000004,4702.0,15.0969,0.08,68900.0,0.33,276.0,2700.0,14.689375252445949,0.14687699736365925,396.56789288187997,7.5889245576982,1.3321262685353414,7.100450694747749,1.1852492711716822,18976,210,6250,9595,285.81972014598347,162.74966194565468,0.0023732783231852207,True
0.03,0.6555217156801518,2.4000000000000004,4703.0,15.0969,0.1,68900.0,0.33,276.0,2700.0,29.63449589858379,0.44446088981099346,1200.0444024896824,15.28491361832382,4.419840072034247,14.34958228025997,3.975379182223253,24695,254,8122,12506,359.1504147711084,204.49354061459417,0.0032997223397583015,True
0.04,0.5017987347393205,2.4000000000000004,4704.0,15.0969,0.1,68900.0,0.33,276.0,2700.0,20.37482435001738,0.40736244571379415,1099.8786034272441,10.731183528243854,2.4278121479993104,9.643640821773527,2.020449702285516,16908,204,5546,8583,209.58943383369493,119.63569439756749,0.001729084610374361,False
0.05,0.7005497181688797,2.4000000000000004,4705.0,15.0969,0.2,68900.0,0.33,276.0,2700.0,31.859571783171607,0.7962274951914945,2149.8142370170353,16.731237416363385,5.140460528005203,15.128334366808222,4.344233032813708,6722,134,2216,3392,202.32550353226193,116.72990302541443,0.0022147983449336875,False
0.06000000000000001,0.6366121208560903,2.4000000000000004,4706.0,15.0969,0.2,68900.0,0.33,276.0,2700.0,27.565912535020356,0.8265249867084932,2231.6174641129314,14.692720373417512,4.136421777120771,12.873192161602844,3.3098967904122776,5709,122,1876,2889,167.49412337511907,96.02804275679621,0.001615263585335632,False
0.06999999999999999,0.7512830515994461,2.4000000000000004,4707.0,15.0969,0.2,68900.0,0.33,276.0,2700.0,34.528015159035604,1.2077621530459042,3260.9578132239412,18.421870625703548,6.031904215379284,16.106144533332056,4.8241420623333795,7285,140,2376,3715,171.61312089018688,98.11081374173122,0.00176700151117649,False
0.08,0.779241159147652,2.4000000000000004,4708.0,15.0969,0.2,68900.0,0.33,276.0,2700.0,36.06967787425836,1.4417147846779093,3892.629918630355,19.38119099695745,6.560309476520277,16.68848687730091,5.118594691842367,7556,144,2486,3821,148.39981689630895,84.84786097708027,0.0016428414800527774,False
0.09,0.4842405263218771,2.4000000000000004,4709.0,15.0969,0.2,68900.0,0.33,276.0,2700.0,18.146992044924826,0.8150878279919742,2200.7371355783303,10.248849367472431,2.2436375899332486,7.898142677452395,1.4285497619412744,4176,98,1362,2127,82.75568776433961,47.77887466082756,0.0007816082056395123,False
0.09999999999999999,0.645152370132543,2.4000000000000004,4710.0,15.0969,0.2,68900.0,0.33,276.0,2700.0,26.914380842450072,1.3436246470201112,3627.7865469543003,14.959063183596566,4.263037284076314,11.955317658853506,2.919412637056203,5913,124,1950,2982,96.7811991833661,55.80952098440366,0.0010244103830193644,False
0.11,0.7603357229945737,2.4000000000000004,4711.0,15.0969,0.3,68900.0,0.33,276.0,2700.0,33.851951401803106,1.859069687216999,5019.488155485898,18.730342272745087,6.200066049086836,15.121609129058019,4.340996361869837,3300,92,1078,1677,105.8901190140282,61.10968897173927,0.0011684000955643743,False
0.12,0.6118538333092443,2.4000000000000004,4712.0,15.0969,0.3,68900.0,0.33,276.0,2700.0,24.38798907424232,1.459660229717603,3941.082620237528,13.93094919667327,3.7821170410583402,10.45703987756905,2.3224568113407376,2430,78,802,1221,83.42539118627707,48.16563198661418,0.000805441879653205,False
0.13,0.794594046825057,2.4000000000000004,4713.0,15.0969,0.3,68900.0,0.33,276.0,2700.0,35.48856986584006,2.302155655239645,6215.820269147042,19.91634723559644,6.86196724246638,15.572222630243623,4.559811587226735,3418,96,1122,1729,94.74024113065944,54.698009022181644,0.0010610886058384343,False
0.14,0.7762523929949726,2.4000000000000004,4714.0,15.0969,0.3,68900.0,0.33,276.0,2700.0,33.95924218137345,2.371399932535181,6402.779817844988,19.277700326764307,6.502538339491862,14.68154185460914,4.131138406956681,3479,96,1142,1760,84.81859562651606,48.96974851185973,0.0009595634695361554,False
0.15000000000000002,0.4570009664126023,2.4000000000000004,4715.0,15.0969,0.08,68900.0,0.33,276.0,2700.0,15.329738082545193,1.1426617727203117,3085.1867863448415,9.51589725441254,1.9744884211177047,5.813840828132653,0.8318266483973931,25239,214,6508,14071,48.87988035402685,28.204646445527967,0.0004614532476020109,False
0.16,0.6172290592990106,2.4000000000000004,4716.0,15.0969,0.3,68900.0,0.33,276.0,2700.0,23.616983929215195,1.8807800719978125,5078.106194394094,14.095026657818863,3.857439692685569,9.521957271396332,1.9766596206877567,2369,76,772,1205,63.324112181009205,36.55080998989856,0.0006255495314127963,False
0.17,0.5700592064465406,2.4000000000000004,4717.0,15.0969,0.3,68900.0,0.33,276.0,2700.0,20.72391759816819,1.7512432327062384,4728.356728306843,12.679952340628143,3.2261735953381083,8.043965257540046,1.47493036263187,1998,70,654,1011,55.25604324231112,31.90125230581881,0.0005364981071881677,False
0.18000000000000002,0.5745874590251421,2.4000000000000004,4718.0,15.0969,0.2,68900.0,0.33,276.0,2700.0,20.720184752253456,1.852602115465656,5002.025711757271,12.813371411410014,3.283893505377679,7.906813340843442,1.4312913899120232,4668,106,1534,2361,49.750732883119696,28.685324604973328,0.0005142794947637236,False
0.19,0.696048308084162,2.4000000000000004,4719.0,15.0969,0.3,68900.0,0.33,276.0,2700.0,27.43344359016424,2.5918116850582895,6997.891549657382,16.5843572464577,5.065477142139629,10.849086343706542,2.47366545708134,2633,82,866,1328,58.79936082513029,33.94420376551933,0.000624810033006403,False
0.2,0.6025088872118796,2.4000000000000004,4720.0,15.0969,0.3,68900.0,0.33,276.0,2700.0,21.75303712386555,2.158548551567411,5828.08108923201,13.647425618398618,3.6532595371932333,8.105611505466932,1.4947109856258223,2254,74,744,1132,49.16817394544732,28.369708489858034,0.0004954699262062494,False
0.21000000000000002,0.6118565141081833,2.4000000000000004,4721.0,15.0969,0.3,68900.0,0.33,276.0,2700.0,22.02021064008922,2.2927259241660076,6190.359995248221,13.931030846416744,3.7821543872416665,8.089179793672477,1.489428463075659,2226,74,734,1119,47.34687213847419,27.31350618935754,0.0004838651266185731,False
0.22,0.9138402772975925,2.4000000000000004,4722.0,15.0969,0.3,68900.0,0.33,276.0,2700.0,40.78710953327904,4.464280929610411,12053.55850994811,24.274613752374506,9.493218659084786,16.512495780904537,5.028937729474374,3855,104,1268,1947,63.972603902532306,36.93287391020369,0.0007878061857477427,False
0.23,0.7435859235730482,2.4000000000000004,4723.0,15.0969,0.3,68900.0,0.33,276.0,2700.0,29.220540663459808,3.33487967108706,9004.175111935063,18.161209522586752,5.891112844718646,11.059331140873056,2.5562331736315858,2801,84,920,1415,51.15579133665378,29.51971830768524,0.000571679163969444,False
0.24000000000000005,0.7712334725900893,2.4000000000000004,4724.0,15.0969,0.3,68900.0,0.33,276.0,2700.0,30.661572408103286,3.6504357710765114,9856.17658190658,19.10441745404938,6.406220207218449,11.557154954053907,2.7557844361419375,3102,90,1024,1560,50.145075589905495,28.915817521734997,0.0005771933940726645,False
0.25,0.703055781675315,2.4000000000000004,4725.0,15.0969,0.3,68900.0,0.33,276.0,2700.0,26.224518182540134,3.245339849342622,8762.41759322508,16.81323048050022,5.182492778461149,9.411287702039914,1.9371529291185268,2587,80,848,1309,44.7893454600392,25.85404783534344,0.0004935846876567182,False
0.26,0.8420999584800763,2.4000000000000004,4726.0,15.0969,0.3,68900.0,0.33,276.0,2700.0,34.64564214628194,4.46712239069699,12061.230454881874,21.60978800709091,7.848111154506379,13.035854139191034,3.3809887638093885,3486,96,1144,1764,50.943613576502294,29.410416414832508,0.0006042582454351867,False
0.27,0.9487044040267416,2.4000000000000004,4727.0,15.0969,0.3,68900.0,0.33,276.0,2700.0,41.639552244581814,5.5801155742181425,15066.312050388984,25.616362161931896,10.362832557102026,16.02319008264992,4.782716982883883,3836,104,1260,1940,55.298462928798855,31.914187463497754,0.0006869598479375232,False
0.28,0.7227811646407643,2.4000000000000004,4728.0,15.0969,0.3,68900.0,0.33,276.0,2700.0,26.60479813857238,3.678695578112399,9932.478060903477,17.464113681042775,5.5205435743671964,9.140684457529606,1.8418479962547973,2759,82,912,1385,42.01049900477141,24.248084252691108,0.00046336184405629916,False
0.29000000000000004,0.6331648484482422,2.4000000000000004,4729.0,15.0969,0.1,68900.0,0.33,276.0,2700.0,21.24037672924587,3.028774423588383,8177.6909436886335,14.585730369407328,4.085956465225262,6.654646359838543,1.0571820416368793,27165,204,5674,16240,37.838793337678084,21.83367678859267,0.0003880562984185882,False
0.3,0.6727472301251138,2.4000000000000004,4730.0,15.0969,0.08,68900.0,0.33,276.0,2700.0,23.199061865660084,3.4233106120843466,9242.938652627736,15.832188272829205,4.687833411372317,7.3668735928308795,1.2645227992879704,54975,270,9670,34186,38.55830397674493,22.24131158059372,0.000407247172922756,False
0.31,1.0008367952429427,2.4000000000000004,4731.0,15.0969,0.3,68900.0,0.33,276.0,2700.0,44.0946163378755,6.772271407875308,18285.13280126333,27.6796736841768,11.751760708873524,16.4149426536987,4.979489300998217,4060,108,1340,2044,51.33587457227041,29.60446895971236,0.0006507913816426415,False
0.32,0.9839245846745028,2.4000000000000004,4732.0,15.0969,0.3,68900.0,0.33,276.0,2700.0,42.5537828721495,6.7399761208286995,18197.93552623749,27.002831934608267,11.289369815329456,15.55095093754123,4.549393694500757,4049,106,1334,2042,48.35226853584165,27.790539064288108,0.000617644310128995,False
0.33,0.7037124739199973,2.4000000000000004,4733.0,15.0969,0.2,68900.0,0.33,276.0,2700.0,24.225225545258855,3.921895938173005,10589.119033067114,16.834742152885347,5.19354095920684,7.390483392373508,1.2716450210338346,5310,112,1708,2696,38.16226645289112,22.03211704177477,0.0003923599201206081,False
0.34,0.8200322183759268,2.4000000000000004,4734.0,15.0969,0.3,68900.0,0.33,276.0,2700.0,30.95048191539693,5.1792638205124435,13984.012315383598,20.8160861239385,7.380012080255192,10.13439579145843,2.200748259742748,3140,90,1042,1571,39.17920149155856,22.602064488609823,0.0004589518326409046,False
0.3500000000000001,1.0027339186062294,2.4000000000000004,4735.0,15.0969,0.3,68900.0,0.33,276.0,2700.0,42.95308984156155,7.426993532258168,20052.88253709705,27.75604666674479,11.804344894692399,15.19704317481676,4.377351362434231,3946,106,1300,1990,46.54967443099034,26.823521822317364,0.0005850174849416144,False
0.36000000000000004,0.8764400371570655,2.4000000000000004,4736.0,15.0969,0.3,68900.0,0.33,276.0,2700.0,34.00853894088742,6.023820911462461,16264.316460948645,22.869226025479115,8.611732762174496,11.139312915408304,2.587911850712035,3097,92,1028,1549,39.286898320088035,22.62104427982438,0.00047663506318403607,False
0.37,0.994541367459032,2.4000000000000004,4737.0,15.0969,0.3,68900.0,0.33,276.0,2700.0,41.746284075368685,7.616975158821531,20565.832928818134,27.426885148995837,11.578301550654919,14.319398926372848,3.9613263918333876,3955,106,1302,1996,42.798733664622155,24.67713531514854,0.0005509114070758664,False
0.38,0.9351320237088314,2.4000000000000004,4738.0,15.0969,0.3,68900.0,0.33,276.0,2700.0,37.33418849201075,6.978572165423523,18842.14484664351,25.090396709369276,10.018732085383075,12.243791782641477,3.040159919959552,3371,96,1116,1691,40.00622128814728,23.058847920083053,0.000496507646342783,False
0.39,0.8621596088382537,2.4000000000000004,4739.0,15.0969,0.3,68900.0,0.33,276.0,2700.0,32.263364224381085,6.167118600675451,16651.220221823718,22.34188504835162,8.28892184605483,9.921479176029464,2.121803245379379,3040,90,1010,1519,36.88884508997904,21.277867946070927,0.00043560670749295143,False
0.4,0.8681813346011729,2.4000000000000004,4740.0,15.0969,0.3,68900.0,0.33,276.0,2700.0,32.378105823253314,6.341579878097503,17122.265670863257,22.56362757435105,8.424125729862032,9.814478248902265,2.0825458517645297,3041,90,1012,1517,36.37484213954492,20.975410013201305,0.00043011620510858986,False
0.4100000000000001,0.9279908590392237,2.4000000000000004,4741.0,15.0969,0.3,68900.0,0.33,276.0,2700.0,35.99837454685456,7.235318977253145,19535.361238583493,24.815516589606766,9.840539675676588,11.182857957247798,2.6052206984234427,3226,94,1076,1606,37.551250127894754,21.633837358061772,0.00045981254104346695,False
0.42000000000000004,1.0821451738581283,2.4000000000000004,4742.0,15.0969,0.3,68900.0,0.33,276.0,2700.0,46.52853067453492,9.615821897306233,25962.71912272683,31.034064515460877,14.13759432811684,15.494466159074044,4.521772430810607,4273,110,1422,2134,41.17124249219242,23.605639524213515,0.0005526470355019579,False
0.43,0.9939489562152486,2.4000000000000004,4743.0,15.0969,0.3,68900.0,0.33,276.0,2700.0,39.903887193258676,8.412816675144642,22714.605022890533,27.4031485627257,11.562060586855832,12.500738630532975,3.1492439117111903,3525,100,1178,1752,38.50250344791121,22.169250367971845,0.0004831933810253013,False
0.44,1.0662268308523737,2.4000000000000004,4744.0,15.0969,0.3,68900.0,0.33,276.0,2700.0,44.73557683343967,9.663417950954463,26091.22846757705,30.364270250245106,13.64892289969214,14.371306583194567,3.9855049487376775,4244,110,1400,2132,78.19152421843047,40.64210791440491,0.00052096721629287,False
0.45,0.8704579022028343,2.4000000000000004,4745.0,15.0969,0.3,68900.0,0.33,276.0,2700.0,31.209596435656568,6.831307444317144,18444.530099656287,22.647696730476685,8.475589023220756,8.561899705179883,1.6442815789036125,3047,88,968,1555,32.12817265456669,18.479516335511214,0.00039365502721015955,False
0.46,0.7903089157567862,2.4000000000000004,4746.0,15.0969,0.2,68900.0,0.33,276.0,2700.0,26.11836641189711,5.803364233049793,15669.08342923444,19.766384262719274,6.776944554455364,6.351982149177836,0.9735803214055707,7125,116,1782,3998,32.28082867023793,18.60941935658846,0.0003488945768126097,False
0.4700000000000001,1.0606719106422902,2.4000000000000004,4747.0,15.0969,0.3,68900.0,0.33,276.0,2700.0,43.42348062156849,9.987071563352831,26965.093221052644,30.132035464482158,13.480897183065125,13.29144515708633,3.493825619712293,4292,108,1356,2202,36.928618063708974,21.20201622028412,0.0004883588022001759,False
0.4800000000000001,0.8079307360512255,2.4000000000000004,4748.0,15.0969,0.2,68900.0,0.33,276.0,2700.0,26.682481450800008,6.172172205028134,16664.86495357596,20.38603295633808,7.130712434072132,6.296448494461927,0.9585402290439982,7448,118,1846,4195,31.456888597298747,18.060879086056875,0.0003464166070074297,False
0.49,0.911696355483132,2.4000000000000004,4749.0,15.0969,0.3,68900.0,0.33,276.0,2700.0,32.78678328554359,7.786358415556723,21023.167722003152,24.19310181361275,9.441263183374135,8.593681471930843,1.6549047678174116,3321,90,1014,1724,34.361610540803454,19.737845356129284,0.00039226477703378223,False
0.5,1.1449657100685275,2.4000000000000004,4750.0,15.0969,0.3,68900.0,0.33,276.0,2700.0,48.69273769679998,11.91138503640084,32160.73959828227,33.739515432639855,16.17163060593252,14.953222264160125,4.26024556953168,4576,112,1432,2356,37.76884879800647,21.655482134477857,0.0005135219640936305,False
0.01,0.5656050489895083,2.4000000000000004,4751.0,18.11628,0.05,68900.0,0.33,276.0,2700.0,24.806746446323878,0.12403163783651996,334.8854221586039,12.54921915498693,3.1699864292403537,12.257527291336947,3.0459547914038336,79806,452,26434,40149,1111.0692321786794,631.8487686679457,0.009392581925258943,True
0.02,0.7111511304778284,2.4000000000000004,4752.0,18.11628,0.08,68900.0,0.33,276.0,2700.0,33.50431317923964,0.3350263766315761,904.5712169052555,17.079171536237354,5.3196770753702785,16.425141643002284,4.984650698738703,41621,338,13734,21014,737.6364927430906,420.19316259750474,0.0068039425770137114,True
0.03,0.5477023426569384,2.4000000000000004,4753.0,18.11628,0.1,68900.0,0.33,276.0,2700.0,23.203541885028155,0.3479965796076564,939.5907649406723,12.028789665521474,2.9499920096790295,11.174752219506681,2.6019954300713732,19338,220,6356,9798,353.53604586606525,201.45314205273496,0.0030391137980161245,True
0.04,0.3939488082116471,2.4000000000000004,4754.0,18.11628,0.1,68900.0,0.33,276.0,2700.0,14.80258846065034,0.2959177279264536,798.9778654014248,7.890854297661209,1.426246793813266,6.911734162989131,1.1303290658868124,12511,170,4102,6352,215.23527296925567,123.69781269797957,0.0015409901953709353,False
0.05,0.6423927180907976,2.4000000000000004,4755.0,18.11628,0.1,68900.0,0.33,276.0,2700.0,28.215775350748004,0.7051325843809017,1903.8579778284345,14.872798079311552,4.221874549671807,13.342977271436451,3.5167419652909055,23895,248,7836,12135,266.46120734682466,152.01370144345802,0.002313482925931585,False
0.06000000000000001,0.4463505657152331,2.4000000000000004,4756.0,18.11628,0.08,68900.0,0.33,276.0,2700.0,16.936161939766734,0.507632468850884,1370.6076658973868,9.234391242856839,1.8746419084834567,7.701770696909895,1.3670094396325727,21886,228,7192,11092,141.77920509935652,81.39220614740077,0.001233021915444974,False
0.06999999999999999,0.6124821463112664,2.4000000000000004,4757.0,18.11628,0.2,68900.0,0.33,276.0,2700.0,25.828646849841256,0.9032842622243246,2438.8675080056764,13.950090817884321,3.790876050514363,11.878556031956935,2.887591788290038,5683,120,1860,2887,161.52497170173163,92.37651022018268,0.0015978308268745612,False
0.08,0.5269193650593303,2.4000000000000004,4758.0,18.11628,0.2,68900.0,0.33,276.0,2700.0,20.684087849305055,0.8262911836797782,2230.986195935401,11.43473445019329,2.706189862692218,9.249353399111765,1.8798986790124397,4487,106,1470,2276,120.51611693893284,69.57095245845336,0.0011632841945511253,False
0.09,0.546335530789875,2.4000000000000004,4759.0,18.11628,0.2,68900.0,0.33,276.0,2700.0,21.487612882663875,0.9654157656900235,2606.6225673630634,11.989387581891748,2.933577850183597,9.498225300772127,1.9681620844935734,4710,108,1542,2391,110.3064809646968,63.670334209247024,0.0010922709970207674,False
0.09999999999999999,0.7379057577263841,2.4000000000000004,4760.0,18.11628,0.3,68900.0,0.33,276.0,2700.0,32.7027540711309,1.6330433084541507,4409.216932826207,17.96980714236113,5.788498145118328,14.732946928769767,4.155454836664177,3309,92,1076,1689,134.037691032514,77.38309404871838,0.0014721542113156248,False
0.11,0.5081114558966356,2.4000000000000004,4761.0,18.11628,0.1,68900.0,0.33,276.0,2700.0,18.90154899195284,1.0367975546761212,2799.353397625527,10.906491269809113,2.4961079248696776,7.995057722143727,1.4593103701935564,15634,194,5150,7903,82.66669571767774,47.699258889601886,0.0008271814109174203,False
0.12,0.6126715120177915,2.4000000000000004,4762.0,18.11628,0.3,68900.0,0.33,276.0,2700.0,24.43534823938228,1.462501779626001,3948.7548049902025,13.955861809686658,3.793518265717935,10.479486429695621,2.331016486091934,2415,78,798,1212,100.18112921096024,57.839561604394746,0.0009681533981859624,False
0.13,0.5610864047285685,2.4000000000000004,4763.0,18.11628,0.2,68900.0,0.33,276.0,2700.0,21.25301018498775,1.3768442759842436,3717.479545157458,12.41710273082723,3.1135796589210893,8.835907454160521,1.7367353829368457,4557,106,1494,2310,79.2021602644273,45.719479528154935,0.00080452222328495,False
0.14,0.47808927662765166,2.4000000000000004,4764.0,18.11628,0.1,68900.0,0.33,276.0,2700.0,16.616360806837662,1.157398236317669,3124.975238057706,10.081703688163834,2.181108923270677,6.534657118673827,1.023710686953008,13876,182,4592,6980,63.05737717488573,36.39003039045504,0.0006176291427296498,False
0.15000000000000002,0.7205119253281028,2.4000000000000004,4765.0,18.11628,0.3,68900.0,0.33,276.0,2700.0,30.082005192723884,2.249081805983717,6072.520876156036,17.388737265103497,5.480998869078227,12.693267927620386,3.2319170630945098,2925,86,964,1473,90.66333795849124,52.34038762749508,0.0009761748049670338,False
0.16,0.6291447849997734,2.4000000000000004,4766.0,18.11628,0.3,68900.0,0.33,276.0,2700.0,24.301695394628673,1.9355569892308933,5226.003870923411,14.461340378572777,4.02757106759416,9.840355016055897,2.0920140783632664,2512,78,820,1276,76.27982952520256,44.02750978164411,0.0007691609128987522,False
0.17,0.6521838725190843,2.4000000000000004,4767.0,18.11628,0.3,68900.0,0.33,276.0,2700.0,25.37258781050449,2.1463802007547805,5795.226542037907,15.179728975172521,4.368997050452752,10.19285883533197,2.222616849697972,2581,80,846,1306,73.359685771343,42.32119453822277,0.0007616279814436578,False
0.18000000000000002,0.7929879843883302,2.4000000000000004,4768.0,18.11628,0.3,68900.0,0.33,276.0,2700.0,33.82559564444717,3.0320890957630895,8186.640558560342,19.860087207442092,6.8300255325299615,13.965508437005077,3.797936436766872,3303,94,1086,1668,82.4049451023971,47.55321987942055,0.0009372729887805992,False
0.19,0.5981164105598349,2.4000000000000004,4769.0,18.11628,0.3,68900.0,0.33,276.0,2700.0,21.762209791912102,2.053044474224332,5543.2200804056965,13.51491712867258,3.593604736522918,8.247292663239522,1.5405602622985857,2254,74,744,1132,61.71060763817039,35.610980133212024,0.0006168934205008848,False
0.2,0.6522639434924354,2.4000000000000004,4770.0,18.11628,0.3,68900.0,0.33,276.0,2700.0,24.57258760497842,2.4405035996786966,6589.359719132481,15.182248954387003,4.370212607013941,9.390338650591417,1.9297090073352443,2509,78,820,1273,63.11965183041057,36.39956051118597,0.0006571792589598065,False
0.21000000000000002,0.8704347717073098,2.4000000000000004,4771.0,18.11628,0.3,68900.0,0.33,276.0,2700.0,38.087088879479836,3.979748139302117,10745.319976115716,22.64684191185138,8.475065180659106,15.440246967628457,4.495317041356989,3588,100,1174,1821,76.7951898285864,44.33769678668216,0.0009232454363108641,False
0.22,0.9110698560682722,2.4000000000000004,4772.0,18.11628,0.3,68900.0,0.33,276.0,2700.0,40.59180846555604,4.442797812160859,11995.55409283432,24.169304107729374,9.426113674383698,16.422504357826668,4.983315862222839,3861,104,1270,1950,76.62266374094897,44.236030629986374,0.0009413743074155797,False
0.23,0.641413755757591,2.4000000000000004,4773.0,18.11628,0.3,68900.0,0.33,276.0,2700.0,23.173215515588332,2.6394372790818412,7126.480653520971,14.842242283385458,4.207329599014383,8.330973232202874,1.5678923199325414,2362,76,780,1186,53.675292525838614,30.943120959909027,0.0005698397093317349,False
0.24000000000000005,0.8657982691812046,2.4000000000000004,4774.0,18.11628,0.3,68900.0,0.33,276.0,2700.0,36.83386649159645,4.391111061096091,11855.999864959447,22.475765203244816,8.370459848474052,14.358101288351637,3.979348787377961,3631,100,1188,1843,67.13258535365821,38.75699133874859,0.0008095130277296805,False
0.25,0.5622241016470181,2.4000000000000004,4775.0,18.11628,0.1,68900.0,0.33,276.0,2700.0,18.383565670721847,2.2652207853653357,6116.096120486406,12.450318453221469,3.1277254500623592,5.933247217500378,0.8625046646970236,20233,188,4950,11482,46.362981950811545,26.76141523289094,0.0004593221179864318,False
0.26,0.753572859536085,2.4000000000000004,4776.0,18.11628,0.3,68900.0,0.33,276.0,2700.0,29.003950997035133,3.733702541294905,10080.996861496244,18.49970170543401,6.07417584491161,10.504249291601123,2.3404733036167054,2810,84,926,1415,55.055043600908604,31.723605683522404,0.0006252596558820983,False
0.27,0.8379585283820438,2.4000000000000004,4777.0,18.11628,0.3,68900.0,0.33,276.0,2700.0,34.078135440646555,4.559324305686879,12310.175625354572,21.45990185627625,7.758926248317871,12.618233584370305,3.1996019426309923,3200,92,1062,1601,58.783588997065074,33.875350704863585,0.0006953359276630396,False
0.28,0.7649329933864915,2.4000000000000004,4778.0,18.11628,0.3,68900.0,0.33,276.0,2700.0,29.155508858231983,4.035795078864743,10896.646712934808,18.887783781458275,6.286536194143232,10.267725076773708,2.2507411152784886,2965,86,978,1492,52.828223984036065,30.47540694822334,0.0005977819558633816,False
0.29000000000000004,0.8529238888047399,2.4000000000000004,4779.0,18.11628,0.3,68900.0,0.33,276.0,2700.0,34.47432727525418,4.947697252759588,13358.782582450887,22.003561971034426,8.084142429289209,12.470765304219757,3.1364451765296204,3164,92,1050,1583,56.18141755188682,32.38433809005824,0.0006694965306510831,False
0.3,0.6350580938000532,2.4000000000000004,4780.0,18.11628,0.08,68900.0,0.33,276.0,2700.0,21.10775953558863,3.109615262573681,8395.961208948938,14.644452411234788,4.113626404853491,6.463307124353843,1.0040111422798104,50113,254,8866,31120,44.40287884721374,25.63101542770448,0.0004570849233927298,False
0.31,0.7837258141915083,2.4000000000000004,4781.0,18.11628,0.3,68900.0,0.33,276.0,2700.0,29.500613770640932,4.510201009953948,12177.54272687566,19.536900314334286,6.6475763948625035,9.963713456306646,2.1373753849085553,2895,86,956,1455,48.54092118794734,27.86836238343822,0.0005640235133635476,False
0.32,0.8105629934742813,2.4000000000000004,4782.0,18.11628,0.3,68900.0,0.33,276.0,2700.0,30.900901392361895,4.87551508406237,13163.8907269684,20.47926287301277,7.184496385020188,10.421638519349123,2.308981300957818,2994,88,988,1506,49.042963236736405,28.275724005827133,0.0005714574926768699,False
0.33,0.6592163983791877,2.4000000000000004,4783.0,18.11628,0.2,68900.0,0.33,276.0,2700.0,21.72812253736268,3.509873941870138,9476.659643049374,15.40166977081425,4.476528560773757,6.32645276654843,0.9666546189036191,4748,106,1490,2443,41.738483142602824,24.07890945742236,0.0004384185936473015,False
0.34,0.9698535220277442,2.4000000000000004,4784.0,18.11628,0.3,68900.0,0.33,276.0,2700.0,40.928414826379544,6.875512415380057,18563.883521526153,26.445173988819423,10.913340530462097,14.483240837560121,4.03782811508204,4019,106,1318,2036,54.33055525463938,31.32309976831407,0.0006884177420182987,False
0.3500000000000001,0.7817374232860694,2.4000000000000004,4785.0,18.11628,0.3,68900.0,0.33,276.0,2700.0,28.320583372857485,4.866304900234951,13139.023230634368,19.46780007975909,6.608798115561095,8.852783293098394,1.742493215326144,2867,86,948,1439,44.30386445697855,25.54617313612734,0.0005075973049844481,False
0.36000000000000004,1.0423114540741902,2.4000000000000004,4786.0,18.11628,0.3,68900.0,0.33,276.0,2700.0,45.50923153347618,8.093945578128455,21853.65306094683,29.369956933524836,12.934668272600748,16.139274599951346,4.8407226944722925,4212,110,1394,2115,60.353901920961164,34.82808457853286,0.0007325682814136032,False
0.37,0.7729236348143702,2.4000000000000004,4787.0,18.11628,0.2,68900.0,0.33,276.0,2700.0,27.27876473240011,4.9404840803724985,13339.307017005745,19.16270116915465,6.4385590162704665,8.116063563245458,1.498074935897968,7483,122,1942,4150,44.5240150158691,25.678026750016734,0.00048476566588662195,False
0.38,0.9585900880975198,2.4000000000000004,4788.0,18.11628,0.3,68900.0,0.33,276.0,2700.0,38.934105322617896,7.282556363238875,19662.90218074496,26.002372562454266,10.617973785525063,12.93173276016363,3.335417422286188,3838,104,1276,1918,49.32423550752416,28.42742074633608,0.0006152343760301735,False
0.39,0.7852774915917815,2.4000000000000004,4789.0,18.11628,0.3,68900.0,0.33,276.0,2700.0,27.514960848131484,5.241179942306777,14151.1858442283,19.59089298044187,6.677933243326922,7.924067867689615,1.4367533010201443,2804,84,924,1404,40.75011286031605,23.478619272940442,0.00046742265370616396,False
0.4,0.7209645531270636,2.4000000000000004,4790.0,18.11628,0.2,68900.0,0.33,276.0,2700.0,23.538358562362486,4.573630425919334,12348.802149982203,17.40376168924292,5.488872894995038,6.134596873119566,0.9152424690757037,6477,110,1628,3631,39.701620952468005,22.899440820545436,0.0004200794572212501,False
0.4100000000000001,0.875629388293009,2.4000000000000004,4791.0,18.11628,0.3,68900.0,0.33,276.0,2700.0,32.58520325429689,6.535618862278819,17646.170928152813,22.83915354793088,8.59320604030029,9.746049706366012,2.0575871780214703,3040,90,1008,1520,42.81613932460859,24.69046733127191,0.0005125108664960578,False
0.42000000000000004,1.0429335161782527,2.4000000000000004,4792.0,18.11628,0.3,68900.0,0.33,276.0,2700.0,43.665585951265236,9.014603505419592,24339.429464632896,29.39563790024637,12.952946196880989,14.269948051018865,3.938342691461397,4061,108,1342,2040,48.12704058585525,27.68222754741831,0.000631117117644374,False
0.43,1.0370019900347025,2.4000000000000004,4793.0,18.11628,0.3,68900.0,0.33,276.0,2700.0,42.93463027852755,9.06442643847744,24473.95138388909,29.15115886835068,12.779310706130966,13.783471410176869,3.7148842676535256,4106,106,1352,2064,47.77535935285626,27.50060238940081,0.0006138264935519178,False
0.44,0.7650892653699514,2.4000000000000004,4794.0,18.11628,0.2,68900.0,0.33,276.0,2700.0,25.123427679863223,5.34874513716765,14441.611870352654,18.893144921803373,6.289488244467948,6.23028275805985,0.9407431073002979,6814,114,1722,3811,39.82987425680187,22.993886141698912,0.0004174738055481086,False
0.45,0.9628508829017954,2.4000000000000004,4795.0,18.11628,0.3,68900.0,0.33,276.0,2700.0,37.208269026901604,8.181008777347278,22088.72369883765,26.16950302303202,10.729120451731275,11.038766003869583,2.548111674383996,3485,98,1156,1739,47.32432070896324,27.148114262846367,0.0005432304231097979,False
0.46,0.959563190515059,2.4000000000000004,4796.0,18.11628,0.2,68900.0,0.33,276.0,2700.0,36.709843858992606,8.239404045881763,22246.39092388076,26.040502480818457,10.643295307355315,10.669341378174149,2.403891261473552,10061,142,2522,5646,44.25610226860122,25.50608481645703,0.0005297451815474342,False
0.4700000000000001,0.8479944978627765,2.4000000000000004,4797.0,18.11628,0.2,68900.0,0.33,276.0,2700.0,29.31936964525923,6.672605483920154,18016.034806584415,21.823865876891034,7.976121417231682,7.495503768368195,1.3035159333115285,7867,122,1956,4423,39.62669234431542,22.836911900641397,0.00044773731294678803,False
0.4800000000000001,1.0446230563022665,2.4000000000000004,4798.0,18.11628,0.3,68900.0,0.33,276.0,2700.0,41.985901231640504,9.844992952429847,26581.480971560584,29.465437287324967,13.00267026091599,12.520463944315537,3.157677308486143,3715,102,1218,1866,45.56366462002425,26.184980618770048,0.0005633740962437748,False
0.49,1.1243607884658815,2.4000000000000004,4799.0,18.11628,0.3,68900.0,0.33,276.0,2700.0,47.464019797612295,11.382281361013558,30732.159674736606,32.84120590951046,15.485703656123588,14.622813888101838,4.103422295110031,4711,112,1484,2417,46.465863992755786,26.720031665420976,0.000611821712456799,False
0.5,0.9018478462569315,2.4000000000000004,4800.0,18.11628,0.3,68900.0,0.33,276.0,2700.0,31.909107075487906,7.7154773810728265,20831.788928896633,23.820145532169914,9.204835729287062,8.088961543317993,1.4893583482142354,3254,88,962,1723,38.96359038495034,22.40288894521357,0.000455348183482102,False
0.01,0.5834702860255274,2.4000000000000004,4801.0,21.135659999999998,0.08,68900.0,0.33,276.0,2700.0,25.8569968373797,0.12928288979177655,349.06380243779665,13.076589362411898,3.3988800587249024,12.780407474967802,3.269597168933126,33095,292,10934,16624,1208.5862239651376,688.4323432782054,0.011564029599015216,True
0.02,0.482438895447471,2.4000000000000004,4802.0,21.135659999999998,0.1,68900.0,0.33,276.0,2700.0,19.860525073665336,0.19858849557583452,536.1889380547532,10.199795829261605,2.2252171469178856,9.660729244403731,2.026628651342051,16378,202,5428,8230,485.80009961648915,276.83579350942193,0.004446872766493193,True
0.03,0.45878232925572615,2.4000000000000004,4803.0,21.135659999999998,0.1,68900.0,0.33,276.0,2700.0,18.339525915828577,0.2750363400696639,742.5981181880925,9.563259625618684,1.9914818598507928,8.776266290209893,1.716445519781129,15118,190,4970,7657,328.48999207995473,187.51777898137465,0.0028342906820959693,True
0.04,0.5567192523467958,2.4000000000000004,4804.0,21.135659999999998,0.1,68900.0,0.33,276.0,2700.0,23.437051731843965,0.4686069933503275,1265.2388820458843,12.289903282300667,3.059630203285779,11.147148449543298,2.5910232099354515,19136,220,6268,9728,325.02804454917487,185.3820222532401,0.0027606833584348095,True
0.05,0.5329439502413282,2.4000000000000004,4805.0,21.135659999999998,0.1,68900.0,0.33,276.0,2700.0,21.81936118377635,0.5452222302066108,1472.100021557849,11.605822306821661,2.775594303130669,10.21353887695469,2.230372072924058,17949,212,5902,9090,245.15911448231776,140.21955772365976,0.0021231292519852574,False
0.06000000000000001,0.5350148120697134,2.4000000000000004,4806.0,21.135659999999998,0.1,68900.0,0.33,276.0,2700.0,21.66336070116964,0.6494484316929738,1753.5107655710294,11.66484189035429,2.7996894496342604,9.99851881081535,2.1502410179412865,17678,210,5804,8966,206.71314370247453,118.24678416190845,0.0018031810105969962,False
0.06999999999999999,0.5548076555300616,2.4000000000000004,4807.0,21.135659999999998,0.2,68900.0,0.33,276.0,2700.0,22.498683810704375,0.7867355558545819,2124.186000807371,12.234376166485411,3.0361899506527723,10.264307644218963,2.2494543947981906,4977,110,1630,2526,164.30935921189788,94.86113225846931,0.0016408720974659008,False
0.08,0.6332257876527845,2.4000000000000004,4808.0,21.135659999999998,0.2,68900.0,0.33,276.0,2700.0,26.776115391011338,1.0699722853480265,2888.9251704396715,14.58761909344611,4.086845365579838,12.188496297565228,3.0168730802318113,5579,120,1828,2831,167.53863378963254,95.98046446061642,0.0017212905895018606,False
0.09,0.5742016689481619,2.4000000000000004,4809.0,21.135659999999998,0.2,68900.0,0.33,276.0,2700.0,23.04977505161803,1.0357130632931684,2796.4252708915546,12.801984526141013,3.278952430428426,10.247790525477019,2.2432393671352577,5160,112,1688,2622,135.0864502518193,77.99070965070364,0.001359197874693452,False
0.09999999999999999,0.7317407613614622,2.4000000000000004,4810.0,21.135659999999998,0.3,68900.0,0.33,276.0,2700.0,32.304604666744154,1.6131358382348133,4355.466763233996,17.76298527725198,5.678352368176975,14.541619389492176,4.0652165299421625,3314,92,1080,1688,159.3055537129907,91.96939940658547,0.0016976819324454426,False
0.11,0.7114626299766245,2.4000000000000004,4811.0,21.135659999999998,0.3,68900.0,0.33,276.0,2700.0,30.705256570570313,1.6860014715001193,4552.203973050322,17.089437543136864,5.324998827608487,13.61581902743345,3.6389973561083684,2984,88,976,1514,140.4854023632653,81.10582313335057,0.0014943118764380993,False
0.12,0.5613548475370631,2.4000000000000004,4812.0,21.135659999999998,0.08,68900.0,0.33,276.0,2700.0,21.528266318408985,1.2880768643676048,3477.807533792533,12.424937142253105,3.116913992356707,9.10332917615588,1.828837127989102,27805,262,9196,14001,97.5589283526495,56.27284621942742,0.0010102911801929352,False
0.13,0.6253627339438592,2.4000000000000004,4813.0,21.135659999999998,0.1,68900.0,0.33,276.0,2700.0,24.898169169741998,1.6137796099932704,4357.20494698183,14.344685845908842,3.9730982499474985,10.553483323833156,2.3593186399542283,20509,228,6770,10348,100.63596523252112,57.995978268742576,0.0010777201647095159,False
0.14,0.5723119180700625,2.4000000000000004,4814.0,21.135659999999998,0.3,68900.0,0.33,276.0,2700.0,21.613945454970768,1.5072291616869862,4069.5187365548627,12.74626114079848,3.2548125347211614,8.867684314172289,1.7475833730341752,2101,72,686,1066,103.49027075724945,59.60242866338285,0.0009001519484970109,False
0.15000000000000002,0.627856804031939,2.4000000000000004,4815.0,21.135659999999998,0.3,68900.0,0.33,276.0,2700.0,24.496978646524276,1.8302048150187444,4941.55300055061,14.421573202974788,4.008970750574777,10.075405443549489,2.178765935556033,2555,78,832,1301,480.5191431898421,252.82457174329792,0.0009497103878618174,True
0.16,0.5451086710679942,2.4000000000000004,4816.0,21.135659999999998,0.3,68900.0,0.33,276.0,2700.0,19.625063878370806,1.5614264679302612,4215.8514634117055,11.954059988018681,2.918890228337824,7.671003890352125,1.3574637604075628,2057,70,668,1049,78.62324353587175,45.39283763947365,0.000750520365223771,False
0.17,0.667789765072001,2.4000000000000004,4817.0,21.135659999999998,0.3,68900.0,0.33,276.0,2700.0,26.294291789730938,2.224725038989073,6006.757605270497,15.67391956781562,4.609738452257189,10.620372221915318,2.385013413268116,2560,80,834,1303,87.52760829004778,50.201427604581866,0.0009169612561274522,False
0.18000000000000002,0.8427154123648346,2.4000000000000004,4818.0,21.135659999999998,0.3,68900.0,0.33,276.0,2700.0,37.144658108319256,3.3308047175115725,8993.172737281246,21.632099231515426,7.861417847760765,15.51255887680383,4.5306131302491925,3573,98,1170,1812,101.09187108047713,58.308350355531765,0.0011898252051720784,False
0.19,0.5601469947147748,2.4000000000000004,4819.0,21.135659999999998,0.2,68900.0,0.33,276.0,2700.0,19.693089140121543,1.8564780123042328,5012.490633221429,12.389700629988553,3.101927780913706,7.30338851013299,1.2454497686094732,4139,100,1368,2081,64.64235415586134,37.291591552149626,0.0006663890787921003,False
0.2,0.6409507404661507,2.4000000000000004,4820.0,21.135659999999998,0.3,68900.0,0.33,276.0,2700.0,23.920553736636638,2.375300212844522,6413.31057468021,14.827798839803355,4.200460757853429,9.092754896833283,1.8251605450089072,2505,78,816,1275,71.81963495449537,41.42366150291217,0.0007497584578607339,False
0.21000000000000002,0.6112152192844865,2.4000000000000004,4821.0,21.135659999999998,0.3,68900.0,0.33,276.0,2700.0,21.984541463385284,2.2889806606121894,6180.2477836529115,13.911503920895065,3.7732267510815443,8.07303754249022,1.4842460904693549,2242,74,738,1129,66.2095604355855,38.19527325676818,0.0006765746316532316,False
0.22,0.6167255915334084,2.4000000000000004,4822.0,21.135659999999998,0.3,68900.0,0.33,276.0,2700.0,22.039944670738407,2.40209279473094,6485.6505457735375,14.079627604722235,3.850347177838766,7.960317066016172,1.4482543831078263,2229,74,734,1122,63.62254737072211,36.69600509185849,0.0006568736059940377,False
0.23,0.8216911327229317,2.4000000000000004,4823.0,21.135659999999998,0.3,68900.0,0.33,276.0,2700.0,34.19728448022114,3.907205210014618,10549.454067039469,20.875326202138,7.414593311720476,13.321958278083141,3.507388101705858,3482,96,1142,1763,78.59229151441257,45.37527887777948,0.0009146533274156399,False
0.24000000000000005,0.6623683417991318,2.4000000000000004,4824.0,21.135659999999998,0.3,68900.0,0.33,276.0,2700.0,24.112488364019995,2.864545685786918,7734.273351624679,15.501545932688119,4.525231088886253,8.610942431331877,1.6606854030993348,2342,76,770,1181,61.93397053650862,35.69013827654238,0.0006665550830495706,False
0.25,0.7328408101513404,2.4000000000000004,4825.0,21.135659999999998,0.3,68900.0,0.33,276.0,2700.0,28.010551253153018,3.468593983169232,9365.203754556927,17.799819442453906,5.69791277553726,10.210731810699112,2.2293187923680278,2838,84,934,1431,65.22824758307556,37.61945083772974,0.000728990192413001,False
0.26,0.8715390164310032,2.4000000000000004,4826.0,21.135659999999998,0.3,68900.0,0.33,276.0,2700.0,36.60902776398502,4.722362520998391,12750.378806695655,22.687665765257176,8.500095373290911,13.921361998727843,3.7777328522925204,3450,98,1138,1737,73.54632238505849,42.45860858268802,0.0008859705512644835,False
0.27,0.5773491367459465,2.4000000000000004,4827.0,21.135659999999998,0.08,68900.0,0.33,276.0,2700.0,18.716772684717025,2.485540333636395,6710.958900818266,12.89499364407338,3.3193925707695784,5.821779040643644,0.8338522371331836,43176,240,8096,26520,52.32659632895599,30.183031134093625,0.0005203103121042351,False
0.28,0.8041695806113658,2.4000000000000004,4828.0,21.135659999999998,0.3,68900.0,0.33,276.0,2700.0,31.61007013943417,4.37943365823305,11824.470877229234,20.253121641138286,7.054287456814553,11.356948498295885,2.674853798581503,2942,88,972,1478,63.87815404929852,36.8394370418469,0.0007424679005329866,False
0.29000000000000004,0.8083844606005035,2.4000000000000004,4829.0,21.135659999999998,0.3,68900.0,0.33,276.0,2700.0,31.596010048169074,4.530341254832248,12231.921388047069,20.402090658579706,7.1399657203780444,11.193919389589368,2.6096244655457967,2967,88,978,1494,62.61372415418012,36.1175704152362,0.0007243500205468142,False
0.3,0.7966150314344161,2.4000000000000004,4830.0,21.135659999999998,0.3,68900.0,0.33,276.0,2700.0,30.57521212886993,4.529733151565872,12230.279509227854,19.98723401396573,6.902289486960106,10.5879781149042,2.3725563353942336,2978,88,982,1499,60.37577846623302,34.8272241212647,0.0006899109690306759,False
0.31,0.7669772567783006,2.4000000000000004,4831.0,21.135659999999998,0.3,68900.0,0.33,276.0,2700.0,28.473231152960622,4.350956704213446,11747.583101376304,18.95796374578408,6.325219514354365,9.515267407176541,1.9742628101409192,2918,86,966,1463,56.08650045181656,32.355299031599976,0.0006406015133630267,False
0.32,0.8947544636893623,2.4000000000000004,4832.0,21.135659999999998,0.3,68900.0,0.33,276.0,2700.0,36.3713360131853,5.75078462339443,15527.11848316496,23.553034172957688,9.03681843325475,12.818301840227612,3.28603380986032,3383,96,1120,1697,62.847099776736556,36.19650468309688,0.0007592286720735349,False
0.33,0.7541838378056129,2.4000000000000004,4833.0,21.135659999999998,0.3,68900.0,0.33,276.0,2700.0,27.178124137148554,4.409124205834807,11904.635355753979,18.52049126394981,6.085485111152944,8.657632873198743,1.6763609053181368,2604,80,862,1305,53.100393059457254,30.63153240689017,0.000592721619174575,False
0.34,0.8421996345765346,2.4000000000000004,4834.0,21.135659999999998,0.3,68900.0,0.33,276.0,2700.0,32.35568773942092,5.418148810597097,14629.001788612162,21.61340078491442,7.850265313871938,10.742286954506504,2.43211650327484,3092,90,1026,1547,56.3531376297408,32.37304716313928,0.0006654385029078221,False
0.3500000000000001,0.6932125816504027,2.4000000000000004,4835.0,21.135659999999998,0.08,68900.0,0.33,276.0,2700.0,23.147867351615044,3.961079596517524,10694.914910597316,16.49208948013794,5.018579312739512,6.655777871477106,1.0574997162219884,60466,266,9568,38476,50.05940496534393,28.595081434515198,0.0005225761432606431,False
0.36000000000000004,0.9737775187454358,2.4000000000000004,4836.0,21.135659999999998,0.3,68900.0,0.33,276.0,2700.0,40.58977347194754,7.208443127053305,19462.796443043924,26.600187683599923,11.017415316462904,13.989585788347615,3.808972189409599,3861,104,1278,1938,60.77068254140298,34.92509933899246,0.0007684744931871727,False
0.37,1.043941740688847,2.4000000000000004,4837.0,21.135659999999998,0.3,68900.0,0.33,276.0,2700.0,45.30769746016149,8.275836635008348,22344.75891452254,29.437281698834852,12.9826045905193,15.87041576132664,4.706767955510951,4221,110,1396,2121,63.49293090283507,36.54933474121734,0.0008240881808887289,False
0.38,0.7498713676515303,2.4000000000000004,4838.0,21.135659999999998,0.2,68900.0,0.33,276.0,2700.0,25.670621839450597,4.762494501437095,12858.735153880156,18.373952838664554,6.005932184602957,7.296669000786043,1.2434376831658627,6671,114,1720,3709,50.18910652409563,28.957779398019024,0.0005337087833793351,False
0.39,0.9757045252945697,2.4000000000000004,4839.0,21.135659999999998,0.3,68900.0,0.33,276.0,2700.0,39.81956087293112,7.640576947142703,20629.5577572853,26.67645389823758,11.068747520098162,13.143106974693541,3.428170572955459,3865,104,1280,1937,56.941969208421156,32.73270689828634,0.0007181052679620172,False
0.4,1.0033221681924762,2.4000000000000004,4840.0,21.135659999999998,0.3,68900.0,0.33,276.0,2700.0,41.4517595419742,8.156310621841513,22022.038678972083,27.779746353728093,11.820679347899318,13.672013188246105,3.6643687260578055,3980,106,1320,1994,57.539737801529846,33.03670934511896,0.0007299057998791488,False
0.4100000000000001,0.8314436722389618,2.4000000000000004,4841.0,21.135659999999998,0.3,68900.0,0.33,276.0,2700.0,29.8121832255022,5.967149756375912,16111.304342214962,21.224989359177187,7.619883864568037,8.587193866325013,1.6527341081921252,2951,86,966,1484,47.17229807502678,27.15223310830765,0.0005604820234307073,False
0.42000000000000004,0.978804381312483,2.4000000000000004,4842.0,21.135659999999998,0.3,68900.0,0.33,276.0,2700.0,39.14991024566106,8.06631160724272,21779.041339555348,26.799334447565666,11.151631079870924,12.350575798095395,3.0853194726282034,3556,100,1188,1768,53.15719974518792,30.598030261979687,0.0006766653723800875,False
0.43,0.7943323698881568,2.4000000000000004,4843.0,21.135659999999998,0.1,68900.0,0.33,276.0,2700.0,27.06921488562583,5.653362129003579,15264.077748309663,19.907176326948704,6.856756793672702,7.162038558677125,1.2033946646691227,45029,232,7270,28544,47.42256216384265,27.371203566474158,0.0005210892272424838,False
0.44,1.13830389871122,2.4000000000000004,4844.0,21.135659999999998,0.2,68900.0,0.33,276.0,2700.0,50.10580733745901,10.844868661838724,29281.145386964556,33.447914247159424,15.947836234084566,16.657893090299588,5.102967572245841,13258,170,3290,7477,59.998534594368564,34.53158999734534,0.0008046337447927548,False
0.45,1.0752773797710833,2.4000000000000004,4845.0,21.135659999999998,0.3,68900.0,0.33,276.0,2700.0,45.08636536007236,9.953580452310701,26874.667221238895,30.744308051557503,13.925454435643712,14.342057308514853,3.97187398333301,4361,110,1430,2198,53.70091630002508,30.839546981968457,0.0007221875841500462,False
0.46,0.792698768211773,2.4000000000000004,4846.0,21.135659999999998,0.2,68900.0,0.33,276.0,2700.0,26.257894484569785,5.835455689764507,15755.73036236417,19.84996291402059,6.824283138147117,6.407931570549195,0.9888274483826098,7114,116,1778,3995,44.774984612865346,25.844950731172737,0.0004901794200605937,False
0.4700000000000001,1.087728334561627,2.4000000000000004,4847.0,21.135659999999998,0.3,68900.0,0.33,276.0,2700.0,45.38079883565104,10.447041343662239,28207.011627888045,31.270495065244152,14.311522147965508,14.11030377040689,3.8644808043032697,4159,108,1344,2109,52.99368407715506,30.370257723401338,0.0007065373595633355,False
0.4800000000000001,0.9675884297563634,2.4000000000000004,4848.0,21.135659999999998,0.3,68900.0,0.33,276.0,2700.0,36.6960902491082,8.575438316622115,23153.683454879712,26.355869875747842,10.853540936612644,10.34022037336036,2.2781026199905288,3773,98,1174,1948,47.92641924205143,27.60364190017799,0.000598615063751072,False
0.49,1.0008851319855563,2.4000000000000004,4849.0,21.135659999999998,0.3,68900.0,0.33,276.0,2700.0,38.66545295426441,9.226632484393587,24911.907707862683,27.681618465857287,11.75309870113907,10.983834488407123,2.526466216745483,3541,98,1140,1791,51.30968761694345,29.551204371157453,0.0006125510728442568,False
0.5,0.9542149721487914,2.4000000000000004,4850.0,21.135659999999998,0.3,68900.0,0.33,276.0,2700.0,35.273216560210614,8.556504752253401,23102.562831084182,25.831232630514204,10.504584944544472,9.44198392969641,1.948080192291071,3454,92,1048,1804,48.6969056854284,27.99063901382812,0.0005690170565537052,False
0.01,0.3124973707976358,2.4000000000000004,4851.0,24.15504,0.05,68900.0,0.33,276.0,2700.0,11.6509476614108,0.05825264391195158,157.28213856226927,5.939513313635396,0.8641268942471982,5.711434347775405,0.8058742503352466,38314,294,12684,19282,759.2640814114283,432.14347120666895,0.005825723397457203,True
0.02,0.40345580909512563,2.4000000000000004,4852.0,24.15504,0.08,68900.0,0.33,276.0,2700.0,15.759597093074069,0.1575792157699218,425.46388257878885,8.129481224258585,1.5023976661386922,7.6301158688154835,1.3448184503687703,20228,218,6656,10238,514.7864783795033,293.77000685156094,0.004063002834682035,True
0.03,0.38484124176754786,2.4000000000000004,4853.0,24.15504,0.1,68900.0,0.33,276.0,2700.0,14.597524222616288,0.21890631467166943,591.0470496135075,7.664383645742753,1.355413194467467,6.933140576873535,1.1365068797957976,12594,170,4134,6387,313.72740941796735,179.4580822544954,0.0026120305850993474,True
0.04,0.4555020364436023,2.4000000000000004,4854.0,24.15504,0.1,68900.0,0.33,276.0,2700.0,17.911211644048237,0.35809019159441263,966.8435173049141,9.476105916499078,1.9602545868090597,8.435105727549159,1.6021643952146472,15147,190,4964,7695,294.5095936911879,168.36721640915553,0.002452441016766867,True
0.05,0.5516873695884884,2.4000000000000004,4855.0,24.15504,0.2,68900.0,0.33,276.0,2700.0,22.872036799127727,0.5715391205903941,1543.155625594064,12.143936952202182,2.998156360427686,10.728099846925545,2.426617239837292,4942,110,1626,2497,262.04403038799575,151.17907080828516,0.002542089819930665,False
0.06000000000000001,0.592367351524403,2.4000000000000004,4856.0,24.15504,0.2,68900.0,0.33,276.0,2700.0,24.93162551205437,0.7474963760194799,2018.2402152525958,13.342217091784354,3.516403509413694,11.589408420270017,2.768907133394214,5211,116,1708,2643,233.15042243101328,134.60762816834864,0.0023514267441950634,False
0.06999999999999999,0.5871941755024377,2.4000000000000004,4857.0,24.15504,0.2,68900.0,0.33,276.0,2700.0,24.348007023630423,0.8514618683069449,2298.9470444287513,13.187526443850087,3.4477822828047935,11.160480579780335,2.5963204144978484,5261,116,1726,2666,200.09920384254994,115.51374744978966,0.0020168115168937243,False
0.08,0.656163565494028,2.4000000000000004,4858.0,24.15504,0.2,68900.0,0.33,276.0,2700.0,28.165102415652562,1.1255317663336764,3038.9357691009263,15.305172175160557,4.429657191916939,12.859930240492005,3.304125425583263,6049,126,1982,3070,200.17505007406052,114.71042365810847,0.002058119492253407,False
0.09,0.5622369777093856,2.4000000000000004,4859.0,24.15504,0.1,68900.0,0.33,276.0,2700.0,22.374258620347845,1.0053148238860081,2714.350024492222,12.450694563510565,3.1278857635606645,9.92356405683728,2.1225709396746564,18271,214,6010,9250,155.29140732796776,89.1232138483212,0.0015098802909204608,False
0.09999999999999999,0.6425176197140432,2.4000000000000004,4860.0,24.15504,0.2,68900.0,0.33,276.0,2700.0,26.756272916104233,1.335719250702818,3606.4419768976086,14.876698295400123,4.223732429861697,11.87957462070411,2.8880131791588797,5981,124,1966,3026,164.3316271703116,94.36524436931082,0.0016300639542167752,False
0.11,0.47702384602329545,2.4000000000000004,4861.0,24.15504,0.2,68900.0,0.33,276.0,2700.0,17.280210805472898,0.9476239544197252,2558.5846769332584,10.052849749579014,2.170382941084862,7.2273610558938834,1.222758986665137,3498,92,1148,1770,108.47863706729267,62.60177630182988,0.0010202043896535271,False
0.12,0.5331228546182302,2.4000000000000004,4862.0,24.15504,0.1,68900.0,0.33,276.0,2700.0,19.985371378502233,1.1955031679731982,3227.858553527635,11.610916829955729,2.777671091243155,8.374454548546504,1.5821679232699568,16290,200,5378,8217,106.40185880682544,61.39512465254431,0.0010810901881981995,False
0.13,0.6595122932336221,2.4000000000000004,4863.0,24.15504,0.3,68900.0,0.33,276.0,2700.0,26.919292555501904,1.745152630067666,4711.912101182698,15.411035221174583,4.481087221148666,11.508257334327322,2.735934591081,2650,82,872,1336,129.77388211607328,74.91671841831486,0.0013215203638681093,False
0.14,0.6460059926143682,2.4000000000000004,4864.0,24.15504,0.3,68900.0,0.33,276.0,2700.0,25.833695760775882,1.8026116830933414,4867.051544352022,14.985785681093867,4.275818080876459,10.847910079682014,2.473206397783118,2515,80,824,1273,118.74182571621584,68.53983819672789,0.001201188059624435,False
0.15000000000000002,0.717913023784087,2.4000000000000004,4865.0,24.15504,0.3,68900.0,0.33,276.0,2700.0,29.919467446379915,2.236891475007914,6039.606982521367,17.30256957793265,5.435919260383531,12.616897868447264,3.199027785375617,2952,86,970,1491,120.47610903744022,69.55157990239404,0.0012952014611028009,False
0.16,0.7146660041863222,2.4000000000000004,4866.0,24.15504,0.3,68900.0,0.33,276.0,2700.0,29.42541699675404,2.345454717400925,6332.727736982498,17.195151793345868,5.379911943397192,12.230265203408173,3.034457225996267,2707,84,884,1375,111.35570754752224,64.2872003847531,0.0012118683949258495,False
0.17,0.8139389585271517,2.4000000000000004,4867.0,24.15504,0.3,68900.0,0.33,276.0,2700.0,35.520197564336925,3.008927029830583,8124.102980542573,20.599088493209617,7.253835843756232,14.921109071127308,4.244908813925649,3601,98,1178,1828,118.61149828117196,68.44408920493238,0.0013674247177118876,False
0.18000000000000002,0.8403988974992465,2.4000000000000004,4868.0,24.15504,0.3,68900.0,0.33,276.0,2700.0,36.98728179664654,3.316640849460911,8954.93029354446,21.548171242498825,7.811404004570391,15.439110554147717,4.49476315510948,3583,98,1172,1819,115.20863514154289,66.45187446440717,0.0013543457598862575,False
0.19,0.7369839800521886,2.4000000000000004,4869.0,24.15504,0.3,68900.0,0.33,276.0,2700.0,29.946897873433443,2.830589841968865,7642.592573315936,17.938822824898928,5.771948260051297,12.008075048534515,2.941358418082432,2917,86,958,1474,98.2138536089959,56.681834874646654,0.001075313878094885,False
0.2,0.7269366433547364,2.4000000000000004,4870.0,24.15504,0.3,68900.0,0.33,276.0,2700.0,29.037703871741847,2.8870152263549587,7794.941111158389,17.602480052017537,5.593402665994696,11.43522381972431,2.7063874396397374,2929,86,956,1489,96.13684818925573,55.50345919121348,0.0010098246399355682,False
0.21000000000000002,0.6167501235204567,2.4000000000000004,4871.0,24.15504,0.2,68900.0,0.33,276.0,2700.0,22.293076668956328,2.3213768571971496,6267.717514432304,14.08037779184887,3.85069258828257,8.212698877107458,1.5293157310854206,4686,108,1552,2352,74.53033523853831,43.01559831850729,0.0007837652037115102,False
0.22,0.5420665459271801,2.4000000000000004,4872.0,24.15504,0.2,68900.0,0.33,276.0,2700.0,18.02674403415587,1.9606407247068618,5293.7299567085265,11.86662477433448,2.882657535308736,6.160119259821387,0.9220168106018742,3957,98,1308,1989,63.346715929031554,36.55782290536907,0.0006443054572948456,False
0.23,0.9292132464695348,2.4000000000000004,4873.0,24.15504,0.3,68900.0,0.33,276.0,2700.0,41.550053661489805,4.7527736658605075,12832.48889782337,24.862478220805517,9.870902550060771,16.687575440684288,5.118128884200264,3832,104,1260,1936,99.27361949001262,57.308663413006,0.001238491425088388,False
0.24000000000000005,0.6476539873560021,2.4000000000000004,4874.0,24.15504,0.3,68900.0,0.33,276.0,2700.0,23.273006724402407,2.7638078890328055,7462.281300388575,15.037427665371302,4.300557120363398,8.235579059031105,1.5367492313305924,2354,76,776,1184,69.19868155065429,39.885930701467515,0.0007410900112285499,False
0.25,0.9398251297646321,2.4000000000000004,4875.0,24.15504,0.3,68900.0,0.33,276.0,2700.0,41.65387805408115,5.174009833285252,13969.82654987018,25.271743260823367,10.136909300930734,16.38213479325778,4.962899467645482,3922,104,1286,1987,92.33740624485355,53.29684363683426,0.0011643041176867205,False
0.26,0.8050781044642819,2.4000000000000004,4876.0,24.15504,0.3,68900.0,0.33,276.0,2700.0,32.23837469486793,4.154177622013169,11216.279579435555,20.285194393401678,7.07270246878116,11.95318030146625,2.9185248467679914,3097,90,1022,1558,77.48148998809526,44.718119874563534,0.000909169887512648,False
0.27,0.934029072677784,2.4000000000000004,4877.0,24.15504,0.3,68900.0,0.33,276.0,2700.0,40.602128085079286,5.440063312685303,14688.170944250318,25.047857855973362,9.991082068409328,15.554270229105924,4.551018755724026,3764,102,1230,1913,86.65096058065484,50.00692848256479,0.0010767957998587638,False
0.28,0.8202271077250076,2.4000000000000004,4878.0,24.15504,0.3,68900.0,0.33,276.0,2700.0,32.636911480761064,4.523191446018816,12212.616904250805,20.823042066122575,7.384069591533889,11.81386941463849,2.8608781455150725,3243,92,1074,1626,74.42508682886066,42.74526173075934,0.0008741315709731145,False
0.29000000000000004,0.8266757218178415,2.4000000000000004,4879.0,24.15504,0.3,68900.0,0.33,276.0,2700.0,32.765998480977736,4.699989577589505,12689.971859491663,21.053742757547766,7.5190926422824615,11.71225572342997,2.819103064692957,3247,92,1076,1627,72.89465632359965,42.05484025556841,0.0008546540465750883,False
0.3,0.9324617986165769,2.4000000000000004,4880.0,24.15504,0.3,68900.0,0.33,276.0,2700.0,39.5514105704033,5.8761629177958845,15865.639878048889,24.987463481684497,9.951872545833936,14.563947088718802,4.075709628038052,3788,102,1244,1916,78.13036766505648,44.9593712150234,0.0009759664791205204,False
0.31,0.7486207531535901,2.4000000000000004,4881.0,24.15504,0.3,68900.0,0.33,276.0,2700.0,27.363410302130575,4.178934472334845,11283.123075304082,18.33154418577204,5.982979975333178,9.031866116358536,1.804045502998333,2704,82,890,1363,63.17781589835825,36.45269232205119,0.0007100871940228889,False
0.32,0.7448501183668037,2.4000000000000004,4882.0,24.15504,0.3,68900.0,0.33,276.0,2700.0,26.87870781057228,4.231964110976349,11426.303099636141,18.20391893244281,5.914099143520633,8.674788878129469,1.6821350325442843,2595,80,860,1299,61.4541651380926,35.4538629448258,0.0006853196688030047,False
0.33,0.8963848971064723,2.4000000000000004,4883.0,24.15504,0.3,68900.0,0.33,276.0,2700.0,36.18639085339301,5.8954882140151454,15917.818177840893,23.614318522338635,9.075270038192727,12.572072331054372,3.1797818241775815,3244,94,1074,1627,70.35423889804535,40.58198077012543,0.0008473046552537348,False
0.34,0.818678465843883,2.4000000000000004,4884.0,24.15504,0.3,68900.0,0.33,276.0,2700.0,30.86546700225668,5.164811285279174,13944.99047025377,20.767794670315986,7.351864943492139,10.097672331940693,2.1870536582129647,3145,90,1046,1570,62.36681474457158,35.949485692453855,0.0007330145334178881,False
0.3500000000000001,1.0260807646222954,2.4000000000000004,4885.0,24.15504,0.3,68900.0,0.33,276.0,2700.0,44.642292622509906,7.72260401892413,20851.03085109515,28.703332849118965,12.46339246172576,15.938959773390941,4.74078844280163,4261,110,1410,2140,74.40378731869114,42.87684659735034,0.0009663708145276644,False
0.36000000000000004,0.9245794950954501,2.4000000000000004,4886.0,24.15504,0.3,68900.0,0.33,276.0,2700.0,37.2038465126759,6.598976274384406,17817.235940837898,24.6846575884394,9.756108204122109,12.519188924236502,3.1571319297377025,3333,96,1104,1671,66.69564374878718,38.46703117664538,0.0008199961702252639,False
0.37,0.8043312164208689,2.4000000000000004,4887.0,24.15504,0.3,68900.0,0.33,276.0,2700.0,29.17895210249452,5.292018743839956,14288.450608367883,20.258826199112043,7.057561547547705,8.920125903382477,1.7655428037077483,2881,86,952,1447,57.484150700984536,33.13596441336345,0.000668508390189748,False
0.38,0.7921213196329872,2.4000000000000004,4888.0,24.15504,0.2,68900.0,0.33,276.0,2700.0,28.178720568390546,5.239033259935684,14145.389801826346,19.829755054048917,6.8128266401767466,8.348965514341629,1.5737933802410629,7666,122,1944,4282,59.74436395887351,34.47647858744157,0.0006516338104224182,False
0.39,0.8487111245553409,2.4000000000000004,4889.0,24.15504,0.3,68900.0,0.33,276.0,2700.0,31.41131678485611,6.000969349968078,16202.61724491381,21.84995185988595,7.991770328239075,9.561364924970157,1.9908009782709968,3034,88,1008,1516,58.07354587343281,33.49494289959676,0.000685599915930552,False
0.4,0.7028441614723768,2.4000000000000004,4890.0,24.15504,0.2,68900.0,0.33,276.0,2700.0,22.525602462154392,4.371079205877716,11801.913855869832,16.806300616254823,5.1789354924843085,5.719301845899569,0.8078562866065928,6330,108,1612,3528,51.82363660002407,29.908914250637288,0.0005431390314760393,False
0.4100000000000001,0.8596620059534981,2.4000000000000004,4891.0,24.15504,0.3,68900.0,0.33,276.0,2700.0,31.57179349328612,6.3278698612716076,17085.24862543334,22.250181329295515,8.233235241874697,9.321612163990604,1.9053653806030892,3012,88,996,1510,54.770053147530206,31.52889608323006,0.0006681702119523993,False
0.42000000000000004,0.7317754011171691,2.4000000000000004,4892.0,24.15504,0.05,68900.0,0.33,276.0,2700.0,23.68710722374238,4.8191229726397955,13011.632026127449,17.764144695205292,5.678967693728496,5.922962528537088,0.8598447210887006,268164,426,24982,184215,70.45523112909503,40.19441100346972,0.0005528292510542434,False
0.43,0.8605503274798638,2.4000000000000004,4893.0,24.15504,0.3,68900.0,0.33,276.0,2700.0,31.104798738688228,6.521012657411994,17606.734175012385,22.282779593941925,8.25301503431701,8.822019144746303,1.7320023769050152,3081,90,1000,1559,53.01764893995089,30.492499104578535,0.0006426670077822652,False
0.44,0.7553016434507458,2.4000000000000004,4894.0,24.15504,0.2,68900.0,0.33,276.0,2700.0,24.562474847109723,5.225335513961877,14108.405887697068,18.55855075625984,6.106208689470886,6.003924090849882,0.8808731755090093,6607,110,1640,3723,51.652042150114134,29.781424843507807,0.0005480840291594934,False
0.45,1.0692814101186772,2.4000000000000004,4895.0,24.15504,0.3,68900.0,0.33,276.0,2700.0,44.65016937836932,9.855436356426955,26609.67816235278,30.492303651125578,13.74186845442968,14.157865727243742,3.886432098002725,4106,108,1356,2058,61.52703723450511,35.298456504113766,0.0008194671052025456,False
0.46,0.9640441045631793,2.4000000000000004,4896.0,24.15504,0.3,68900.0,0.33,276.0,2700.0,37.00981306171603,8.308396962508144,22432.67179877199,26.21638914242526,10.760374438814514,10.79342391929077,2.4519774763063698,3503,98,1156,1749,54.91424317458198,31.55734758251343,0.0006980104830259857,False
0.4700000000000001,0.9492757380636406,2.4000000000000004,4897.0,24.15504,0.3,68900.0,0.33,276.0,2700.0,35.75247335777326,8.18438485636095,22097.839112174566,25.638604405451662,10.377474410191454,10.1138689523216,2.1930895538305037,3286,94,1072,1658,53.262017029106026,30.646652081113036,0.0006757898453382678,False
0.4800000000000001,0.9892630045062403,2.4000000000000004,4898.0,24.15504,0.3,68900.0,0.33,276.0,2700.0,38.154282256949,8.92540439850389,24098.5918759605,27.215703834491705,11.434090149990798,10.938578422457297,2.508685751486908,3649,98,1184,1841,58.71432015243459,33.72535492132306,0.000701478043214932,False
0.49,1.0549839926309978,2.4000000000000004,4899.0,24.15504,0.3,68900.0,0.33,276.0,2700.0,42.426074281612735,10.147984709593665,27399.558715902895,29.895044032546704,13.31018301515302,12.531030249066031,3.1621983055593557,3938,104,1280,1984,56.90625069622042,32.637884301227466,0.0007475834409247506,False
0.5,0.9498441751502089,2.4000000000000004,4900.0,24.15504,0.3,68900.0,0.33,276.0,2700.0,34.98716037661835,8.484990706355438,22909.47490715968,25.660742011235936,10.39205463531675,9.326418365382413,1.9070639289613123,3425,92,1042,1786,54.96172351300938,31.709981147725493,0.0006470063564244745,False
0.01,0.5629005299982286,2.4000000000000004,4901.0,27.174419999999998,0.05,68900.0,0.33,276.0,2700.0,24.649153040855122,0.12324367080917037,332.75791118476,12.470082592372764,3.1361538823095243,12.179070448482358,3.012910211500354,79255,450,26278,39832,1668.7207779461926,951.1838583215657,0.013984504209863859,True
0.02,0.6665614263593331,2.4000000000000004,4902.0,27.174419999999998,0.1,68900.0,0.33,276.0,2700.0,30.637983201321752,0.30636307685239605,827.1803075014693,15.63479993232766,4.590509600035766,15.003183268994093,4.28414652318337,25008,258,8282,12579,890.8346811870989,507.69554620518363,0.009193114806838647,True
0.03,0.5281804829343014,2.4000000000000004,4903.0,27.174419999999998,0.1,68900.0,0.33,276.0,2700.0,22.10162676702,0.33146785283753494,894.9632026613443,11.470472538786712,2.7206329414733372,10.631154228233289,2.3891650886358025,18285,214,6010,9264,529.580578580394,301.9181045513591,0.004352428944619791,True
0.04,0.6710017176951812,2.4000000000000004,4904.0,27.174419999999998,0.1,68900.0,0.33,276.0,2700.0,30.295139422224512,0.6057687471579356,1635.575617326426,15.776391760062555,4.66024683784085,14.518747662161957,4.054478090682914,24746,256,8132,12542,514.9952800075192,293.4252882712503,0.004625317042992837,True
0.05,0.389510540729146,2.4000000000000004,4905.0,27.174419999999998,0.1,68900.0,0.33,276.0,2700.0,14.348422288033904,0.35844875781304864,967.8116460952314,7.780230989829872,1.391470742794285,6.568191298204032,1.0330219849812363,12235,168,4016,6205,216.02644878588225,123.79523824582743,0.0018547248035071114,False
0.06000000000000001,0.6823526725604699,2.4000000000000004,4906.0,27.174419999999998,0.1,68900.0,0.33,276.0,2700.0,30.39270268272132,0.9113286911395237,2460.587466076714,16.14060301075735,4.84138795831835,14.252099671963972,3.9300592671788266,24933,256,8188,12645,347.4523195024684,198.4644796326913,0.003173670321954204,True
0.06999999999999999,0.6327920498279562,2.4000000000000004,4907.0,27.174419999999998,0.2,68900.0,0.33,276.0,2700.0,27.041090241472855,0.9457197809310347,2553.4434085137937,14.57417803793097,4.0805210785229,12.466912203541884,3.1348012975918653,5573,120,1828,2825,252.84717124971806,144.84634227526442,0.0025012870661374658,False
0.08,0.6256955804196757,2.4000000000000004,4908.0,27.174419999999998,0.2,68900.0,0.33,276.0,2700.0,26.32589322273064,1.0519633986167936,2840.3011762653427,14.354937819314221,3.9778745341673805,11.97095540341642,2.925911135550587,5550,120,1824,2808,218.19426815774654,124.83175539009603,0.0021778504978125124,False
0.09,0.4078425613400362,2.4000000000000004,4909.0,27.174419999999998,0.2,68900.0,0.33,276.0,2700.0,14.302811759965278,0.6420997151687935,1733.6692309557425,8.240355162199638,1.538302697594939,6.062456597765641,0.8962029824261455,3074,84,1006,1559,130.49696709248576,75.03751593011276,0.0011400137233897926,False
0.09999999999999999,0.7086182899519256,2.4000000000000004,4910.0,27.174419999999998,0.1,68900.0,0.33,276.0,2700.0,30.82832304098189,1.5393217569467021,4156.168743756096,16.995787909845635,5.276523890300097,13.832535131136254,3.737202133353395,25583,260,8432,12929,202.6585910862172,116.26796779206921,0.002086181326872872,False
0.11,0.7850126568361582,2.4000000000000004,4911.0,27.174419999999998,0.3,68900.0,0.33,276.0,2700.0,35.48639181201222,1.9489639097793878,5262.202556404347,19.5816734224412,6.672746114840601,15.904718389571023,4.723782205061213,3605,98,1182,1826,197.61816140328725,114.04960886533647,0.0021948341261960754,False
0.12,0.6284828546561283,2.4000000000000004,4912.0,27.174419999999998,0.3,68900.0,0.33,276.0,2700.0,25.357734092940362,1.5178449308394888,4098.181313266619,14.440897679446179,4.01800543401666,10.916836413494183,2.5001605031771716,2549,80,834,1292,150.488511963997,86.8806509586014,0.001504799005918014,False
0.13,0.6825247011133226,2.4000000000000004,4913.0,27.174419999999998,0.3,68900.0,0.33,276.0,2700.0,28.31433007193743,1.8358300686359759,4956.741185317135,16.14614769739121,4.844165079808007,12.16818237454622,3.008335011172031,2800,84,914,1423,145.65842873206117,84.07947344577899,0.0015560239138582923,False
0.14,0.7179099491900375,2.4000000000000004,4914.0,27.174419999999998,0.3,68900.0,0.33,276.0,2700.0,30.21405978181524,2.1092371645660988,5694.940344328466,17.302467738989158,5.435866062162622,12.911592042826083,3.326628897596523,3213,90,1048,1635,145.81630938692098,84.18687639644187,0.0015552914832061516,False
0.15000000000000002,0.5081067797976029,2.4000000000000004,4915.0,27.174419999999998,0.08,68900.0,0.33,276.0,2700.0,17.918001278845054,1.336781512442801,3609.310083595563,10.906361041294101,2.4960569253408815,7.011640237550953,1.1592754128980804,29574,234,7604,16508,95.89727818143669,55.3424534762851,0.0009405775989694904,False
0.16,0.5377494408236161,2.4000000000000004,4916.0,27.174419999999998,0.08,68900.0,0.33,276.0,2700.0,19.23242507449687,1.5300153636203464,4131.041481774935,11.742943975731752,2.831695208950999,7.489481098765118,1.3016798453306526,33073,244,8160,18717,94.81858380328343,54.72751109174777,0.000951942249256876,False
0.17,0.739210322793991,2.4000000000000004,4917.0,27.174419999999998,0.3,68900.0,0.33,276.0,2700.0,30.66869328961853,2.5965491664795173,7010.6827494946965,18.013694841388606,5.81196955031738,12.654998448229925,3.2154203838378623,2901,86,952,1467,123.57641170065943,71.33041033169982,0.0013467699850818343,False
0.18000000000000002,0.8161434343023077,2.4000000000000004,4918.0,27.174419999999998,0.3,68900.0,0.33,276.0,2700.0,35.35564478272885,3.169793518208442,8558.442499162793,20.677488170347964,7.2993324279868155,14.678156612380889,4.129538909778374,3606,98,1176,1836,125.98095058690234,72.70542445659787,0.0014631461914874236,False
0.19,0.6337746167272532,2.4000000000000004,4919.0,27.174419999999998,0.3,68900.0,0.33,276.0,2700.0,23.77136667772067,2.2439143783761466,6058.568821615596,14.604633476064034,4.094856143713295,9.166733201656637,1.850941765337148,2528,78,824,1286,96.83234952606834,55.87321981464421,0.0009952585224210742,False
0.2,0.5988178506579183,2.4000000000000004,4920.0,27.174419999999998,0.3,68900.0,0.33,276.0,2700.0,21.54882914140915,2.1381277533217693,5772.944933968777,13.53604504051277,3.6030920505786983,8.012784100896381,1.464964297256929,2261,74,744,1139,87.77332190609047,50.64593834563468,0.0008859932225304607,False
0.21000000000000002,0.7673940824944079,2.4000000000000004,4921.0,27.174419999999998,0.3,68900.0,0.33,276.0,2700.0,31.28181369266639,3.2651942446867066,8816.024460654107,18.97228634575291,6.33312466603019,12.30952734691348,3.0679304213434833,3060,90,1010,1539,103.29462423441633,59.60857460533406,0.0011651436125822224,False
0.22,0.7899586633331792,2.4000000000000004,4922.0,27.174419999999998,0.3,68900.0,0.33,276.0,2700.0,32.43114300500522,3.5451246115001673,9571.836451050453,19.754147188093498,6.770023473584019,12.67699581691172,3.224898862083852,3054,90,1012,1530,101.67791162946065,58.65880019081112,0.0011613383921278552,False
0.23,0.653413069627073,2.4000000000000004,4923.0,27.174419999999998,0.3,68900.0,0.33,276.0,2700.0,23.85623213850584,2.7179841907173516,7338.557314936849,15.218431794640656,4.387679712215626,8.637800343865182,1.6696955214982747,2354,76,774,1187,82.28848351086675,47.43257427023797,0.0008737234501178563,False
0.24000000000000005,0.7178191371045888,2.4000000000000004,4924.0,27.174419999999998,0.3,68900.0,0.33,276.0,2700.0,27.373844985388843,3.255908480351177,8790.952896948178,17.29945990209318,5.434294925559375,10.074385083295663,2.1783864452081985,2834,82,928,1436,86.11523642936966,49.703831613424626,0.0009463964551061516,False
0.25,0.6632066589874837,2.4000000000000004,4925.0,27.174419999999998,0.08,68900.0,0.33,276.0,2700.0,23.904740376533994,2.9553676235918527,7979.492583698002,15.528151866409056,4.538237452159514,8.376588510124938,1.5828698285676612,53289,278,10206,32610,79.13937347521775,45.32913799922968,0.000837151064159811,False
0.26,0.6454476455041606,2.4000000000000004,4926.0,27.174419999999998,0.3,68900.0,0.33,276.0,2700.0,22.647702480480927,2.907390234142833,7849.953632185649,14.968304653963536,4.267455691352295,7.679397826517391,1.3600654572094624,2356,76,776,1186,73.17185122423659,42.23061633642843,0.000775682242990672,False
0.27,0.7152771978448716,2.4000000000000004,4927.0,27.174419999999998,0.3,68900.0,0.33,276.0,2700.0,26.421529695010193,3.5256825300259678,9519.342831070113,17.215351035370006,5.390427683477207,9.206178659640187,1.8647451534512394,2550,80,836,1290,76.29955543984423,44.039867954840325,0.0008495449950615741,False
0.28,0.8127789600173874,2.4000000000000004,4928.0,27.174419999999998,0.3,68900.0,0.33,276.0,2700.0,32.159008226948416,4.456284990485042,12031.969474309613,20.557883507560604,7.2299648339316995,11.601124719387812,2.773679843446658,3193,92,1060,1597,83.044847214372,47.878958196682184,0.0009699033810684759,False
0.29000000000000004,0.9308027556098164,2.4000000000000004,4929.0,27.174419999999998,0.3,68900.0,0.33,276.0,2700.0,39.74678377517192,5.71220344524709,15422.949302167142,24.923600084949562,9.910470254913033,14.823183690222358,4.1982668096659435,3758,102,1234,1901,91.63367842658425,52.86947585596302,0.0011290900202679589,False
0.3,0.6349324777305196,2.4000000000000004,4930.0,27.174419999999998,0.05,68900.0,0.33,276.0,2700.0,21.100908710066665,3.108587638745382,8393.186624612532,14.64055343704834,4.111787071192178,6.460355273018326,1.003199432446796,184606,404,22370,122783,78.20207243072838,44.61818847922087,0.0006859780476494281,False
0.31,0.8063087688319397,2.4000000000000004,4931.0,27.174419999999998,0.3,68900.0,0.33,276.0,2700.0,30.90821085577278,4.728378558149387,12766.622107003346,20.328672447949685,7.097693484254677,10.579538407823094,2.3693149261052895,2987,88,984,1505,75.97299987646801,43.818947524343606,0.0008755576504517279,False
0.32,0.697497459550616,2.4000000000000004,4932.0,27.174419999999998,0.05,68900.0,0.33,276.0,2700.0,24.114877033510528,3.7897511866464617,10232.328203945446,16.631587204628882,5.089544603071281,7.483289828881645,1.2997934164248193,217845,436,25288,145745,89.03140321468712,50.201777246998404,0.000727216018394686,False
0.33,0.9231475330337191,2.4000000000000004,4933.0,27.174419999999998,0.3,68900.0,0.33,276.0,2700.0,37.99541986233319,6.193978000490273,16723.740601323738,24.629815063362777,9.720799983305973,13.365604798970416,3.5268219828157,3594,100,1188,1806,80.35243596182517,46.28342178364514,0.000992765937577242,False
0.34,0.736212526814031,2.4000000000000004,4934.0,27.174419999999998,0.3,68900.0,0.33,276.0,2700.0,25.860375749783785,4.313945772358782,11647.653585368711,17.912907876090046,5.758119294141465,7.947467873693739,1.444173521782683,2605,80,862,1306,65.06897249588636,37.53128107484298,0.0007218513704521312,False
0.3500000000000001,0.9234973984340351,2.4000000000000004,4935.0,27.174419999999998,0.3,68900.0,0.33,276.0,2700.0,37.424416852037794,6.459475759091508,17440.58454954707,24.643209754446335,9.729419446492612,12.781207097591459,3.2699436874011036,3478,98,1150,1747,77.16514070753443,44.51356753679917,0.0009413387146845776,False
0.36000000000000004,0.8803631833217413,2.4000000000000004,4936.0,27.174419999999998,0.3,68900.0,0.33,276.0,2700.0,34.26458222542233,6.069908702678668,16388.753497232403,23.014995562871086,8.701737889683281,11.249586662551245,2.6318291870046133,3104,92,1028,1556,70.84076400506731,40.73495346606822,0.0008627015191347236,False
0.37,0.6895651580441534,2.4000000000000004,4937.0,27.174419999999998,0.1,68900.0,0.33,276.0,2700.0,22.475938754820756,4.051961274520318,10940.295441204858,16.373708180576063,4.958641671255463,6.102230574244693,0.9066803967351449,33971,212,6108,21023,61.29649116787743,35.38877528297776,0.0006387263550245441,False
0.38,0.7446638288177189,2.4000000000000004,4938.0,27.174419999999998,0.2,68900.0,0.33,276.0,2700.0,25.367696107238125,4.704938612316723,12703.334253255152,18.197622824628066,5.9107085301342135,7.170073282610058,1.2057699178174905,6813,114,1744,3793,65.46940575378116,37.79316830626429,0.0006803389558292616,False
0.39,1.0590379360736804,2.4000000000000004,4939.0,27.174419999999998,0.3,68900.0,0.33,276.0,2700.0,45.777581088670395,8.802390889210976,23766.455400869636,30.063871430626143,13.43171790170201,15.713709658044252,4.629327012491034,4405,112,1458,2212,79.28167510240321,45.635317122663714,0.0010313410780692469,False
0.4,0.9535014505446646,2.4000000000000004,4940.0,27.174419999999998,0.3,68900.0,0.33,276.0,2700.0,37.999854663728776,7.465929646192587,20158.010044719984,25.80336767371118,10.486163743886278,12.196486990017597,3.0202340976936917,3299,96,1096,1649,69.36973679676389,39.9719383236621,0.0008752120084430707,False
0.4100000000000001,0.7301421567953248,2.4000000000000004,4941.0,27.174419999999998,0.1,68900.0,0.33,276.0,2700.0,23.825081510680622,4.7397939048374855,12797.44354306121,17.709511623153396,5.649999128974552,6.115569887527226,0.9102052241370666,38025,218,6410,23850,59.802389605111536,34.52540924883661,0.0006306694248749982,False
0.42000000000000004,0.7873452419966916,2.4000000000000004,4942.0,27.174419999999998,0.2,68900.0,0.33,276.0,2700.0,26.89811068536641,5.493433699580844,14832.27098886828,19.66293713651599,6.71851678636998,7.2351735488504225,1.2250830867891356,7331,118,1846,4106,61.517658322904126,35.4829157153965,0.0006727809633299979,False
0.43,0.7374437675576639,2.4000000000000004,4943.0,27.174419999999998,0.2,68900.0,0.33,276.0,2700.0,23.77821242492648,4.94579659995322,13353.650819873694,17.954275294533346,5.780199858871776,5.8239371303931335,0.8344032589185559,6635,110,1672,3719,56.97320903153516,32.85802403183887,0.0006109005565098937,False
0.44,1.1180209042345048,2.4000000000000004,4944.0,27.174419999999998,0.3,68900.0,0.33,276.0,2700.0,48.56818373294924,10.506591468846569,28367.796965885736,32.56695364956864,15.278364110134222,16.001230083380598,4.771772641287653,4536,114,1502,2275,73.71719380141494,42.27956015668573,0.0009972837586354748,False
0.45,0.8918914232088737,2.4000000000000004,4945.0,27.174419999999998,0.3,68900.0,0.33,276.0,2700.0,32.56295665167271,7.135813492920776,19266.696430886095,23.4455805443244,8.969539014175501,9.117376107348306,1.833725521254725,3151,90,1028,1589,59.832623478960805,34.333710543795526,0.0007279313652013356,False
0.46,0.9916712938686506,2.4000000000000004,4946.0,27.174419999999998,0.3,68900.0,0.33,276.0,2700.0,38.8815749606386,8.738902199260336,23595.035938002908,27.31196990181552,11.499749329044896,11.569605058823083,2.76084712978456,3694,100,1226,1843,64.38540127385022,36.966284013205794,0.0008191995410260494,False
0.4700000000000001,1.0300248779020644,2.4000000000000004,4947.0,27.174419999999998,0.3,68900.0,0.33,276.0,2700.0,41.25085600433985,9.476504778304104,25586.562901421083,28.864715829195124,12.576919785865948,12.386140175144728,3.1004150075618444,3846,102,1270,1925,68.79398110701801,39.539987593097514,0.0008444296914486369,False
0.4800000000000001,1.036661135198396,2.4000000000000004,4948.0,27.174419999999998,0.3,68900.0,0.33,276.0,2700.0,41.425350530821376,9.710460784233254,26218.244117429786,29.137136760246513,12.769376782481377,12.288213770574863,3.058915998248123,3834,102,1258,1923,68.30540727005881,39.286587085044395,0.0008367976452386862,False
0.49,1.1621655127687498,2.4000000000000004,4949.0,27.174419999999998,0.3,68900.0,0.33,276.0,2700.0,50.31112836951897,12.079822961129967,32615.52199505091,34.49754360197954,16.758451925198745,15.813584767539432,4.678628964068778,5346,118,1608,2806,73.39267552640862,42.166280974041776,0.0009617209625390101,False
0.5,0.9896914903409217,2.4000000000000004,4950.0,27.174419999999998,0.3,68900.0,0.33,276.0,2700.0,37.630582128444765,9.145846144312047,24693.784589642528,27.232820952485984,11.44575536062129,10.397761175958781,2.299909216309242,3992,98,1204,2092,64.24809330750772,37.03591662563692,0.0007682257558971265,False
0.01,0.610539023223085,2.4000000000000004,4951.0,30.1938,0.05,68900.0,0.33,276.0,2700.0,27.478865947188957,0.13739223534084405,370.95903542027895,13.89092547515342,3.763826805101599,13.587940472035537,3.626434569760755,87864,480,29138,44151,2042.8215283747888,1160.791930112897,0.017665676319166525,True
0.02,0.7087043640313322,2.4000000000000004,4952.0,30.1938,0.1,68900.0,0.33,276.0,2700.0,33.34443780079083,0.3334276228470941,900.2545816871541,16.99861890753348,5.2779869089346505,16.34581889325735,4.944559286087556,27239,272,9032,13685,1133.478963724943,645.4822353220933,0.011304150720187874,True
0.03,0.5943313345622654,2.4000000000000004,4953.0,30.1938,0.1,68900.0,0.33,276.0,2700.0,25.91304741531322,0.3886391625618624,1049.3257389170285,13.401121146473622,3.542665224885485,12.511926268839597,3.1540260623236227,21547,234,7100,10891,663.5965108259988,378.1676116837938,0.005639940606991522,True
0.04,0.6689724938143093,2.4000000000000004,4954.0,30.1938,0.1,68900.0,0.33,276.0,2700.0,30.16764084070374,0.6032187755275231,1628.6906939243124,15.711622470128312,4.628298740122703,14.456018370575428,4.02507996459518,24643,256,8102,12484,570.4848386820021,325.0597068981994,0.005115839034088152,True
0.05,0.7391883581408845,2.4000000000000004,4955.0,30.1938,0.2,68900.0,0.33,276.0,2700.0,34.37445332460257,0.8590995337272663,2319.568741063619,18.012955560575016,5.811573893878067,16.361497764027554,4.9524743601508,7201,140,2362,3652,424.1130747134222,244.40624391039626,0.004835081441106054,True
0.06000000000000001,0.37310211169989943,2.4000000000000004,4956.0,30.1938,0.1,68900.0,0.33,276.0,2700.0,13.32893802202782,0.3994157513187182,1078.4225285605391,7.375551250782253,1.2671387066666489,5.953386771245567,0.8677229553479306,10997,158,3608,5579,188.32610715232448,108.20066927691764,0.00165410868620925,False
0.06999999999999999,0.5353819400150064,2.4000000000000004,4957.0,30.1938,0.2,68900.0,0.33,276.0,2700.0,21.41473955777071,0.748797507001854,2021.7532689050058,11.675316288175681,2.8039738616880734,9.739423269595028,2.0551763546862194,4407,106,1450,2226,228.5801379505666,131.63966991115487,0.0022384000579699463,False
0.08,0.5924337202955159,2.4000000000000004,4958.0,30.1938,0.2,68900.0,0.33,276.0,2700.0,24.371306623238496,0.9737799346371133,2629.2058235202057,13.344206050636705,3.517289081967725,11.02710057260179,2.5435091473306115,5258,116,1720,2672,222.36399731842332,128.33275221555843,0.002253827623996754,False
0.09,0.7441000421178292,2.4000000000000004,4959.0,30.1938,0.1,68900.0,0.33,276.0,2700.0,33.418652128518325,1.5023125317536838,4056.2438357349465,18.17857359775357,5.900454322641779,15.240078530764755,4.398141790888095,27439,272,9034,13882,273.2359506099911,156.46234998262258,0.002726141155983502,False
0.09999999999999999,0.7237181885499857,2.4000000000000004,4960.0,30.1938,0.3,68900.0,0.33,276.0,2700.0,31.789349404315917,1.5873730751134363,4285.907302806278,17.495276183714935,5.536922464721732,14.294073220600982,3.9495493896082956,3330,92,1090,1689,224.7631544866531,129.76075014750785,0.002388470125698327,False
0.11,0.4402997228641673,2.4000000000000004,4961.0,30.1938,0.2,68900.0,0.33,276.0,2700.0,15.427495544936386,0.845724615090216,2283.456460743583,9.075728335679209,1.8192465443939354,6.3517672092571775,0.9735219293037194,3225,88,1052,1641,126.71058742458007,73.15542755318738,0.0011577178336518556,False
0.12,0.5186256352524352,2.4000000000000004,4962.0,30.1938,0.1,68900.0,0.33,276.0,2700.0,19.208658449830878,1.1489003922529197,3102.031059082883,11.200699073848664,2.6123249726729467,8.007959375982214,1.463424580420027,16320,198,5388,8232,129.53623841084416,74.73123859248139,0.00130571131712748,False
0.13,0.624133069942688,2.4000000000000004,4963.0,30.1938,0.1,68900.0,0.33,276.0,2700.0,24.826485552871706,1.6091201748966786,4344.624472221032,14.30683522370959,3.955482381822653,10.519650329162115,2.346362206925974,20358,228,6718,10275,143.46742213295394,82.68455319399929,0.0015355213880242546,False
0.14,0.5115222657040305,2.4000000000000004,4964.0,30.1938,0.1,68900.0,0.33,276.0,2700.0,18.338572859429295,1.2779530799990653,3450.473315997476,11.00162810086677,2.5334700559694707,7.336944758562526,1.2555169759704055,15145,192,5016,7615,111.62694917511655,64.37961048494844,0.001115298093860906,False
0.15000000000000002,0.8206651475062858,2.4000000000000004,4965.0,30.1938,0.3,68900.0,0.33,276.0,2700.0,36.604321824228165,2.7382555533465363,7393.289994035648,20.83867995707262,7.393194337159208,15.765641867155544,4.654938783812672,3763,100,1232,1909,166.5936215247959,96.1326199046746,0.0019427937195502227,False
0.16,0.48550235170584843,2.4000000000000004,4966.0,30.1938,0.08,68900.0,0.33,276.0,2700.0,16.523143209102642,1.3132728143888084,3545.8365988497826,10.283254037374586,2.2565915503567164,6.239889171728056,0.943318735967908,28914,224,7110,16381,96.93282353747823,55.9486056680105,0.0009361761818006126,False
0.17,0.5056396082267992,2.4000000000000004,4967.0,30.1938,0.3,68900.0,0.33,276.0,2700.0,17.314704689596557,1.4614601354776342,3945.9423657896123,10.837727393512651,2.469233758384169,6.476977296083906,1.0077736229065346,1682,64,546,857,99.95011098458403,57.67428576363105,0.0009277228289213267,False
0.18000000000000002,0.6557239881424013,2.4000000000000004,4968.0,30.1938,0.3,68900.0,0.33,276.0,2700.0,25.308982478770538,2.265593910852191,6117.103559300916,15.291296779813594,4.422932434698657,10.017685698956944,2.157338523846466,2479,78,810,1258,117.37214646822378,67.70390260186244,0.0012131810095433503,False
0.19,0.5804495625312115,2.4000000000000004,4969.0,30.1938,0.3,68900.0,0.33,276.0,2700.0,20.790450782833982,1.9607273683619137,5293.963894577167,12.986856073749623,3.3595148854674854,7.80359470908436,1.3987875171055717,2250,74,742,1131,100.0193201843464,57.73103589051692,0.000991151849297809,False
0.2,0.8889752881883626,2.4000000000000004,4970.0,30.1938,0.3,68900.0,0.33,276.0,2700.0,39.69094067750297,3.9523389069311543,10671.315048714117,23.336345987863748,8.901327858969312,16.354594689639224,4.948988952038158,3818,102,1250,1937,137.08736889763802,79.0465611182746,0.0016579148395431385,False
0.21000000000000002,0.7660080932075664,2.4000000000000004,4971.0,30.1938,0.3,68900.0,0.33,276.0,2700.0,31.193914232836743,3.255964801404379,8791.104963791822,18.92467907627841,6.306862277568141,12.269235156558334,3.0508974761637617,3064,90,1012,1540,114.61381354068214,66.14040555061356,0.0012912650396011628,False
0.22,0.7884754913171663,2.4000000000000004,4972.0,30.1938,0.3,68900.0,0.33,276.0,2700.0,32.335774356837305,3.534634060201807,9543.511962544879,19.7023624843773,6.740763084919624,12.633411872460005,3.2061290247178165,3067,90,1016,1537,141.5080291598438,81.69969601202796,0.0016313729253913712,False
0.23,0.5906770366721507,2.4000000000000004,4973.0,30.1938,0.08,68900.0,0.33,276.0,2700.0,20.365213206250523,2.3165170135079935,6254.595936471583,13.291598553086173,3.493893752450216,7.07361465316435,1.1773767389422223,41836,252,8738,25019,85.35942450720653,49.24665694252532,0.0008679077188888047,False
0.24000000000000005,0.597799414054414,2.4000000000000004,4974.0,30.1938,0.1,68900.0,0.33,276.0,2700.0,20.50961311242102,2.432200655595027,6566.941770106573,13.505373008597758,3.589322067815146,7.004240103823264,1.157121412220119,22813,202,5638,12898,83.01956958365174,47.84501868940732,0.000848866655976756,False
0.25,0.824776741127491,2.4000000000000004,4975.0,30.1938,0.3,68900.0,0.33,276.0,2700.0,33.80465728920221,4.192857237675382,11320.71454172353,20.985697705834113,7.479176613788256,12.818959583368098,3.286319376112874,3370,94,1110,1699,104.04551755907559,60.06800194576682,0.001216371834300075,False
0.26,0.9413895931558399,2.4000000000000004,4976.0,30.1938,0.3,68900.0,0.33,276.0,2700.0,41.44189433605212,5.350635175366968,14446.714973490813,25.332318792325957,10.17649339417593,16.109575543726166,4.825858218808962,3943,104,1294,1996,111.72202921055899,64.48347652493044,0.0014069915517536252,False
0.27,0.8694748510076376,2.4000000000000004,4977.0,30.1938,0.3,68900.0,0.33,276.0,2700.0,36.16722421598824,4.8413512903580065,13071.648483966617,22.61137860738612,8.45334303115826,13.555845608602123,3.6119917408002538,3486,98,1146,1761,101.64402330588676,58.67587826150461,0.0012185099319579223,False
0.28,0.8094216568386672,2.4000000000000004,4978.0,30.1938,0.3,68900.0,0.33,276.0,2700.0,31.944501833465253,4.426254095397402,11950.886057572985,20.438817358336625,7.161145736120305,11.505684475128628,2.7348916407229025,3095,90,1022,1556,92.4117682093993,53.31299174608203,0.0010716198425375766,False
0.29000000000000004,0.9000332173453418,2.4000000000000004,4979.0,30.1938,0.3,68900.0,0.33,276.0,2700.0,37.627232708564414,5.404868540589572,14593.145059591843,23.751692739421635,9.161673125249257,13.875539969142778,3.756804584659685,3471,98,1142,1752,98.31639672644299,56.7362514047335,0.0011968225495815987,False
0.3,0.8944092967260459,2.4000000000000004,4980.0,30.1938,0.3,68900.0,0.33,276.0,2700.0,36.94353008626788,5.484980845175563,14809.448281974019,23.540068687148775,9.028690941687188,13.403461399119102,3.5437100965116253,3535,98,1164,1783,94.27004042493827,54.397639059515335,0.001150623991847719,False
0.31,0.7493454891117131,2.4000000000000004,4981.0,30.1938,0.3,68900.0,0.33,276.0,2700.0,27.406906155138532,4.185676329551077,11301.326089787908,18.356115375476683,5.996274407587626,9.050790779661849,1.8105980780365494,2706,82,890,1365,79.09383451362207,45.6359601848968,0.000888342214171086,False
0.32,0.6540794897916973,2.4000000000000004,4982.0,30.1938,0.1,68900.0,0.33,276.0,2700.0,21.679752151582093,3.4001312055379125,9180.354254952364,15.239430747884313,4.3978285784806,6.44032140369778,0.9976973729426875,31512,208,5990,19301,72.4657627203218,41.83655652012138,0.0007486190528791487,False
0.33,0.7003706995460715,2.4000000000000004,4983.0,30.1938,0.1,68900.0,0.33,276.0,2700.0,24.034229960060433,3.890381666615266,10504.03049986122,16.725386348439674,5.137465848662127,7.308843611620759,1.2470841820468608,33800,218,6300,20808,74.24487772051485,42.84624416615768,0.0007897824223594512,False
0.34,0.6570435451160133,2.4000000000000004,4984.0,30.1938,0.1,68900.0,0.33,276.0,2700.0,21.37699659098507,3.5517713153628145,9589.782551479599,15.33296359652985,4.443137658057541,6.044032994455218,0.8913663426947265,31263,204,5852,19211,69.92682521296835,40.36674207826727,0.0007172169153190325,False
0.3500000000000001,0.7342562751852515,2.4000000000000004,4985.0,30.1938,0.2,68900.0,0.33,276.0,2700.0,25.497168780252487,4.372207346529078,11804.95983562851,17.84725978697604,5.723141366702834,7.649908993276448,1.3509340201737565,6636,118,1852,3590,74.7446555500479,43.14378136702738,0.0007928271586164604,False
0.36000000000000004,1.035706558072548,2.4000000000000004,4986.0,30.1938,0.3,68900.0,0.33,276.0,2700.0,45.024843046967916,8.00675565055697,21618.24025650382,29.097882844701367,12.741581875484036,15.92696020226655,4.734826224927065,4369,110,1444,2197,90.84812732437379,52.316605216372366,0.0011933151634646103,False
0.37,0.7202465918261054,2.4000000000000004,4987.0,30.1938,0.2,68900.0,0.33,276.0,2700.0,24.203076713659026,4.371481796905385,11803.000851644541,17.379932239112254,5.476386222697723,6.823144474546773,1.1049044257923377,6068,110,1640,3312,72.32441395109625,41.752437290143575,0.0007412521518810451,False
0.38,0.9575584652956388,2.4000000000000004,4988.0,30.1938,0.3,68900.0,0.33,276.0,2700.0,38.863163806578775,7.269077475191453,19626.509183016922,25.9619755777389,10.591169984611344,12.901188228839874,3.3220925094198916,3841,104,1276,1919,81.75882210284081,47.11854766301163,0.001024139491254829,False
0.39,0.7270108326730854,2.4000000000000004,4989.0,30.1938,0.3,68900.0,0.33,276.0,2700.0,24.11419982689991,4.578031543166623,12360.685166549882,17.60495430195729,5.594708673771597,6.509245524942621,1.0166771306049744,2399,76,796,1199,60.78089541242938,35.05665551554539,0.0007044086746266121,False
0.4,1.0088128036390602,2.4000000000000004,4990.0,30.1938,0.3,68900.0,0.33,276.0,2700.0,41.8398193196206,8.233922577370953,22231.590958901572,28.001375186523436,11.973815902810593,13.838444133097166,3.73989332543964,3961,106,1314,1984,83.38962556316606,48.02755658220721,0.0010497404767796134,False
0.4100000000000001,0.90530036871949,2.4000000000000004,4991.0,30.1938,0.3,68900.0,0.33,276.0,2700.0,34.50237918402295,6.928639927872663,18707.32780525619,23.95061269277144,9.287300451007356,10.55176649125151,2.3586605231346933,3083,92,1022,1544,73.28091036862247,42.26867965476769,0.0008892109064678077,False
0.42000000000000004,0.7601423581686009,2.4000000000000004,4992.0,30.1938,0.1,68900.0,0.33,276.0,2700.0,25.306846887494647,5.159268302027772,13930.024415474983,18.723731799195587,6.196444898844069,6.58311508829906,1.0371765968162974,40872,224,6774,25753,67.183751268301,38.76253779812965,0.0007201566597693497,False
0.43,0.8440699623861463,2.4000000000000004,4993.0,30.1938,0.3,68900.0,0.33,276.0,2700.0,30.079819054035518,6.300642025211661,17011.733468071485,21.681237450095704,7.890752883118066,8.398581603939814,1.5901108579064047,3022,86,970,1533,65.47549000089117,37.66258638956627,0.000787485058136553,False
0.44,1.1218103394823846,2.4000000000000004,4994.0,30.1938,0.3,68900.0,0.33,276.0,2700.0,48.85388434725107,10.569445603992973,28537.503130781028,32.7307565137269,15.402084718415757,16.123127833524165,4.8326391144227845,4626,114,1534,2317,82.37934987849941,47.33850876583827,0.0011133583424521773,False
0.45,1.090021792464458,2.4000000000000004,4995.0,30.1938,0.3,68900.0,0.33,276.0,2700.0,46.166680511711895,10.196651361429385,27530.95867585934,31.367843316855357,14.383351318791352,14.798837194856539,4.1866999573619665,4214,110,1394,2111,78.7357860599544,45.227452696701896,0.001052250016956147,False
0.46,0.8198522349254116,2.4000000000000004,4996.0,30.1938,0.2,68900.0,0.33,276.0,2700.0,27.863371866920108,6.204715487705081,16752.73181680372,20.809663047242342,7.376266107283919,7.053708819677766,1.1715506195788379,7513,120,1878,4224,65.73755666968084,37.90623845849154,0.0007280837237589963,False
0.4700000000000001,0.8297646021105849,2.4000000000000004,4997.0,30.1938,0.1,68900.0,0.33,276.0,2700.0,28.216213273582962,6.413363736576181,17316.082088755687,21.164618386699765,7.584296312422564,7.051594886883198,1.1709325758463835,50765,240,7742,32554,67.99703696625316,38.48995239186687,0.0007313571254874957,False
0.4800000000000001,1.0470694103587903,2.4000000000000004,4998.0,30.1938,0.3,68900.0,0.33,276.0,2700.0,42.15877416006827,9.88648245525253,26693.502629181832,29.56662981156841,13.074876898659035,12.592144348499858,3.188394443406505,3736,102,1224,1878,72.47716373928802,41.68979624270988,0.000941455922438353,False
0.49,0.8808055968117601,2.4000000000000004,4999.0,30.1938,0.3,68900.0,0.33,276.0,2700.0,30.843917236115445,7.310356233446829,19737.961830306438,23.031458275107315,8.7119236756746,7.812458961008129,1.4015674422277709,3297,88,978,1740,66.1474354878016,38.173252962706655,0.0007494855858496545,False
0.5,1.0437823031336806,2.4000000000000004,5000.0,30.1938,0.3,68900.0,0.33,276.0,2700.0,41.346604172482095,10.074851655321373,27202.099469367706,29.43069457469751,12.977911707420468,11.915909597784584,2.903060052099095,3915,102,1234,2010,74.12224529553143,42.68714641075882,0.0009063362846907984,False
0.01,0.4182719865723336,2.4000000000000004,5001.0,33.21318,0.05,68900.0,0.33,276.0,2700.0,16.757132535613874,0.0837835682829665,226.21563436400956,8.505897780971095,1.6256272181275513,8.251234754642779,1.5418436498445849,53305,360,17660,26809,1450.3945797371935,825.8902627434785,0.01142463286794163,True
0.02,0.6056780112943444,2.4000000000000004,5002.0,33.21318,0.1,68900.0,0.33,276.0,2700.0,26.88564705339078,0.2688397153730916,725.8672315073474,13.74333018720269,3.6966618224617616,13.142316866188091,3.42782210708867,22354,240,7390,11263,979.7377226147171,557.6194397114672,0.009601756562697265,True
0.03,0.46226738190814093,2.4000000000000004,5003.0,33.21318,0.1,68900.0,0.33,276.0,2700.0,18.522678715249068,0.2777836320609733,750.0158065646278,9.65614985922616,2.024972098200681,8.866528856022908,1.7471884661397077,15692,194,5158,7949,526.3172071266138,299.9933033464283,0.00449655423142588,True
0.04,0.47151149181175206,2.4000000000000004,5004.0,33.21318,0.1,68900.0,0.33,276.0,2700.0,18.750945535670855,0.3748848694264973,1012.1891474515427,9.904020092289473,2.115378624132294,8.846925443381382,1.7404937547057968,15692,194,5148,7964,418.7509492451922,239.33214184106743,0.003555887734507413,True
0.05,0.6879339367172368,2.4000000000000004,5005.0,33.21318,0.2,68900.0,0.33,276.0,2700.0,31.05469687607885,0.7761056225141731,2095.4851807882674,16.32087323355145,4.931975631107495,14.733823642527401,4.155870008593322,6762,134,2224,3420,438.2473655086781,251.9015867958097,0.004728023622242278,True
0.06000000000000001,0.6972979333457979,2.4000000000000004,5006.0,33.21318,0.2,68900.0,0.33,276.0,2700.0,31.339122182150675,0.9397212761223483,2537.2474455303404,16.62508122162937,5.086226814669936,14.714040960521306,4.146505538547587,6584,132,2164,3332,385.3082642781045,220.41103733782998,0.004021116591520445,True
0.06999999999999999,0.39219193225567955,2.4000000000000004,5007.0,33.21318,0.08,68900.0,0.33,276.0,2700.0,14.010030335118087,0.48963268420901196,1322.0082473643322,7.847005167445005,1.412422071724423,6.163025167673082,0.922789387515411,17950,204,5896,9100,184.84490677583298,106.26890569120843,0.0016750915648532823,False
0.08,0.7012836731975465,2.4000000000000004,5008.0,33.21318,0.2,68900.0,0.33,276.0,2700.0,30.97450774276215,1.237907979418061,3342.3515444287646,16.75523451836033,5.1527493094115355,14.219273224401821,3.9148413299934743,6658,132,2184,3376,294.87891657291317,168.71925926726536,0.003089486790946275,True
0.09,0.4130834491119407,2.4000000000000004,5009.0,33.21318,0.08,68900.0,0.33,276.0,2700.0,14.557149233122791,0.653544901460881,1764.5712339443785,8.373451203206494,1.581837943417367,6.183698029916297,0.9282930419564861,18969,210,6264,9567,150.6145089883053,86.92296474265459,0.0014152235187508504,False
0.09999999999999999,0.5118830817273035,2.4000000000000004,5010.0,33.21318,0.1,68900.0,0.33,276.0,2700.0,19.354615428162365,0.9656363763057244,2607.218216025456,11.011709349491499,2.5374414383099775,8.342906078670866,1.5718050620042532,15963,198,5258,8070,166.94075264270705,96.08500428459696,0.0016713811289110854,False
0.11,0.4402286291346385,2.4000000000000004,5011.0,33.21318,0.2,68900.0,0.33,276.0,2700.0,15.42397464368219,0.845530965521235,2282.9336069073343,9.073869612135212,1.8186013830909085,6.350105031546978,0.9730704175696735,3221,88,1052,1637,138.7732824531222,80.05769199151979,0.0012725889088324317,False
0.12,0.6312686533059193,2.4000000000000004,5012.0,33.21318,0.3,68900.0,0.33,276.0,2700.0,25.521551225229217,1.5276739587768173,4124.719688697407,14.527007130985435,4.0583547637906054,10.994544094243782,2.5306808050137883,2540,80,834,1283,184.78503073986295,106.68044913066723,0.0018498618549293903,False
0.13,0.7452818082978337,2.4000000000000004,5013.0,33.21318,0.3,68900.0,0.33,276.0,2700.0,32.25401570889351,2.0919096350378714,5648.156014602253,18.218512294652648,5.921960741765183,14.035503414240864,3.8300511067273115,3160,90,1034,1603,198.4784328196528,114.59155848019614,0.002142039102978906,False
0.14,0.44603575193889355,2.4000000000000004,5014.0,33.21318,0.1,68900.0,0.33,276.0,2700.0,15.01796368882872,1.045510438057044,2822.878182754019,9.226113623256406,1.871736097923785,5.791850065572314,0.826225659866741,12580,170,4160,6334,109.12931768729509,62.885745936300914,0.0010419158369175075,False
0.15000000000000002,0.6317667154772452,2.4000000000000004,5015.0,33.21318,0.3,68900.0,0.33,276.0,2700.0,24.72393794185858,1.8472267621688205,4987.512257855816,14.542422860085598,4.065593955242116,10.181515081772982,2.2183671930732958,2630,80,858,1337,147.6290064674532,85.21265479574978,0.0015039693523904191,False
0.16,0.6551620781482594,2.4000000000000004,5016.0,33.21318,0.3,68900.0,0.33,276.0,2700.0,25.82152687082121,2.0571435073262334,5554.28746978083,15.273566988362903,4.414345083860473,10.547959882458306,2.35720157653424,2558,80,838,1295,145.2301538006133,83.7944019498924,0.0014863876093375724,False
0.17,0.8078965030602547,2.4000000000000004,5017.0,33.21318,0.3,68900.0,0.33,276.0,2700.0,35.1174806302376,2.9746960904321376,8031.679444166772,20.38482163124093,7.130014579923736,14.732658998996673,4.155318489491599,3465,96,1136,1755,161.69187889879115,93.3363073223351,0.0018593443873344993,False
0.18000000000000002,0.686566668608799,2.4000000000000004,5018.0,33.21318,0.3,68900.0,0.33,276.0,2700.0,27.140138319223833,2.430397936492992,6562.074428531079,16.27663919966683,4.9096908668785995,10.863499119557005,2.4792929303856073,2641,82,868,1333,133.86461864147296,77.28385614801252,0.0014186996044963961,False
0.19,0.6148879215230123,2.4000000000000004,5019.0,33.21318,0.3,68900.0,0.33,276.0,2700.0,22.699237340096794,2.142062091301881,5783.567646515078,14.023474737044879,3.8245250766500285,8.675762603051915,1.6824629853481476,2226,74,734,1119,116.66394927868112,67.31478939432535,0.0011702784578984256,False
0.2,0.6357600999705195,2.4000000000000004,5020.0,33.21318,0.3,68900.0,0.33,276.0,2700.0,23.623545368424058,2.345599376023251,6333.118315262778,14.666249153258308,4.123914550808655,8.95729621516575,1.7783151747854036,2490,78,814,1263,111.88874498901006,64.59802191648821,0.0011666880026196254,False
0.21000000000000002,0.7277000874220997,2.4000000000000004,5021.0,33.21318,0.3,68900.0,0.33,276.0,2700.0,28.80263676435869,3.004880667214398,8113.177801478874,17.627947896417993,5.606850895666688,11.174688867940699,2.60197022845229,2812,84,920,1426,119.66860942864923,69.08034814962303,0.001328092598433164,False
0.22,0.6085449429062866,2.4000000000000004,5022.0,33.21318,0.3,68900.0,0.33,276.0,2700.0,21.586536362597293,2.3522178808353478,6350.988278255439,13.830307216898602,3.736187639474689,7.756229145698692,1.3839697586393411,2256,74,742,1137,98.56633103178946,56.855714753337715,0.0010159148610130774,False
0.23,0.925174414481887,2.4000000000000004,5023.0,33.21318,0.3,68900.0,0.33,276.0,2700.0,41.26335877136672,4.719803753496356,12743.47013444016,24.707457480034623,9.770800367076795,16.555901291332095,5.050996613580439,3837,104,1262,1938,136.8893476207857,79.02491243147597,0.0016921669694256517,False
0.24000000000000005,0.6445338406753349,2.4000000000000004,5024.0,33.21318,0.3,68900.0,0.33,276.0,2700.0,23.0963950216339,2.742614484700584,7405.059108691577,14.93971167329255,4.253790648080215,8.15668334834135,1.5111761633796306,2360,76,778,1187,94.6708307540956,54.657019681777776,0.001013062617763078,False
0.25,0.7837846206806207,2.4000000000000004,5025.0,33.21318,0.3,68900.0,0.33,276.0,2700.0,31.168713887723595,3.863364312490557,10431.083643724503,19.53894546064385,6.64872535151164,11.629768427079746,2.7853610390210832,3053,90,1012,1529,108.7190803061012,62.738963045275526,0.0012506069974490234,False
0.26,0.7444911543337338,2.4000000000000004,5026.0,33.21318,0.3,68900.0,0.33,276.0,2700.0,28.447467404172055,3.6613596742226986,9885.671120401286,18.191787649922855,5.907566768806906,10.2556797542492,2.2462070945842076,2860,84,942,1441,100.12031622907348,57.635363370286846,0.0011292511272723176,False
0.27,0.6767652692314698,2.4000000000000004,5027.0,33.21318,0.3,68900.0,0.33,276.0,2700.0,24.17400079035789,3.2222661278979103,8700.118545324358,15.960918687675827,4.751706249049264,8.213082102682064,1.529440121151354,2531,78,834,1274,89.4474248525075,51.63293924822804,0.0009709421203713466,False
0.28,0.7539167173290111,2.4000000000000004,5028.0,33.21318,0.3,68900.0,0.33,276.0,2700.0,28.4802664522092,3.9412611420215513,10641.405083458189,18.51140088828294,6.080539122852279,9.968865563926261,2.139277980830728,2721,82,898,1368,94.01498197769105,54.21510785172283,0.0010748934175161973,False
0.29000000000000004,0.6612583280132447,2.4000000000000004,5029.0,33.21318,0.1,68900.0,0.33,276.0,2700.0,22.796845319097468,3.2544623691168653,8787.048396615537,15.466344256390746,4.508043699235859,7.3305010627067215,1.253581330118994,29425,214,6174,17572,86.01479709026249,49.66026523200042,0.0009007401732863384,False
0.3,0.85371295445274,2.4000000000000004,5030.0,33.21318,0.3,68900.0,0.33,276.0,2700.0,34.235002473567725,5.078701703270547,13712.494598830477,22.032383284902146,8.101516054099587,12.20261918866558,3.02281435082904,3144,92,1044,1572,100.06646959812812,57.67222874394926,0.0011890109799076436,False
0.31,0.7588545471098826,2.4000000000000004,5031.0,33.21318,0.3,68900.0,0.33,276.0,2700.0,27.98004884973838,4.274513447214053,11541.186307477943,18.679729970346127,6.172360607466656,9.300318879392254,1.8978471602526028,2772,82,910,1401,86.56899643853029,49.77526044646381,0.0009921890361906677,False
0.32,0.8162867035661716,2.4000000000000004,5032.0,33.21318,0.3,68900.0,0.33,276.0,2700.0,31.261518050091876,4.9332137492994805,13319.677123108597,20.682587605815247,7.3022952417855596,10.57893044427663,2.369081492486079,3089,90,1028,1541,91.05081662328018,52.484867004438954,0.0010585864097787483,False
0.33,0.8369856310744683,2.4000000000000004,5033.0,33.21318,0.3,68900.0,0.33,276.0,2700.0,32.299906511049855,5.25421829752849,14186.389403326923,21.424753398077932,7.738065067429952,10.875153112971923,2.4838467699014624,3058,90,1014,1531,91.00993566261494,52.42284064177305,0.0010647581393010694,False
0.34,0.7641549061660114,2.4000000000000004,5034.0,33.21318,0.3,68900.0,0.33,276.0,2700.0,27.517987657804934,4.595739796722376,12408.497451150415,18.861099490327177,6.271850233299252,8.656888167477756,1.6761104365768755,2572,80,854,1285,80.97540858521117,46.667523774132626,0.0009274711662666716,False
0.3500000000000001,0.8905330528990235,2.4000000000000004,5035.0,33.21318,0.3,68900.0,0.33,276.0,2700.0,35.217309272279365,6.073231932633781,16397.72621811121,23.394671200498653,8.937725815786905,11.822638071780712,2.8644938831531244,3306,94,1094,1659,90.32128264761744,52.08628548129461,0.0010988531684627296,False
0.36000000000000004,0.9837630291531569,2.4000000000000004,5036.0,33.21318,0.3,68900.0,0.33,276.0,2700.0,41.29185333737613,7.334817502830455,19804.007257642228,26.996401001154727,11.285007878223679,14.295452336221405,3.950190375393224,4101,106,1346,2076,95.81900765610351,55.20401781205989,0.0012235866323868625,False
0.37,0.9695365473083668,2.4000000000000004,5037.0,33.21318,0.3,68900.0,0.33,276.0,2700.0,39.99037466059327,7.2921319170882315,19688.756176138224,26.432669101859435,10.904960060791323,13.557705558733833,3.6128281437030916,3858,104,1280,1932,93.34862124170857,53.7955729311858,0.001172128560911619,False
0.38,1.0705017029257962,2.4000000000000004,5038.0,33.21318,0.3,68900.0,0.33,276.0,2700.0,46.947590972091035,8.80511863663878,23773.820318924703,30.543518061824585,13.779109237729898,16.40407291026645,4.973990601091119,4370,112,1446,2195,99.8383675664396,57.46793643807414,0.0013083570153101624,False
0.39,0.7828708598393795,2.4000000000000004,5039.0,33.21318,0.3,68900.0,0.33,276.0,2700.0,27.371117943266817,5.2131305758581705,14075.45255481706,19.507176903661676,6.630885944300154,7.863941039605141,1.4177553684419832,2806,84,920,1410,74.43805168841125,42.88768020525142,0.0008538322170801768,False
0.4,1.0171165902823267,2.4000000000000004,5040.0,33.21318,0.3,68900.0,0.33,276.0,2700.0,42.42958208287976,8.351875130022787,22550.062851061524,28.33799595233776,12.207729762399362,14.091586130542002,3.855854632376575,3941,106,1310,1970,90.62162918674943,52.00907397353889,0.0011679294544231426,False
0.4100000000000001,0.784939678383318,2.4000000000000004,5041.0,33.21318,0.08,68900.0,0.33,276.0,2700.0,26.999667713821307,5.390584076481321,14554.577006499567,19.57913317038319,6.671317167302856,7.420534543438116,1.2807330908215349,78440,292,11070,51007,87.70397077064528,49.83775997224096,0.0008382064510588308,False
0.42000000000000004,0.907556772267055,2.4000000000000004,5042.0,33.21318,0.3,68900.0,0.33,276.0,2700.0,34.375396721831336,7.063663767238475,19071.892171543885,24.036041664177045,9.341439055510014,10.339355057654291,2.2777752882715383,3150,92,1046,1575,78.15291397656667,44.977784741527145,0.0009610436954108644,False
0.43,1.049770395639143,2.4000000000000004,5043.0,33.21318,0.3,68900.0,0.33,276.0,2700.0,43.851382917967385,9.261528255957023,25006.12629108396,29.67852977037195,13.1548870093714,14.172853147595436,3.893358753414377,3890,106,1296,1940,87.2288106408795,50.136969454532434,0.0011439857237521846,False
0.44,0.8563765660174516,2.4000000000000004,5044.0,33.21318,0.3,68900.0,0.33,276.0,2700.0,30.587224986016306,6.550780544521327,17687.107470207582,22.12978959790112,8.160331451726714,8.457435388115186,1.6095509072053868,3002,86,958,1527,70.4419453787156,40.462044114788746,0.0008613060358921096,False
0.45,0.8469945978179154,2.4000000000000004,5045.0,33.21318,0.3,68900.0,0.33,276.0,2700.0,29.754546710185302,6.503921256086091,17560.587391432447,21.78749000730875,7.954317920972925,7.967056702876551,1.450396664886834,3153,86,976,1631,69.28282032782829,39.82621729441021,0.0008409013910577708,False
0.46,1.0376538671761728,2.4000000000000004,5046.0,33.21318,0.3,68900.0,0.33,276.0,2700.0,42.081995752007515,9.474998981275185,25582.497249443,29.177983964172743,12.798322422997835,12.904011787834772,3.32332344172265,4241,106,1348,2169,81.52072862932538,46.8410784020286,0.0010629364103636398,False
0.4700000000000001,1.0167138938260663,2.4000000000000004,5047.0,33.21318,0.3,68900.0,0.33,276.0,2700.0,40.32192159977445,9.258205193231253,24997.154021724386,28.32163137011626,12.19632144696827,12.000290229658187,2.9381162537370162,3787,102,1236,1909,78.40908201481155,45.0227355685223,0.0010161404385424391,False
0.4800000000000001,0.9505665406013613,2.4000000000000004,5048.0,33.21318,0.3,68900.0,0.33,276.0,2700.0,35.56746978387466,8.304569404966053,22422.337393408343,25.688886026645473,10.410601233139337,9.878583757229183,2.1060318281732844,3180,92,1038,1599,71.47606586625486,41.0664170789744,0.0009138135512181903,False
0.49,1.105678275028674,2.4000000000000004,5049.0,33.21318,0.3,68900.0,0.33,276.0,2700.0,46.083545695015644,11.044065205877375,29818.976055868912,32.035930878160876,14.879683323511735,14.047614816854768,3.8356181176343593,4470,110,1402,2299,81.7582923418768,46.92227985572728,0.0010975095469422122,False
0.5,1.0427855404971562,2.4000000000000004,5050.0,33.21318,0.3,68900.0,0.33,276.0,2700.0,41.27679680975209,10.057399814638881,27154.97949952498,29.389528048979958,12.948596809402924,11.887268760772134,2.8911969947640426,3913,102,1234,2008,81.91815968562159,47.200523095836616,0.0009960363668264577,False
0.01,0.3410343052894494,2.4000000000000004,5051.0,36.23256,0.05,68900.0,0.33,276.0,2700.0,12.973149577406694,0.06486365349193148,175.13186442821498,6.604200328583563,1.0430577893390063,6.368949248823132,0.9781941358470748,42454,310,14054,21367,1256.8260266190464,715.2423446890316,0.009701735279096119,True
0.02,0.5386395014224027,2.4000000000000004,5052.0,36.23256,0.1,68900.0,0.33,276.0,2700.0,22.969493913696727,0.22967818397614922,620.1310967356029,11.768405002145952,2.8421584701489793,11.201088911550775,2.61248028617283,18766,218,6210,9445,927.122628569247,527.9412758144128,0.008775819311512657,True
0.03,0.4537357730276699,2.4000000000000004,5053.0,36.23256,0.1,68900.0,0.33,276.0,2700.0,18.07539224847399,0.2710743350593453,731.9007046602323,9.429290285064754,1.9435586435123062,8.646101963409235,1.6724843084529608,15062,190,4942,7643,5213.8261779958675,2702.438626970168,0.004805920011842041,True
0.04,0.42529430451917155,2.4000000000000004,5054.0,36.23256,0.08,68900.0,0.33,276.0,2700.0,16.361832716004066,0.3271026130335295,883.1770551905297,8.686232390285728,1.6859907949799335,7.675600325718339,1.358888181946404,21178,224,6948,10750,429.6077506718644,245.3438151316011,0.003381717309704491,True
0.05,0.5011635146269807,2.4000000000000004,5055.0,36.23256,0.1,68900.0,0.33,276.0,2700.0,20.074850198101593,0.5016094555647407,1354.3455300248,10.713598577373496,2.421001070087017,9.361251620728098,1.9193916145222762,16720,202,5482,8491,393.9958920396474,224.92276225319398,0.003369253230872094,True
0.06000000000000001,0.660269546520761,2.4000000000000004,5056.0,36.23256,0.2,68900.0,0.33,276.0,2700.0,29.01482378539301,0.8699923242196753,2348.9792753931233,15.435013277324876,4.492766356049576,13.579810508068134,3.6227740318299007,5911,126,1942,2992,409.35831751969204,234.1723196216188,0.004060587789023255,True
0.06999999999999999,0.63555932868341,2.4000000000000004,5057.0,36.23256,0.2,68900.0,0.33,276.0,2700.0,27.207893909111977,0.9515579092987974,2569.2063551067527,14.660014097369324,4.120970615015886,12.547879811742654,3.1694127057170887,5587,120,1832,2833,338.6063194689578,193.96691143669617,0.0033536724972460337,True
0.08,0.49213800712621547,2.4000000000000004,5058.0,36.23256,0.2,68900.0,0.33,276.0,2700.0,18.814228989602643,0.7514968292916823,2029.0414390875421,10.464838985601428,2.3254295363800517,8.349390004001215,1.5739327070883693,4070,98,1328,2072,223.58793307763415,129.01196943032656,0.0021350809498245356,False
0.09,0.5367374884913034,2.4000000000000004,5059.0,36.23256,0.2,68900.0,0.33,276.0,2700.0,20.95858859490905,0.9416096727412632,2542.3461164014107,11.71402030791195,2.819826546263491,9.244568286997099,1.8782168735222275,4451,106,1458,2258,219.45655215995052,126.6826942342195,0.0021348142561280915,False
0.09999999999999999,0.5728514352986644,2.4000000000000004,5060.0,36.23256,0.2,68900.0,0.33,276.0,2700.0,22.702288177897493,1.1330200137924815,3059.1540372397003,12.762160817031562,3.261693650952601,9.940127360865931,2.1286736371601194,4676,108,1530,2375,207.67775311177675,119.67215481770374,0.002103441248186597,False
0.11,0.5934604760026015,2.4000000000000004,5061.0,36.23256,0.2,68900.0,0.33,276.0,2700.0,23.602590963899015,1.2953548631331466,3497.458130459496,13.374990271786897,3.5310061233575745,10.227600692112118,2.2356512602244276,5090,112,1662,2591,196.32459723590156,113.34285253336621,0.002018740357215275,False
0.12,0.4797170750918087,2.4000000000000004,5062.0,36.23256,0.08,68900.0,0.33,276.0,2700.0,17.17629122808187,1.0269583589479803,2772.787569159547,10.125842736528226,2.1975558207543546,7.050448491553643,1.1705974618063744,22390,230,7414,11257,144.91100974404068,83.61961534580823,0.0014229887943279053,False
0.13,0.444573247562261,2.4000000000000004,5063.0,36.23256,0.08,68900.0,0.33,276.0,2700.0,15.174866343700053,0.9817649263005452,2650.7653010114723,9.187691633311267,1.858270969086332,5.987174710388786,0.8765060427857867,19522,212,6396,9874,128.29126864470504,74.06896984190998,0.001209009117963408,False
0.14,0.6999781562697707,2.4000000000000004,5064.0,36.23256,0.3,68900.0,0.33,276.0,2700.0,29.097337284266615,2.0310665897376974,5483.879792291783,16.71255923242861,5.13090292843327,12.384778051838005,3.0998363386955723,2746,84,900,1390,189.2307734839565,109.18722691879258,0.002003426597597253,False
0.15000000000000002,0.7658809132505501,2.4000000000000004,5065.0,36.23256,0.3,68900.0,0.33,276.0,2700.0,32.97411960210454,2.465990386687263,6658.17404405561,18.920312997288594,6.304455715338732,14.053806604815943,3.8384653286514694,3346,94,1094,1699,190.70881379384835,110.09256015938222,0.002119221891076968,False
0.16,0.8204372174706761,2.4000000000000004,5066.0,36.23256,0.3,68900.0,0.33,276.0,2700.0,36.27086676528161,2.8930906988831318,7811.344886984456,20.830542320243506,7.388445503525259,15.440324445038105,4.495354804642127,3591,98,1176,1821,190.02502540956363,109.66365496178318,0.002193591182385563,False
0.17,0.6495338721562987,2.4000000000000004,5067.0,36.23256,0.3,68900.0,0.33,276.0,2700.0,25.217291273699363,2.1331799951263863,5759.5859868412435,15.09641955603312,4.328881187132377,10.120871717666244,2.195701192005991,2586,80,848,1308,146.22032979861436,84.35402216481182,0.001515805311313509,False
0.18000000000000002,0.831810122286699,2.4000000000000004,5068.0,36.23256,0.3,68900.0,0.33,276.0,2700.0,36.40614299826448,3.2643383576066447,8813.71356553794,21.238174491467824,7.627664178675045,15.167968506796655,4.3633258210684005,3592,98,1176,1822,171.16121061753614,98.73473232474645,0.0020027712480478995,False
0.19,0.75809996109767,2.4000000000000004,5069.0,36.23256,0.3,68900.0,0.33,276.0,2700.0,31.27635215216401,2.956887998448268,7983.597595810324,18.653966700567842,6.158274865720504,12.622385451596166,3.2013868672722356,2939,86,962,1490,150.0013179537282,86.56248977173162,0.0016770608411485798,False
0.2,0.7137520636232331,2.4000000000000004,5070.0,36.23256,0.3,68900.0,0.33,276.0,2700.0,28.228945959942195,2.806139435174787,7576.576474971925,17.164964633057377,5.364210392918903,11.063981326884818,2.558070957744116,2603,82,854,1316,136.48025227337985,78.7818704187048,0.0014789140841851118,False
0.21000000000000002,0.8827512120550305,2.4000000000000004,5071.0,36.23256,0.3,68900.0,0.33,276.0,2700.0,38.9362308759607,4.068908048932606,10986.051732118036,23.103915230444223,8.75680450322263,15.83231564551648,4.6878964542900246,3776,102,1242,1907,155.3598438262937,89.69636986901978,0.0018821510959918617,False
0.22,0.7452801486415548,2.4000000000000004,5072.0,36.23256,0.3,68900.0,0.33,276.0,2700.0,29.606797570785357,3.2344466137361065,8733.005857087488,18.218456180678583,5.921930505342571,11.388341390106774,2.6874838916064645,2844,84,936,1434,129.7729604481091,74.8983487652207,0.0014319987358076824,False
0.23,0.5897973206494163,2.4000000000000004,5073.0,36.23256,0.08,68900.0,0.33,276.0,2700.0,20.31766691678284,2.311049190219209,6239.832813591865,13.265282795709602,3.4822124968579113,7.0523841210732385,1.1711633066387024,41995,252,8780,25113,102.27097114863558,59.03380706672381,0.001039455952196629,False
0.24000000000000005,0.7131250955215233,2.4000000000000004,5074.0,36.23256,0.3,68900.0,0.33,276.0,2700.0,27.091775413870543,3.2220601317689836,8699.562355776256,17.144268220443152,5.353454996138311,9.947507193427391,2.131394864369327,2543,80,836,1283,115.25407960588325,66.52560428977034,0.0012498912628178985,False
0.25,0.5720494557149916,2.4000000000000004,5075.0,36.23256,0.1,68900.0,0.33,276.0,2700.0,18.89825218382051,2.3295565995026712,6289.802818657213,12.738528969929668,3.251468135743552,6.159723213890842,0.9219115362408807,20938,192,5078,11931,93.67393813280322,54.06139834463822,0.0009358270846377297,False
0.26,0.7359332383736816,2.4000000000000004,5076.0,36.23256,0.3,68900.0,0.33,276.0,2700.0,27.926873116918475,3.5936824168797394,9702.942525575296,17.903529600949526,5.753117735706177,10.02334351596895,2.159435318826438,2733,82,898,1380,108.34944188719935,62.505441664674976,0.0012131959715873319,False
0.27,0.7790745036820905,2.4000000000000004,5077.0,36.23256,0.3,68900.0,0.33,276.0,2700.0,30.308738070813774,4.050455660759353,10936.230284050254,19.375414382395753,6.5570799764736964,10.933323688418021,2.506624315714343,2941,88,972,1477,110.6009502535811,63.81953881430132,0.0012618789096972218,False
0.28,0.6645636707252955,2.4000000000000004,5078.0,36.23256,0.3,68900.0,0.33,276.0,2700.0,23.228771449002394,3.2060518415725845,8656.339972245978,15.571257206919089,4.559338578501586,7.657514242083305,1.3532867369290011,2339,76,770,1178,93.54626458345693,53.974620030065566,0.0010024220076025716,False
0.29000000000000004,0.6336138608224097,2.4000000000000004,5079.0,36.23256,0.1,68900.0,0.33,276.0,2700.0,21.264941485006474,3.0323363131736727,8187.308045568916,14.599649059499852,4.09250876328984,6.665292425506623,1.0601724501161671,27374,204,5676,16402,91.43036241820423,52.782983980894336,0.0009357426864193179,False
0.3,0.6205980596926791,2.4000000000000004,5080.0,36.23256,0.1,68900.0,0.33,276.0,2700.0,20.324350339550584,2.9921038831679727,8078.680484553526,14.198234768908902,3.9050996170410186,6.126115570641682,0.9129957338730459,28023,200,5526,17020,87.94351645065947,50.7593427205902,0.0008897917951515413,False
0.31,0.6924591817688883,2.4000000000000004,5081.0,36.23256,0.2,68900.0,0.33,276.0,2700.0,24.073104399586196,3.668937057440465,9906.130055089256,16.46760962720531,5.006163396934048,7.605494772380887,1.3372263394935833,4973,112,1644,2493,88.89341464755876,51.14395608840955,0.0009681503273420714,False
0.32,0.7307984297811156,2.4000000000000004,5082.0,36.23256,0.3,68900.0,0.33,276.0,2700.0,26.046792969025997,4.0988577363289345,11066.915888088122,17.731456319181564,5.661628603307993,8.315336649844433,1.5627708669790588,2595,80,860,1299,90.68319125098732,52.31986667265177,0.0010078373203854132,False
0.33,0.8438221816030529,2.4000000000000004,5083.0,36.23256,0.3,68900.0,0.33,276.0,2700.0,32.73818951153533,5.32653499260842,14381.644480042734,21.67224540545031,7.885381803184181,11.06594410608502,2.558846810575761,3085,90,1026,1540,99.4247068171232,57.37441786457977,0.0011739998797652626,False
0.34,0.9075549405851787,2.4000000000000004,5084.0,36.23256,0.3,68900.0,0.33,276.0,2700.0,36.64236097881057,6.146883261293337,16596.58480549201,24.035972263561867,9.341395029191682,12.606388715248706,3.1945117678983452,3231,94,1070,1620,105.27365676991593,60.71623700887483,0.001258499058927028,False
0.3500000000000001,0.7791410993302543,2.4000000000000004,5085.0,36.23256,0.3,68900.0,0.33,276.0,2700.0,28.16326694796416,4.838774525878621,13064.691219872275,19.37772263814013,6.558370371611942,8.78554430982403,1.7195958457333216,2764,84,920,1378,88.7828927106566,51.195797521255564,0.0010098023885983635,False
0.36000000000000004,1.0059494639718785,2.4000000000000004,5086.0,36.23256,0.3,68900.0,0.33,276.0,2700.0,42.86971778983466,7.61883310427299,20570.84938153707,27.885702293899605,11.893804109061712,14.984015495935054,4.274971004788722,4082,108,1352,2048,107.94030303601897,62.06855339035206,0.001376355373327386,False
0.37,1.0572369116208316,2.4000000000000004,5087.0,36.23256,0.3,68900.0,0.33,276.0,2700.0,46.2871334854002,8.45703229967659,22833.98720912679,29.988816368219283,13.377639734344918,16.298317117180915,4.920607434668328,4380,112,1448,2202,110.41719844780758,63.57953977375391,0.0014370001998560836,False
0.38,1.0100150058474575,2.4000000000000004,5088.0,36.23256,0.3,68900.0,0.33,276.0,2700.0,42.53823560741637,7.967341117350436,21511.821016846177,28.050003043451735,12.00750844451773,14.488232563964633,4.040167327167294,4098,108,1354,2061,102.39345285114076,58.97392139674281,0.001319289987668083,False
0.39,0.9036523307968396,2.4000000000000004,5089.0,36.23256,0.3,68900.0,0.33,276.0,2700.0,34.9494874839565,6.690912636292653,18065.464117990163,23.888297717692083,9.247880291114758,11.06118976626442,2.5569676548221043,3081,92,1022,1542,90.16284035485614,51.86273229628245,0.0011109318825311299,False
0.4,0.8989264795040153,2.4000000000000004,5090.0,36.23256,0.3,68900.0,0.33,276.0,2700.0,34.36173511412144,6.738305736271126,18193.42548793204,23.709984173961626,9.13540931116201,10.651750940159811,2.397103574890883,3114,92,1032,1560,89.30251672571995,51.517096844999536,0.0010800855442291456,False
0.4100000000000001,1.0386917493496963,2.4000000000000004,5091.0,36.23256,0.3,68900.0,0.33,276.0,2700.0,43.66806329477733,8.807605170577313,23780.533960558743,29.220715413710323,12.828627905176923,14.44734788106701,4.02102273459961,4191,108,1388,2103,98.7223997849699,56.83885286411246,0.0012815578370583942,False
0.42000000000000004,0.7786317564646837,2.4000000000000004,5092.0,36.23256,0.08,68900.0,0.33,276.0,2700.0,26.384356321539613,5.385545283177217,14540.972264578486,19.360071261416604,6.548504962413355,7.02428506012301,1.1629596792361374,81330,290,11136,53102,82.6831103818174,47.15417805361697,0.0008894045320624417,False
0.43,0.9687970176132843,2.4000000000000004,5093.0,36.23256,0.3,68900.0,0.33,276.0,2700.0,38.176416902654786,8.041410562664804,21711.808519194972,26.40350392710274,10.885423102173688,11.772912975552046,2.844012539508883,3599,100,1202,1790,88.68038073964883,50.90592027071345,0.0011216194005910804,False
0.44,0.7987899505778251,2.4000000000000004,5094.0,36.23256,0.1,68900.0,0.33,276.0,2700.0,27.091731532607703,5.781771984771432,15610.784358882867,20.063634780298806,6.9458431660384505,7.0280967523088975,1.1640711812670181,46408,234,7410,29491,280.59295282956646,148.59884201863227,0.0008834667292609325,True
0.45,0.8311024313840631,2.4000000000000004,5095.0,36.23256,0.2,68900.0,0.33,276.0,2700.0,28.78473147589902,6.285712828371697,16971.42463660358,21.212714306192836,7.612643125511906,7.572017169706182,1.3269302971402093,7915,122,1980,4451,80.89386298346683,46.62914814484769,0.0009054426006150252,False
0.46,0.9546893711086906,2.4000000000000004,5096.0,36.23256,0.3,68900.0,0.33,276.0,2700.0,36.38471798120507,8.16462509399062,22044.487753774676,25.84976628027946,10.516843650385526,10.53495170092561,2.352218556394906,3227,94,1066,1618,83.19901678583187,47.75050483353312,0.001036981381913451,False
0.4700000000000001,0.7746739938310471,2.4000000000000004,5097.0,36.23256,0.1,68900.0,0.33,276.0,2700.0,24.984000946570188,5.653793839728225,15265.243367266208,19.22313639271817,6.472153503483463,5.7608645538520165,0.8183596637552384,44204,222,6754,28351,76.2259103266038,43.98481993668879,0.0008110505554675633,False
0.4800000000000001,0.9017252312381767,2.4000000000000004,5098.0,36.23256,0.3,68900.0,0.33,276.0,2700.0,32.40994050429083,7.546762377865935,20376.258420238024,23.81551754937436,9.201915305429852,8.594422954916471,1.6551529275639165,3124,88,958,1623,74.84659180783392,43.09517328883532,0.000938675432300015,False
0.49,1.0564210281217217,2.4000000000000004,5099.0,36.23256,0.3,68900.0,0.33,276.0,2700.0,42.527973954215106,10.172950129381247,27466.965349329366,29.95484244592349,13.353186214430416,12.573131508291617,3.1802360850491684,3933,104,1280,1979,84.68571224055009,48.463847736864984,0.0011230653313378525,False
0.5,0.8689303295819906,2.4000000000000004,5100.0,36.23256,0.08,68900.0,0.33,276.0,2700.0,29.86501393648192,7.20445409632133,19452.02606006759,22.59127210554609,8.44103612559179,7.27374183093583,1.2365820292704601,104512,308,12386,69717,89.6745076918407,51.190907098097725,0.0008846840823474898,False
0.01,0.4784116512387116,2.4000000000000004,5101.0,39.25194,0.05,68900.0,0.33,276.0,2700.0,19.91110191425429,0.09955341517617042,268.79422097566015,10.090439843439515,2.1843604166631314,9.820662070814773,2.084807001486961,63657,398,21088,32019,2036.8306778022245,1160.5459426815532,0.015990464047225,True
0.02,0.4990571525568595,2.4000000000000004,5102.0,39.25194,0.1,68900.0,0.33,276.0,2700.0,20.763300604700852,0.20761625088617094,560.5638773926615,10.655360218335352,2.398495707517468,10.1079403863655,2.1908794566312975,17063,206,5644,8591,937.278848583618,536.1373634971076,0.00862554115513955,True
0.03,0.639254558903712,2.4000000000000004,5103.0,39.25194,0.1,68900.0,0.33,276.0,2700.0,28.626801100079064,0.4293454678334201,1159.2327631502342,14.774933645444618,4.17535496355437,13.851867454634446,3.74600949572095,24071,250,7928,12173,938.9287389761845,534.3674504225586,0.008238016899849137,True
0.04,0.37509840747233625,2.4000000000000004,5104.0,39.25194,0.1,68900.0,0.33,276.0,2700.0,13.888678723277021,0.2776395331789876,749.6267395832665,7.424424184097776,1.2819112542008235,6.464254539179245,1.004271721021836,11679,164,3826,5934,381.97870542507997,218.55571176265877,0.0031485658339930377,True
0.05,0.736512778270102,2.4000000000000004,5105.0,39.25194,0.2,68900.0,0.33,276.0,2700.0,34.197888953536435,0.8546854244506114,2307.6506460166506,17.92299225862871,5.763499184682305,16.274896694907724,4.908813760231694,7301,140,2394,3704,570.4765895831438,325.21831741043275,0.006238919274050051,True
0.06000000000000001,0.7597322559456771,2.4000000000000004,5106.0,39.25194,0.2,68900.0,0.33,276.0,2700.0,35.414240868128225,1.0619748367018111,2867.33205909489,18.709714934829076,6.188769129130083,16.70452593329915,5.126794292428272,7217,140,2372,3653,478.453497478082,273.2926537755683,0.005477580831023857,True
0.06999999999999999,0.5275866742972534,2.4000000000000004,5107.0,39.25194,0.1,68900.0,0.33,276.0,2700.0,20.985101050108735,0.7337601592336855,1981.152429930951,11.453639960481429,2.7138266739125023,9.531461089627307,1.9800665146788168,17632,208,5790,8941,311.87837165846173,178.82356919556457,0.002853424439554118,True
0.08,0.5889973198694383,2.4000000000000004,5108.0,39.25194,0.2,68900.0,0.33,276.0,2700.0,24.172540855657026,0.9658293039338551,2607.739120621409,13.241368520339293,3.471609827066522,10.931172335317733,2.5057805231326666,4994,112,1634,2537,291.275223445305,167.1068163653071,0.002909957617184706,True
0.09,0.7034941715672847,2.4000000000000004,5109.0,39.25194,0.2,68900.0,0.33,276.0,2700.0,30.80853301957542,1.384857171851249,3739.1143639983725,16.827589885621,5.18986667608773,13.980943133954423,3.805009504236481,6650,132,2176,3380,310.60451415791186,177.92059343277947,0.0032893911253494335,True
0.09999999999999999,0.460132663074874,2.4000000000000004,5110.0,39.25194,0.08,68900.0,0.33,276.0,2700.0,16.6596898376697,0.8308900967810907,2243.403261308945,9.599215060221695,2.004419723507399,7.060474777448004,1.173529626726308,21928,228,7238,11065,188.30378653072594,108.71506024502494,0.0017300318162084595,False
0.11,0.501705653371896,2.4000000000000004,5111.0,39.25194,0.2,68900.0,0.33,276.0,2700.0,18.563488144363458,1.0182042080583447,2749.1513617575306,10.728606100267127,2.4268133947197925,7.8348820440963305,1.4086091866614479,4035,98,1318,2052,182.04452561936748,105.0965932748305,0.0017640834518297098,False
0.12,0.7078992276663174,2.4000000000000004,5112.0,39.25194,0.3,68900.0,0.33,276.0,2700.0,30.180714694279402,1.8072237669198243,4879.504170683525,16.972145049246997,5.2643113613232995,13.208569645032405,3.4570875944034754,2988,88,980,1512,242.19838881695446,139.80736336236782,0.0025421977448655112,False
0.13,0.6332224840684038,2.4000000000000004,5113.0,39.25194,0.3,68900.0,0.33,276.0,2700.0,25.358151061645078,1.6436784329669738,4437.931769010829,14.587516701150552,4.086797174318382,10.770634360494526,2.443118741351408,2576,80,844,1304,202.67326336207492,117.0013215200077,0.0020369473364769877,False
0.14,0.6939748224097491,2.4000000000000004,5114.0,39.25194,0.3,68900.0,0.33,276.0,2700.0,28.727084278695774,2.0051488793477374,5413.901974238891,16.516871113094236,5.031159699405879,12.210213165601537,3.0260108200581413,2749,84,904,1387,203.4773495540293,117.41312392686245,0.0021448290169174098,False
0.15000000000000002,0.6038571336880179,2.4000000000000004,5115.0,39.25194,0.3,68900.0,0.33,276.0,2700.0,23.120700127979223,1.7269839261278637,4662.856600545232,13.688195630877633,3.671687109571482,9.43250449710159,1.9447031834436184,2393,76,784,1211,170.8385925225382,98.62246948349345,0.0016772259265389515,False
0.16,0.5015051879801272,2.4000000000000004,5116.0,39.25194,0.2,68900.0,0.33,276.0,2700.0,17.3383957964029,1.3784930213728297,3721.93115770664,10.72305594246528,2.424663236818497,6.61533985393762,1.0461702154456674,3556,92,1174,1789,127.75695743959542,73.6325380813781,0.0012574207219869672,False
0.17,0.5922310107254216,2.4000000000000004,5117.0,39.25194,0.3,68900.0,0.33,276.0,2700.0,21.94554549544504,1.8550816039747706,5008.7203307318805,13.338131537925333,3.5145846993943266,8.607413957519706,1.659503095419556,2243,74,740,1127,148.99786312917826,86.00838781989106,0.001459209914255115,False
0.18000000000000002,0.6747143488050287,2.4000000000000004,5118.0,39.25194,0.3,68900.0,0.33,276.0,2700.0,26.430799266028608,2.3665574217054206,6389.705038604636,15.895160357276279,4.719039125507246,10.535638908752329,2.3524817038018253,2712,82,894,1365,156.87796840040832,90.57053070365028,0.001638932449955677,False
0.19,0.8386837713106889,2.4000000000000004,5119.0,39.25194,0.3,68900.0,0.33,276.0,2700.0,36.555850519675985,3.4584403433619055,9337.788927077145,21.486118629008082,7.774499396354144,15.069731890667903,4.316059052992238,3598,98,1174,1831,177.28470273063064,102.23961855937425,0.0020872011009425437,False
0.2,0.6302190615256258,2.4000000000000004,5120.0,39.25194,0.3,68900.0,0.33,276.0,2700.0,23.307981744566796,2.314043013637537,6247.91613682135,14.494541192792248,4.043124376926288,8.813440551774548,1.729081363288751,2492,78,814,1265,131.65206129095847,76.00866506452977,0.001362351704496225,False
0.21000000000000002,0.7133181854047748,2.4000000000000004,5121.0,39.25194,0.3,68900.0,0.33,276.0,2700.0,27.923929111981597,2.912616363714805,7864.064182029973,17.150641124942734,5.356765996144044,10.773287987038863,2.444149632429239,2609,82,856,1319,140.5617846679205,81.13508279739746,0.0015309663352279337,False
0.22,0.6804846160165501,2.4000000000000004,5122.0,39.25194,0.3,68900.0,0.33,276.0,2700.0,25.689035262730986,2.8034927598501254,7569.430451595338,16.080441197684863,4.81129260572861,9.608594065046123,2.007799845878485,2638,80,866,1333,128.24670798858926,74.03208716123729,0.0013788964504772821,False
0.23,0.7289093216483482,2.4000000000000004,5123.0,39.25194,0.3,68900.0,0.33,276.0,2700.0,28.319593957798556,3.2312707999360155,8724.431159827242,17.668316897352728,5.62819161768706,10.651277060445828,2.3969208177510444,2834,84,932,1430,129.50621964513826,74.63531805966883,0.001448287354086996,False
0.24000000000000005,0.6676673125885665,2.4000000000000004,5124.0,39.25194,0.3,68900.0,0.33,276.0,2700.0,24.41746995751931,2.9011434770068343,7833.087387918453,15.670018048833303,4.607819380760145,8.747451908686006,1.706675903753311,2352,76,772,1188,114.94168442099773,66.34182000852711,0.0012494970674996639,False
0.25,0.8210963407682317,2.4000000000000004,5125.0,39.25194,0.3,68900.0,0.33,276.0,2700.0,33.5645427935391,4.162842925717497,11239.675899437241,20.854078139271643,7.4021831551728425,12.710464654267454,3.2393402294553457,3181,92,1056,1591,133.60350756720155,77.04512155365082,0.001575341709379747,False
0.26,0.9355442315304077,2.4000000000000004,5126.0,39.25194,0.3,68900.0,0.33,276.0,2700.0,41.02805869738829,5.296836542340731,14301.458664319975,25.106302678048415,10.02907782128909,15.921756019339874,4.732241278948358,3940,104,1296,1990,144.56537814177517,83.41976304812982,0.0018137418711313576,False
0.27,0.7069413615001265,2.4000000000000004,5127.0,39.25194,0.3,68900.0,0.33,276.0,2700.0,25.92873421968648,3.4591551408572716,9339.718880314633,16.940670471308206,5.248069393870251,8.988063748378273,1.7889142530129796,2534,80,832,1280,109.47658340533032,63.171863278443254,0.001209710319604181,False
0.28,0.970349796703359,2.4000000000000004,5128.0,39.25194,0.3,68900.0,0.33,276.0,2700.0,42.86390376061626,5.954970365198544,16078.419986036068,26.46475746330149,10.926469459740204,16.399146297314772,4.97149909454166,4093,108,1350,2062,142.0077470620543,81.93997755805175,0.0017798504466202483,False
0.29000000000000004,0.6517786312321411,2.4000000000000004,5129.0,39.25194,0.1,68900.0,0.33,276.0,2700.0,22.2672050604314,3.1776645316100596,8579.69423534716,15.16697776596917,4.3628481813445505,7.100227294462231,1.185183649734491,29049,210,6086,17350,101.43485700167332,58.561087124920974,0.0010475077420729593,False
0.3,0.6467719603185349,2.4000000000000004,5130.0,39.25194,0.08,68900.0,0.33,276.0,2700.0,21.750093742078217,3.2059653935471166,8656.106562577215,15.009779750879092,4.287305897129797,6.740313991199125,1.0813405035826804,51713,258,9110,32158,97.5609855049138,56.227232440476726,0.001012062915039073,False
0.31,0.6709121323409317,2.4000000000000004,5131.0,39.25194,0.08,68900.0,0.33,276.0,2700.0,22.852821770813456,3.4797932499802355,9395.441774946636,15.77353016810358,4.658833632376358,7.079291602709876,1.1790403823961224,55774,268,9658,34785,105.77843943800644,58.812136854221976,0.001027790496417869,False
0.32,0.8723632474116132,2.4000000000000004,5132.0,39.25194,0.3,68900.0,0.33,276.0,2700.0,34.88166352094736,5.512437024636359,14883.57996651817,22.718157503717933,8.51880781523736,12.16350601722943,3.006370790601,3189,94,1058,1596,115.97120097920399,66.91544309765,0.0013649790784346406,False
0.33,0.7788545264464396,2.4000000000000004,5133.0,39.25194,0.3,68900.0,0.33,276.0,2700.0,28.66810893120406,4.654971696853968,12568.423581505715,19.367790596512357,6.552818664929965,9.300318334691703,1.8978469680759966,2916,86,964,1464,99.29882313975882,57.2420178937348,0.0011501177287542045,False
0.34,0.8585163196686654,2.4000000000000004,5134.0,39.25194,0.3,68900.0,0.33,276.0,2700.0,33.40579388187832,5.59666685481485,15111.000508000096,22.208167970245384,8.207767584504905,11.197625911632933,2.6111007296900555,3042,90,1012,1518,110.35712314208943,63.68619677993798,0.0012668174239444058,False
0.3500000000000001,0.7192855003878256,2.4000000000000004,5135.0,39.25194,0.08,68900.0,0.33,276.0,2700.0,24.63044596313821,4.22053085353408,11395.433304542015,17.348053471847905,5.4596978396892375,7.282392491290306,1.2391669861551575,65353,278,10306,41632,260.625603973652,141.0706515015878,0.0010094008346378418,False
0.36000000000000004,0.7825136099832024,2.4000000000000004,5136.0,39.25194,0.3,68900.0,0.33,276.0,2700.0,28.109437519613877,4.961982655633241,13397.35317020975,19.494762168876495,6.623919225833504,8.614675350737382,1.6619365702002629,2762,84,920,1376,94.33901455229017,54.38942227642208,0.0010739184406986036,False
0.37,1.0612997165939695,2.4000000000000004,5137.0,39.25194,0.3,68900.0,0.33,276.0,2700.0,46.5882068681995,8.512730875495379,22984.373363837523,30.158243303439246,13.49982248046633,16.429963564760254,4.987091604970951,4359,112,1440,2193,119.9559115527017,69.06913005757312,0.001564575327419406,False
0.38,0.9476421972894522,2.4000000000000004,5138.0,39.25194,0.3,68900.0,0.33,276.0,2700.0,38.18398112796785,7.140032766255369,19278.088468889495,25.575031868860155,10.335644637796715,12.608949259107693,3.195611871541346,3303,96,1094,1656,106.00057777601886,60.95880707196587,0.0013131147114112498,False
0.39,0.8635014661684921,2.4000000000000004,5139.0,39.25194,0.3,68900.0,0.33,276.0,2700.0,32.34887826081372,6.183793837779814,16696.243362005498,22.391218354412054,8.318934562347172,9.957659906401666,2.135140724567358,3039,90,1010,1518,93.93549589576348,54.10625231943719,0.001135153099779597,False
0.4,0.8512926601323338,2.4000000000000004,5140.0,39.25194,0.3,68900.0,0.33,276.0,2700.0,31.308693204251195,6.127697354297075,16544.7828566021,21.94402952782571,8.048298152711967,9.364663676425486,1.9206007984148918,3038,88,1010,1517,92.98208581952139,53.5238438724138,0.0010943180882429478,False
0.4100000000000001,0.9012304678367804,2.4000000000000004,5141.0,39.25194,0.3,68900.0,0.33,276.0,2700.0,34.236785846150134,6.874193293608738,18560.321892743592,23.796847031864143,9.190136877959143,10.439938814285991,2.3159435843504044,3085,92,1024,1543,93.26941820832432,53.67610255353803,0.0011492439142590447,False
0.42000000000000004,0.9998542255353037,2.4000000000000004,5142.0,39.25194,0.3,68900.0,0.33,276.0,2700.0,40.6093517888511,8.372794331312624,22606.544694544085,27.640153679589652,11.724582917560566,12.969198109261448,3.3517885862479417,3829,104,1268,1919,100.79343163074255,58.033737176690224,0.0012911351377845005,False
0.43,0.826732998087259,2.4000000000000004,5143.0,39.25194,0.3,68900.0,0.33,276.0,2700.0,29.016299116438294,6.0719852386282565,16394.360144296294,21.05579651225277,7.5202985809401985,7.960502604185525,1.448313342311942,3086,86,974,1583,83.26397897995308,47.91175194368937,0.0009945682425271782,False
0.44,0.9322591337697086,2.4000000000000004,5144.0,39.25194,0.3,68900.0,0.33,276.0,2700.0,35.44782227335921,7.620111947736766,20574.302258889267,24.97965836817196,9.946809256302291,10.468163905187247,2.3266973085655254,3281,94,1094,1634,90.59239497982543,52.12482221934981,0.0011316475417489538,False
0.45,0.8510296863489732,2.4000000000000004,5145.0,39.25194,0.3,68900.0,0.33,276.0,2700.0,30.00280779516051,6.55978000020554,17711.406000554958,21.93443843787074,8.042528709385552,8.068369357289772,1.4827487091800116,3106,86,972,1598,82.58333127612467,47.59867942815098,0.00099767245500701,False
0.46,1.1221274578238096,2.4000000000000004,5146.0,39.25194,0.3,68900.0,0.33,276.0,2700.0,48.23838488719825,10.890968482369054,29405.614902396446,32.74448069748189,15.412466417663389,15.49390418971636,4.5214979352943345,4477,112,1484,2237,107.85478211553188,62.094373278524884,0.0014297879555252241,False
0.4700000000000001,1.0997612160157606,2.4000000000000004,5147.0,39.25194,0.3,68900.0,0.33,276.0,2700.0,46.2631039711065,10.65438305049427,28766.834236334525,31.782716167490197,14.690874407051748,14.480387803616306,4.0364913565574785,4529,112,1452,2305,104.40303389325537,60.050526708351946,0.0013300263936444645,False
0.4800000000000001,0.936165690435486,2.4000000000000004,5148.0,39.25194,0.3,68900.0,0.33,276.0,2700.0,34.624007782570814,8.07813852465313,21810.974016563454,25.130291144227357,10.044687810081928,9.493716638343457,1.9665492854287976,3357,92,1072,1709,85.44543606504011,49.33177668642758,0.0010632440179123982,False
0.49,0.8602197887892287,2.4000000000000004,5149.0,39.25194,0.1,68900.0,0.33,276.0,2700.0,29.575811148648217,6.999670242017358,18899.109653446867,22.270647673800188,8.245651718636452,7.30516347484803,1.245981476619094,54048,246,7984,34890,89.90653461790194,51.60035284807733,0.0009614396145993032,False
0.5,1.0782811229470273,2.4000000000000004,5150.0,39.25194,0.3,68900.0,0.33,276.0,2700.0,43.79347401508521,10.686569115972153,28853.736613124813,30.870891973765325,14.017992497188343,12.922582041319885,3.33142338121619,4798,108,1396,2550,99.61361690023881,57.33579480440073,0.0012398642795708893,False
0.01,0.5361416798223171,2.4000000000000004,5151.0,42.271319999999996,0.05,68900.0,0.33,276.0,2700.0,23.109718918383443,0.11554650019681383,311.97555053139735,11.697002914851682,2.812852301413484,11.412716003531761,2.69730580121667,73664,434,24414,37037,2408.318987333954,1370.2673853001554,0.02014492638141177,True
0.02,0.4700093682757347,2.4000000000000004,5152.0,42.271319999999996,0.1,68900.0,0.33,276.0,2700.0,19.194373633531537,0.19192698117449572,518.2028491711385,9.863596228294682,2.1005319303678136,9.330777405236855,1.908604949193318,16064,198,5316,8084,948.9773956377464,545.5222535398232,0.008602971530893611,True
0.03,0.4557007969426648,2.4000000000000004,5153.0,42.271319999999996,0.1,68900.0,0.33,276.0,2700.0,18.178088212804738,0.27261477452430743,736.05989121563,9.481379063793584,1.9621385863804417,8.696709149011154,1.6895238118561342,15094,190,4958,7651,659.6476544112733,376.5363312106008,0.0056208924523111405,True
0.04,0.7319802938092086,2.4000000000000004,5154.0,42.271319999999996,0.1,68900.0,0.33,276.0,2700.0,34.2230599914817,0.6843271585430813,1847.6833280663197,17.77100322017054,5.682608139769682,16.452056771311156,4.998280981226601,27664,274,9078,14041,915.8772881774664,522.0469660170277,0.008306726380205383,True
0.05,0.711431544623701,2.4000000000000004,5155.0,42.271319999999996,0.2,68900.0,0.33,276.0,2700.0,32.56024836765239,0.8137444098035115,2197.109906469481,17.088412961813393,5.32446761233589,15.471835405838998,4.510723202532378,6804,136,2234,3447,574.1397223535778,331.4520182894878,0.006348661869134314,True
0.06000000000000001,0.38314401632091843,2.4000000000000004,5156.0,42.271319999999996,0.1,68900.0,0.33,276.0,2700.0,13.807513739140594,0.4137730228321017,1117.1871616466747,7.622410527047144,1.342440636672936,6.18510321209345,0.9286676138408343,11981,166,3934,6074,269.2752779705215,154.66231052061795,0.002389731235625734,False
0.06999999999999999,0.5344274001468776,2.4000000000000004,5157.0,42.271319999999996,0.2,68900.0,0.33,276.0,2700.0,21.361965684043035,0.7469504214213872,2016.7661378377454,11.648089694189412,2.7928423030742615,9.713875989853623,2.0458918816528744,4397,106,1444,2225,319.8468594045015,184.66352100159537,0.003126637679171716,True
0.08,0.4467089600081905,2.4000000000000004,5158.0,42.271319999999996,0.1,68900.0,0.33,276.0,2700.0,16.4635271122567,0.6574687541978425,1775.1656363341747,9.243817787509068,1.8779531507173208,7.219709324747631,1.2204843965194785,14149,182,4650,7168,232.47781904519854,133.9249831498168,0.002206760327846071,False
0.09,0.6637524749208832,2.4000000000000004,5159.0,42.271319999999996,0.2,68900.0,0.33,276.0,2700.0,28.334215029057116,1.2735128622779275,3438.4847281504044,15.545484090360656,4.546717694625882,12.78873093869646,3.273204832347955,6006,126,1966,3051,310.3628542882124,177.912518423162,0.003280602200178291,True
0.09999999999999999,0.6695211392217966,2.4000000000000004,5160.0,42.271319999999996,0.2,68900.0,0.33,276.0,2700.0,28.393257213670744,1.4175684655811478,3827.434857069099,15.729124067586033,4.63692365037476,12.66413314608471,3.2193551847936117,6193,126,2026,3148,281.5111316533859,161.23641339458624,0.003010652062594327,True
0.11,0.521032969888813,2.4000000000000004,5161.0,42.271319999999996,0.1,68900.0,0.33,276.0,2700.0,19.589747644593388,1.0746484805713528,2901.5508975426524,11.268452014839065,2.6393703262866697,8.321295629754323,1.564721845715317,16146,198,5322,8157,197.1716140746626,113.68950337737543,0.0019919438998197937,False
0.12,0.5528653189394357,2.4000000000000004,5162.0,42.271319999999996,0.2,68900.0,0.33,276.0,2700.0,21.060096257437973,1.259986660709343,3401.9639839152264,12.178050204243723,3.0124813914967787,8.88204605319425,1.7524947307874357,4568,106,1496,2318,197.73224894581094,114.15231051570234,0.001983100533639964,False
0.13,0.6353232739598023,2.4000000000000004,5163.0,42.271319999999996,0.3,68900.0,0.33,276.0,2700.0,25.481623024088666,1.6517041105258068,4459.601098419678,14.652684591938915,4.117510914549782,10.828938432149751,2.465806804023975,2552,80,834,1295,217.35231978283352,125.0552562428701,0.002202625123318278,False
0.14,0.5900684927468247,2.4000000000000004,5164.0,42.271319999999996,0.3,68900.0,0.33,276.0,2700.0,22.605730264370195,1.576654098344949,4256.966065531363,13.27339254325036,3.4858107709432007,9.332337721119835,1.9091566725982516,2387,76,784,1205,193.13570556072258,111.50138005001156,0.0018689410589985368,False
0.15000000000000002,0.8197837373768871,2.4000000000000004,5165.0,42.271319999999996,0.3,68900.0,0.33,276.0,2700.0,36.54472232065771,2.7337855905787487,7381.221094562621,20.807218786335007,7.374840780093177,15.737503534322705,4.641055189514428,3761,100,1232,1907,233.05864021133138,134.4855321292282,0.002715525096043191,False
0.16,0.5608712739586087,2.4000000000000004,5166.0,42.271319999999996,0.3,68900.0,0.33,276.0,2700.0,20.47520975577897,1.6294381381229166,4399.482972931874,12.410825520286034,3.110909033281357,8.064384235492936,1.4814708951584405,2025,70,660,1029,162.57142412518144,93.85758547257362,0.0015540105834496907,False
0.17,0.8262392814787516,2.4000000000000004,5167.0,42.271319999999996,0.3,68900.0,0.33,276.0,2700.0,36.3456586917728,3.0790912256626304,8313.546309289102,21.038096027798193,7.509907354260377,15.307562663974604,4.430816128597746,3602,98,1180,1826,209.71084866776258,120.99678744452227,0.002442986888012518,False
0.18000000000000002,0.6673926246131008,2.4000000000000004,5168.0,42.271319999999996,0.3,68900.0,0.33,276.0,2700.0,25.99613615258171,2.3274377414951952,6284.081902037027,15.661267450601088,4.603516217112265,10.334868701980621,2.2760784756170698,2592,80,844,1320,163.0627523840432,94.13755899734608,0.0017382701608517697,False
0.19,0.6154863536514745,2.4000000000000004,5169.0,42.271319999999996,0.3,68900.0,0.33,276.0,2700.0,22.73293310649898,2.1452631891100893,5792.210610597241,14.041751443029595,3.832922642720533,8.691181663469385,1.687659453610444,2209,74,730,1108,148.26816003368282,85.55025058118741,0.001490994951917219,False
0.2,0.7534642786901755,2.4000000000000004,5170.0,42.271319999999996,0.3,68900.0,0.33,276.0,2700.0,30.691417413210544,3.0523865805019095,8241.443767355155,18.4960080421815,6.072167332184584,12.195409371029044,3.0197807516826747,2878,86,946,1453,166.816872639565,96.25802618759228,0.0018505609420869983,False
0.21000000000000002,0.7367016340567574,2.4000000000000004,5171.0,42.271319999999996,0.3,68900.0,0.33,276.0,2700.0,29.35790475985715,3.0631838067417365,8270.596278202689,17.929336416101062,5.76688464453585,11.428568343756087,2.703700837794113,2924,86,960,1478,154.274256562763,89.05936093413162,0.0017184879860067022,False
0.22,0.5553578514715785,2.4000000000000004,5172.0,42.271319999999996,0.3,68900.0,0.33,276.0,2700.0,18.72070130308648,2.0369760242892303,5499.835265580922,12.250348572512099,3.042925648393837,6.47035273057438,1.0059496241046069,1784,66,582,905,116.68766616197279,67.33223961255538,0.0011614911985744136,False
0.23,0.7356070161363146,2.4000000000000004,5173.0,42.271319999999996,0.3,68900.0,0.33,276.0,2700.0,28.729399555781892,3.2783984437040985,8851.675798001066,17.89257780991983,5.747278992654585,10.836821745862064,2.4688805489504864,2759,84,912,1385,454.79137764680627,259.3436915871296,0.0016168202201150875,True
0.24000000000000005,0.5686525317773701,2.4000000000000004,5174.0,42.271319999999996,0.2,68900.0,0.33,276.0,2700.0,18.951899771474654,2.2452750546814757,6062.242647639984,12.638611412137449,3.2083661100223217,6.313288359337205,0.963091055340846,3917,98,1298,1964,107.12512495721766,61.82353266577942,0.0011080098248837662,False
0.25,0.8842500003145874,2.4000000000000004,5175.0,42.271319999999996,0.3,68900.0,0.33,276.0,2700.0,37.77917378255161,4.689671799344055,12662.113858228948,23.15979670665604,8.791474250318588,14.61937707589557,4.101802450974533,3629,100,1186,1844,155.20439787942786,89.59450130275462,0.001873322973105014,False
0.26,0.6377819197833664,2.4000000000000004,5176.0,42.271319999999996,0.08,68900.0,0.33,276.0,2700.0,22.21937351423529,2.851707468530924,7699.610165033495,14.729094279727507,4.153630577377972,7.490279234507783,1.3019231088470478,49622,264,9340,30474,115.10778909125646,66.42541039816554,0.0012025857483955354,False
0.27,0.9094513768282644,2.4000000000000004,5177.0,42.271319999999996,0.3,68900.0,0.33,276.0,2700.0,38.88893570516837,5.20878234139732,14063.712321772766,24.107871508597036,9.387045880012394,14.781064196571336,4.178263538615074,3743,102,1230,1892,148.19104080216496,85.53380390358488,0.001815400907169298,False
0.28,0.9579001817266121,2.4000000000000004,5178.0,42.271319999999996,0.3,68900.0,0.33,276.0,2700.0,41.972706417950945,5.830202737225124,15741.547390507836,25.975353778743642,10.600043903939465,15.997352639207303,4.7698411667143406,4122,108,1360,2076,150.84092973522965,87.03171341882788,0.0018807565777768426,False
0.29000000000000004,0.627183636237079,2.4000000000000004,5179.0,42.271319999999996,0.08,68900.0,0.33,276.0,2700.0,20.914120702084105,2.9814672996499274,8049.961709054804,14.400805338309548,3.999269602711043,6.5133153637745576,1.0178023030611154,48715,254,8818,30130,105.148575328738,60.7046495122058,0.0010802266795660253,False
0.3,0.629675088671986,2.4000000000000004,5180.0,42.271319999999996,0.3,68900.0,0.33,276.0,2700.0,20.814893487050863,3.0656853552930197,8277.350459291152,14.477725935728424,4.035244313850257,6.337167551322439,0.9695589585572377,2055,70,680,1029,93.57896269581107,53.96271539663957,0.001038908589941372,False
0.31,0.7852510677013458,2.4000000000000004,5181.0,42.271319999999996,0.3,68900.0,0.33,276.0,2700.0,29.594875702990727,4.524811609468166,12216.991345564049,19.589973019783685,6.677415587871775,10.004902683207042,2.152603978403609,2905,86,960,1459,113.54199315182431,65.48648419750899,0.001319397054080735,False
0.32,0.9088630644821716,2.4000000000000004,5182.0,42.271319999999996,0.3,68900.0,0.33,276.0,2700.0,37.32291408295838,5.903037114558123,15938.200209306933,24.08555725789622,9.372869485866923,13.237356825062157,3.4698323713088,3648,100,1202,1839,127.02254128685267,73.30142526832837,0.001554130515229985,False
0.33,0.90256263750588,2.4000000000000004,5183.0,42.271319999999996,0.3,68900.0,0.33,276.0,2700.0,36.60078112461327,5.9638626087664885,16102.42904366952,23.847132143836788,9.221871804994178,12.753648980776482,3.2580091962276896,3184,94,1054,1597,125.51452192819198,72.3983736667137,0.0014958293103010786,False
0.34,0.9901686049079099,2.4000000000000004,5184.0,42.271319999999996,0.3,68900.0,0.33,276.0,2700.0,42.36824401722083,7.120283377823078,19224.765120122313,27.25188611682149,11.458753084104238,15.116357900399343,4.33846970628116,4061,106,1340,2045,130.39630666688893,75.19008060463264,0.001652601627048612,False
0.3500000000000001,1.0140030550310337,2.4000000000000004,5185.0,42.271319999999996,0.3,68900.0,0.33,276.0,2700.0,43.76501938449271,7.569081202271056,20436.51924613185,28.21157568889659,12.11969528323915,15.553443695596119,4.550614080968094,4067,108,1344,2045,128.07551142097338,73.70154834709774,0.0016630874782943103,False
0.36000000000000004,1.004355540120699,2.4000000000000004,5186.0,42.271319999999996,0.3,68900.0,0.33,276.0,2700.0,42.75553549575324,7.59828029133831,20515.356786613436,27.821400405234687,11.849407677706862,14.934135090518556,4.251127386368553,4101,108,1358,2058,125.81194898283485,72.5033560080901,0.0016021030075527368,False
0.37,0.9152067421737615,2.4000000000000004,5187.0,42.271319999999996,0.3,68900.0,0.33,276.0,2700.0,36.28350961342018,6.606361883361218,17837.177085075287,24.326627045583777,9.526424597985256,11.956882567836402,2.9200627146240388,3391,96,1120,1705,112.1197778765318,64.63606424118032,0.0013804833513634328,False
0.38,0.8681194221895717,2.4000000000000004,5188.0,42.271319999999996,0.3,68900.0,0.33,276.0,2700.0,32.91608119572054,6.139131779127823,16575.65580364512,22.56134309034483,8.422728831984182,10.354738105375706,2.2835970528563596,3151,92,1046,1576,104.94869829644001,60.40170443671183,0.0012587178441589599,False
0.39,1.0333753559093435,2.4000000000000004,5189.0,42.271319999999996,0.3,68900.0,0.33,276.0,2700.0,43.905608724415174,8.437356278182103,22780.861951091676,29.00211590612545,12.673860480632717,14.903492818289724,4.2365042024506145,4190,108,1388,2102,119.24058649678544,68.6572214099092,0.0015515886610646874,False
0.4,0.9294749621731782,2.4000000000000004,5190.0,42.271319999999996,0.3,68900.0,0.33,276.0,2700.0,36.379735292534185,7.141905771953671,19283.145584274913,24.872537685138813,9.877410767364994,11.507197607395373,2.735504995411323,3369,96,1118,1686,106.26886104426305,61.179930641393945,0.0013193108091958958,False
0.4100000000000001,1.1039844331203337,2.4000000000000004,5191.0,42.271319999999996,0.3,68900.0,0.33,276.0,2700.0,48.48053835496152,9.79416255791508,26444.238906370716,31.9633546894963,14.825480997690908,16.517183665465218,5.031318439775829,4478,114,1488,2240,120.79585984141794,69.42035519284967,0.0016228576276961235,False
0.42000000000000004,0.8900428156750957,2.4000000000000004,5192.0,42.271319999999996,0.3,68900.0,0.33,276.0,2700.0,33.24080507377665,6.825399521146988,18428.578707096865,23.37630935497718,8.926261378199719,9.864495718799468,2.100861857052731,3106,90,1030,1553,97.74058234012652,56.17137500160061,0.0011960476614361571,False
0.43,1.0616178952357083,2.4000000000000004,5193.0,42.271319999999996,0.3,68900.0,0.33,276.0,2700.0,44.70934550337015,9.445990211818604,25504.17357191023,30.171529493510405,13.509420302981338,14.537816009859746,4.063430091162735,4218,110,1400,2112,111.89488277112183,64.25616594436282,0.0014766707246772939,False
0.44,0.971705031997592,2.4000000000000004,5194.0,42.271319999999996,0.3,68900.0,0.33,276.0,2700.0,38.08883253227177,8.201134204697528,22143.062352683326,26.518267879221305,10.96237168749674,11.570564653050468,2.7612374827992117,3581,100,1198,1778,100.67721001258458,58.011570192211614,0.001288373258909161,False
0.45,1.0085535025495267,2.4000000000000004,5195.0,42.271319999999996,0.3,68900.0,0.33,276.0,2700.0,40.33416149671036,8.884334583054248,23987.70337424647,27.990891483379613,11.966556474970623,12.343270013330745,3.082221891916376,3669,102,1224,1825,102.0037621201399,58.59552460882241,0.0013261168720932878,False
0.46,0.7940242890291399,2.4000000000000004,5196.0,42.271319999999996,0.2,68900.0,0.33,276.0,2700.0,26.33540687064352,5.853283538561466,15803.865554115959,19.89638132054757,6.850625436617959,6.439025550095952,0.9973418980564928,7076,116,1784,3956,90.27630093904442,52.103938892437455,0.0009823899862550362,False
0.4700000000000001,1.0361979320369326,2.4000000000000004,5197.0,42.271319999999996,0.3,68900.0,0.33,276.0,2700.0,41.68467815132626,9.578452982845908,25861.82305368395,29.11808615914652,12.75588478097551,12.566591992179738,3.177431798129602,3838,102,1266,1921,107.60290941662103,61.842632084081856,0.001323804097629589,False
0.4800000000000001,0.9492373399520524,2.4000000000000004,5198.0,42.271319999999996,0.3,68900.0,0.33,276.0,2700.0,35.47995142091479,8.283564997855688,22365.62549421036,25.63710929573511,10.376489964903344,9.842842125179676,2.092924967047656,3178,92,1038,1597,90.75744529750244,52.14565197076509,0.0011609628908230661,False
0.49,1.018439708297303,2.4000000000000004,5199.0,42.271319999999996,0.3,68900.0,0.33,276.0,2700.0,39.86961640046135,9.521652528711574,25708.46182752125,28.391792871791893,12.245259860337601,11.477823528669454,2.7236073316260274,3975,102,1244,2049,102.34214168196566,58.926003946833326,0.0012523902952679769,False
0.5,0.9186685003263702,2.4000000000000004,5200.0,42.271319999999996,0.3,68900.0,0.33,276.0,2700.0,32.97465320854803,7.981863914337853,21551.032568712202,24.45860588520622,9.610865850011999,8.516047323341805,1.6290019356741459,3467,90,1022,1828,95.80966949390843,54.99258039606588,0.0010910362452656143,False
0.01,0.3152489375960062,2.4000000000000004,5201.0,45.2907,0.05,68900.0,0.33,276.0,2700.0,11.776652846380102,0.05888116983679802,158.97915855935466,6.002711678201632,0.8805567655089382,5.77394116817847,0.8216755956721402,38679,294,12800,19473,1488.3023455104512,848.7088356884788,0.011036107140684828,True
0.02,0.6199470277834307,2.4000000000000004,5202.0,45.2907,0.1,68900.0,0.33,276.0,2700.0,27.748351099707207,0.27746675583625485,749.1602407578881,14.178268405350984,3.8958626130992697,13.570082694356223,3.618395857263015,22751,242,7526,11456,1366.6257760748479,776.929137788407,0.013594612249306708,True
0.03,0.6720805720084928,2.4000000000000004,5203.0,45.2907,0.1,68900.0,0.33,276.0,2700.0,30.673921671830715,0.46005227640860596,1242.1411463032362,15.810869046713352,4.677285861494942,14.863052625117364,4.217233585086336,25587,260,8408,12969,1123.4343997037515,639.7660081471289,0.010320479704659517,True
0.04,0.35328924588305965,2.4000000000000004,5204.0,45.2907,0.08,68900.0,0.33,276.0,2700.0,12.853608101525909,0.2569381207439645,693.7329260087041,6.895926392929446,1.1257755601134416,5.957681708596463,0.8688374393694771,16632,194,5440,8466,423.8892750261802,242.9547732742126,0.0033820768378736627,True
0.05,0.5701960625796263,2.4000000000000004,5205.0,45.2907,0.1,68900.0,0.33,276.0,2700.0,23.92885833770534,0.597959659054834,1614.4910794480516,12.683977076276692,3.2279091999826672,11.244881261428647,2.629949540927833,19500,222,6392,9906,580.6869429336956,331.8482440332985,0.004958174049927526,True
0.06000000000000001,0.5825575808529226,2.4000000000000004,5206.0,45.2907,0.2,68900.0,0.33,276.0,2700.0,24.360889039352763,0.7303742818384663,1972.010560963859,13.049452462599609,3.386957373560441,11.311436576753154,2.656583091721975,5289,116,1740,2673,429.51087917657526,247.15182799183725,0.004313421159405312,True
0.06999999999999999,0.7537294190470526,2.4000000000000004,5207.0,45.2907,0.2,68900.0,0.33,276.0,2700.0,34.690026055005134,1.213432534405061,3276.2678428936647,18.505028010888836,6.0770725660975105,16.1849980441163,4.86364003169245,7218,140,2360,3672,518.4029827408846,296.3544902841772,0.005333316074022334,True
0.08,0.6229070369394174,2.4000000000000004,5208.0,45.2907,0.2,68900.0,0.33,276.0,2700.0,26.159892688719044,1.0453233772563368,2822.3731185921097,14.269134202640656,3.937964844873865,11.890758486078388,2.892641467617528,5573,120,1828,2825,362.150910849838,207.22198630263125,0.0036088935014048635,True
0.09,0.7401358243545058,2.4000000000000004,5209.0,45.2907,0.2,68900.0,0.33,276.0,2700.0,33.160184104733936,1.4906814706833817,4024.8399708451307,18.044856161196478,5.828655671268463,15.115327943537459,4.337974200585082,7050,138,2310,3579,370.0665125727476,211.9177640182138,0.004062463659705749,True
0.09999999999999999,0.7171349471697468,2.4000000000000004,5210.0,45.2907,0.2,68900.0,0.33,276.0,2700.0,31.3689527976086,1.566353244778074,4229.153760900799,17.276805135258524,5.422466559969099,14.092147662350076,3.856113315191025,6574,132,2158,3331,326.191684687244,187.0246093948456,0.0035347012967715235,True
0.11,0.41117241764251095,2.4000000000000004,5211.0,45.2907,0.05,68900.0,0.33,276.0,2700.0,14.006242757752041,0.7675557117950771,2072.400421846708,8.324839245721618,1.5658824787677077,5.681403512030423,0.7983267669726306,60939,322,14912,34611,172.61007687248585,99.571861311379,0.0016052994927923817,False
0.12,0.8137109239218121,2.4000000000000004,5212.0,45.2907,0.3,68900.0,0.33,276.0,2700.0,37.09927538205165,2.2223374081861653,6000.311002102646,20.590985671990794,7.24913946262798,16.508289710060858,5.026802054441815,3706,100,1218,1873,307.66081064295344,177.62104095640385,0.003544954957651944,True
0.13,0.7104912968130888,2.4000000000000004,5213.0,45.2907,0.2,68900.0,0.33,276.0,2700.0,30.045527891568884,1.9483579269120184,5260.56640266245,17.05743362603701,5.308414835328959,12.988094265531874,3.3600569084169405,6468,130,2128,3270,244.50601351094156,140.66227164816777,0.002734803238428229,False
0.14,0.5824900661204648,2.4000000000000004,5214.0,45.2907,0.3,68900.0,0.33,276.0,2700.0,22.180502347505353,1.5468881441644078,4176.597989243901,13.047445920345455,3.3860764110049337,9.133056427159898,1.839188266840526,2384,76,780,1208,203.03756114272227,117.22015664527065,0.001970292762450152,False
0.15000000000000002,0.7654573343265785,2.4000000000000004,5215.0,45.2907,0.3,68900.0,0.33,276.0,2700.0,32.9466394508488,2.4639293753430844,6652.609313426328,18.905774494199267,6.296444548779053,14.040864956649532,3.832515173435968,3289,92,1074,1672,287.7541015489369,165.1084597833271,0.0030861350195019017,True
0.16,0.5440886228994317,2.4000000000000004,5216.0,45.2907,0.3,68900.0,0.33,276.0,2700.0,19.570478484841026,1.557059636447881,4204.061018409278,11.92471636272089,2.9067114795186844,7.645762122120136,1.3496518430708033,2034,70,664,1032,167.02774070389867,96.42739199709868,0.0016046267134512424,False
0.17,0.7221809605385285,2.4000000000000004,5217.0,45.2907,0.3,68900.0,0.33,276.0,2700.0,29.602391386334915,2.505913504700408,6765.966462691102,17.44416435258398,5.510067528981163,12.158227033750936,3.004154024280755,2941,86,968,1483,201.49461502574016,116.3109809433539,0.00217671227503752,False
0.18000000000000002,0.6236703356764095,2.4000000000000004,5218.0,45.2907,0.3,68900.0,0.33,276.0,2700.0,23.456599257586998,2.098879420945672,5666.974436553314,14.292601515464147,3.94886541234242,9.16399774212285,1.849985991396748,2517,78,820,1281,167.88867579654135,96.88982846624491,0.0017054527132594126,False
0.19,0.854352634419596,2.4000000000000004,5219.0,45.2907,0.3,68900.0,0.33,276.0,2700.0,37.6203102617859,3.559564018862346,9610.822850928334,22.055759640840158,8.115617204454116,15.564550620945745,4.55605318559177,3556,98,1162,1807,207.59399775440733,119.74029424253742,0.002469467987960196,False
0.2,0.7054857882497717,2.4000000000000004,5220.0,45.2907,0.3,68900.0,0.33,276.0,2700.0,27.726339232459598,2.7558787624268155,7440.872658552402,16.892885853327705,5.223445790553927,10.833453379131893,2.4675670281271116,2592,82,854,1305,169.87544615075038,98.05975818270966,0.0018201477906502547,False
0.21000000000000002,0.6186000102079184,2.4000000000000004,5221.0,45.2907,0.3,68900.0,0.33,276.0,2700.0,22.39653925723291,2.3322404289661938,6297.049158208723,14.1369908219461,3.876792042301011,8.25954843528681,1.5445516133348174,2224,74,734,1117,144.4560302496296,83.33232862654862,0.001470690503966542,False
0.22,0.6909520261719302,2.4000000000000004,5222.0,45.2907,0.3,68900.0,0.33,276.0,2700.0,26.307638777268764,2.871539146449281,7753.155695413058,16.418681173138452,4.981381025482807,9.888957604130312,2.109841879033526,2604,80,858,1311,151.80248380320756,87.62041173357642,0.001622548056094125,False
0.23,0.5329242334338227,2.4000000000000004,5223.0,45.2907,0.1,68900.0,0.33,276.0,2700.0,17.326379730820733,1.9670511638335653,5311.038142350626,11.60526089558375,2.775365478900936,5.721118835236982,0.8083143150673708,19018,184,4708,10738,118.69646087681193,68.45639442233785,0.001155178417568758,False
0.24000000000000005,0.9179399101727135,2.4000000000000004,5224.0,45.2907,0.3,68900.0,0.33,276.0,2700.0,40.42943212954121,4.82257893764946,13020.963131653543,24.43080350665083,9.593055679671542,15.998628622890383,4.7704767420220815,3886,104,1278,1963,177.44347310217046,102.42649499459861,0.002195310664095848,False
0.25,0.6034181046339647,2.4000000000000004,5225.0,45.2907,0.1,68900.0,0.33,276.0,2700.0,20.573928588059943,2.5390161500325403,6855.343605087859,13.674914689046249,3.6656805095290528,6.899013899013694,1.1266643594965124,22839,202,5582,12968,122.0478643632528,70.43525287031432,0.0012449452404942154,False
0.26,0.6338471271839159,2.4000000000000004,5226.0,45.2907,0.1,68900.0,0.33,276.0,2700.0,22.000660819858915,2.823274818261996,7622.842009307389,14.606881956394533,4.095915213874405,7.393778863464382,1.272640395612409,24278,208,5822,13887,122.57121441887375,70.76341364631435,0.001278614142017087,False
0.27,0.6239198183322407,2.4000000000000004,5227.0,45.2907,0.2,68900.0,0.33,276.0,2700.0,21.211314065675925,2.822303420065668,7620.219234177303,14.300274934588336,3.9524321256872468,6.911039131087589,1.130128705621579,4320,104,1432,2166,113.58200310110357,65.25312073932226,0.0012037996034074444,False
0.28,0.9451460513951262,2.4000000000000004,5228.0,45.2907,0.3,68900.0,0.33,276.0,2700.0,41.06778951396641,5.703514370667559,15399.48880080241,25.478018850740874,10.271926738897248,15.589770663225536,4.568412368229689,3782,102,1236,1922,157.73597240310778,91.00519342685135,0.001984622339660271,False
0.29000000000000004,0.709465110540711,2.4000000000000004,5229.0,45.2907,0.3,68900.0,0.33,276.0,2700.0,25.560098201395533,3.655134037050085,9868.86190003523,17.023648143195903,5.290928068462549,8.53645005819963,1.6357940314124635,2457,78,808,1239,118.2278244537702,67.83204046181986,0.0013196254488338404,False
0.3,0.7217636381336816,2.4000000000000004,5230.0,45.2907,0.3,68900.0,0.33,276.0,2700.0,26.025708119021385,3.8473075500885914,10387.730385239196,17.430298904275997,5.502790581696336,8.595409214745388,1.6554830316077442,2653,80,878,1330,116.8930137586369,67.43788147396177,0.001306248657094081,False
0.31,0.7748063210528904,2.4000000000000004,5231.0,45.2907,0.3,68900.0,0.33,276.0,2700.0,28.951723107097084,4.425122957104654,11947.831984182567,19.227708429056012,6.4746975502150095,9.724014678041073,2.0495745931103553,2920,86,966,1465,120.03349106143986,69.26421782471085,0.0013908628828845245,False
0.32,0.847514726493414,2.4000000000000004,5232.0,45.2907,0.3,68900.0,0.33,276.0,2700.0,33.25800996764132,5.252652456107394,14182.161631489964,21.806408895680352,7.965655139126328,11.451601071960969,2.713002683018934,3233,92,1074,1616,128.16682156935966,73.92513843373604,0.001516553456445029,False
0.33,0.7529284119616275,2.4000000000000004,5233.0,45.2907,0.3,68900.0,0.33,276.0,2700.0,27.103120795262043,4.396748654423535,11871.221366943544,18.47778346468322,6.062260820158459,8.625337330578823,1.665512165734924,2602,80,862,1303,113.61026277230387,65.53775363990712,0.0012671690040751038,False
0.34,0.9294303648611328,2.4000000000000004,5234.0,45.2907,0.3,68900.0,0.33,276.0,2700.0,38.12513485127741,6.398954819612701,17277.178012954293,24.870823393986598,9.876301557267068,13.254311457290811,3.4773467376543667,3622,100,1192,1828,131.188217340474,75.67919152197412,0.001625322100457171,False
0.3500000000000001,0.9996310905394998,2.4000000000000004,5235.0,45.2907,0.3,68900.0,0.33,276.0,2700.0,42.73065507365556,7.388067447874617,19947.782109261465,27.631182332188093,11.718416432919309,15.09947274146747,4.330348985044692,3925,106,1300,1969,137.00907027772476,78.98477479172521,0.0017479970320342867,False
0.36000000000000004,1.0592559024874089,2.4000000000000004,5236.0,45.2907,0.3,68900.0,0.33,276.0,2700.0,46.7619286940912,8.31943106703916,22462.463881005733,30.07296039253425,13.438271806462483,16.688968301556955,5.118840739423323,4327,112,1428,2179,140.6238907777406,80.95305850756407,0.0018451461210043736,False
0.37,0.8556992422039069,2.4000000000000004,5237.0,45.2907,0.3,68900.0,0.33,276.0,2700.0,32.393629480760204,5.886734058819119,15894.181958811621,22.105003458640372,8.145350813015304,10.288626022119832,2.2586167541961846,3112,90,1032,1558,115.66767251439457,66.76040475468533,0.00135211970918941,False
0.38,0.7737048415466723,2.4000000000000004,5238.0,45.2907,0.3,68900.0,0.33,276.0,2700.0,27.074425235514777,5.029217146689289,13578.88629606108,19.189664637774364,6.453539578455987,7.884760597740414,1.424322431766698,2796,84,928,1396,101.42718387166722,58.45997666138074,0.0011737983880800826,False
0.39,0.8669838255432427,2.4000000000000004,5239.0,45.2907,0.3,68900.0,0.33,276.0,2700.0,32.571224676203414,6.227151388780804,16813.308749708172,22.519458203327954,8.39713203166955,10.05176647287546,2.1699806428887456,3041,90,1010,1520,108.79210104582761,62.667939214184074,0.0013161197511955425,False
0.4,0.9629071978182009,2.4000000000000004,5240.0,45.2907,0.3,68900.0,0.33,276.0,2700.0,38.6419925135949,7.59435721616582,20504.764483647712,26.171715041101947,10.73059424739082,12.470277472492953,3.1362370312250007,3586,100,1194,1789,117.78987698073298,67.73335647187017,0.0014800917216458368,False
0.4100000000000001,0.7480792537597751,2.4000000000000004,5241.0,45.2907,0.08,68900.0,0.33,276.0,2700.0,24.847614812821988,4.949413231776465,13363.415725796456,18.313193999586478,5.973058423908786,6.53442081323551,1.0236451921323209,71946,276,10162,46779,105.22936596202602,59.7380890964945,0.0010810193912413643,False
0.42000000000000004,0.7347262828919274,2.4000000000000004,5242.0,45.2907,0.2,68900.0,0.33,276.0,2700.0,23.85371620861014,4.854110859462023,13106.099320547462,17.8630235747279,5.731533420679167,5.99069263388224,0.877422561217144,6622,110,1680,3696,96.39196242347032,55.58376990006821,0.0010337486643825617,False
0.43,0.7861610434369797,2.4000000000000004,5243.0,45.2907,0.2,68900.0,0.33,276.0,2700.0,26.586499146397266,5.549578245069437,14983.86126168748,19.621664373197973,6.69525640558467,6.964834773199293,1.1456781605152333,7378,118,1836,4154,100.14186498039633,57.79524790569163,0.0010988615367832745,False
0.44,0.912552768369659,2.4000000000000004,5244.0,45.2907,0.3,68900.0,0.33,276.0,2700.0,34.157724105002146,7.33629035069821,19807.983946885168,24.225648787918672,9.46199640304093,9.932075317083473,2.1257060523427196,3162,92,1056,1570,102.06142482861195,58.71297509189142,0.0012728614702152148,False
0.45,1.1185147984144614,2.4000000000000004,5245.0,45.2907,0.3,68900.0,0.33,276.0,2700.0,48.28531029598473,10.673343062890984,28818.026269805658,32.58828236170009,15.29445400581173,15.697027934284641,4.621110942920746,4367,112,1452,2181,119.57839550734698,68.43209541587771,0.0016315932648895152,False
0.46,0.9633135991870845,2.4000000000000004,5246.0,45.2907,0.3,68900.0,0.33,276.0,2700.0,36.96084143432693,8.297133488208651,22402.260418163358,26.187680620136483,10.741233712285561,10.773160814190447,2.4441002240769105,3506,98,1156,1752,103.09758742892237,59.16607071788799,0.0013075115160033428,False
0.4700000000000001,1.0423228701182767,2.4000000000000004,5247.0,45.2907,0.3,68900.0,0.33,276.0,2700.0,42.11701196840251,9.680051429858826,26136.13886061883,29.370428141387123,12.935003564013583,12.746583827015385,3.254952134154756,3666,102,1218,1827,115.74939475599842,66.65195860546238,0.0014292255634028824,False
0.4800000000000001,0.9124754597436402,2.4000000000000004,5248.0,45.2907,0.3,68900.0,0.33,276.0,2700.0,33.094637717650734,7.711089709072132,20819.942214494757,24.22271000673697,9.460123665017186,8.871927710913763,1.7490339559450536,3384,92,1046,1751,99.62814924428422,57.14011569763318,0.0011915829557447761,False
0.49,0.932061724675131,2.4000000000000004,5249.0,45.2907,0.3,68900.0,0.33,276.0,2700.0,34.09389257462045,8.10660019138054,21887.820516727457,24.972056658863966,9.941878794900388,9.121835915756481,1.835278603519848,3499,92,1062,1824,104.67451012529284,60.4086191117291,0.0012030497908426356,False
0.5,0.8248935787771806,2.4000000000000004,5250.0,45.2907,0.1,68900.0,0.33,276.0,2700.0,27.21561518391806,6.542104408180371,17663.681902087003,20.989881663631458,7.481628777803858,6.225733520286603,0.939524369623487,49620,232,7220,32104,95.74492449541438,55.17672218094751,0.0010391807867050692,False
0.01,0.4488258137200806,2.4000000000000004,5251.0,48.31008,0.05,68900.0,0.33,276.0,2700.0,18.336780880682344,0.09168181000831127,247.54088702244044,9.29956146066159,1.8975799414466106,9.037219420020755,1.8058981314382994,59390,380,19696,29840,2205.4814711208164,1256.2150575278672,0.01815335697254723,True
0.02,0.33768728782683033,2.4000000000000004,5252.0,48.31008,0.08,68900.0,0.33,276.0,2700.0,12.584056624779695,0.12582381108697827,339.7242899348413,6.525181557851082,1.0210857326448093,6.058875066928613,0.895261921557831,16209,192,5346,8184,788.3993950043674,449.29989927628975,0.006553513233864737,True
0.03,0.3331927600154734,2.4000000000000004,5253.0,48.31008,0.08,68900.0,0.33,276.0,2700.0,12.146727840322894,0.1821443689370778,491.78979613011006,6.419514435694718,0.9919957747248818,5.727213404628176,0.8098514057878039,15688,188,5158,7945,555.7112403387383,317.26972794618644,0.004399351396912538,True
0.04,0.6612600163002823,2.4000000000000004,5254.0,48.31008,0.1,68900.0,0.33,276.0,2700.0,29.684944874977596,0.5935648562129944,1602.6251117750849,15.466397773233387,4.5080698109095625,14.218547101744209,3.914504954696568,24575,254,8076,12455,902.5475398462924,513.9740213680484,0.008031451383012912,True
0.05,0.5992303782022927,2.4000000000000004,5255.0,48.31008,0.1,68900.0,0.33,276.0,2700.0,25.621371508504847,0.6402724883248223,1728.7357184770203,13.548476460208883,3.6086786060042897,12.072895048295964,2.9684061176794674,21255,232,6984,10773,653.8045944860589,373.3666440210223,0.0056361142919247,True
0.06000000000000001,0.4656173353608978,2.4000000000000004,5256.0,48.31008,0.1,68900.0,0.33,276.0,2700.0,17.92977965850776,0.5374410004131166,1451.0907011154147,9.745726904301888,2.0574697114913656,8.18405275420587,1.520028711078249,15028,190,4936,7618,396.4468709304574,227.25938496622155,0.003464305316765552,True
0.06999999999999999,0.7256333221897759,2.4000000000000004,5257.0,48.31008,0.2,68900.0,0.33,276.0,2700.0,32.8474717016357,1.1489431320371266,3102.146456500242,17.55903621658933,5.570489296458937,15.288435485046367,4.421546164421811,6859,136,2248,3481,517.2886682843891,296.0615672437047,0.005346624954174362,True
0.08,0.6000539942401772,2.4000000000000004,5258.0,48.31008,0.2,68900.0,0.33,276.0,2700.0,24.814190508239808,0.9914952900371666,2677.03728310035,13.573308728063084,3.619847573462722,11.240881780176723,2.628352283425555,5171,116,1698,2618,359.03566237341715,206.54820535774866,0.0036660168734200657,True
0.09,0.39754430687675557,2.4000000000000004,5259.0,48.31008,0.1,68900.0,0.33,276.0,2700.0,13.807064886350844,0.6197911058561433,1673.4359858115868,7.9808346739884275,1.454780014718545,5.826230212362416,0.8349889088624017,11456,162,3766,5801,212.74128411861753,122.7808879927458,0.0019662528925044266,False
0.09999999999999999,0.4309564955613836,2.4000000000000004,5260.0,48.31008,0.2,68900.0,0.33,276.0,2700.0,15.199669816975172,0.7578890957463664,2046.3005585151893,8.832541196466321,1.735587736216609,6.367128620508851,0.9776986404702426,3186,88,1042,1617,217.99574499909647,125.85920313341316,0.0019693317317680766,False
0.11,0.6479674620079103,2.4000000000000004,5261.0,48.31008,0.3,68900.0,0.33,276.0,2700.0,26.796437350839376,1.4710164144148827,3971.7443189201836,15.047258513850602,4.305272513562783,11.749178836988774,2.8342560991479004,2660,82,878,1337,302.5948794610393,174.70301535123107,0.003016833126928435,True
0.12,0.6261156249296909,2.4000000000000004,5262.0,48.31008,0.1,68900.0,0.33,276.0,2700.0,25.2188372214327,1.5095111185487229,4075.680020081552,14.367879545363396,3.9839069648854744,10.850957676069305,2.4743958463367512,20466,228,6752,10332,251.1255123496018,144.6432111717726,0.0026581300976011102,False
0.13,0.6266483736792829,2.4000000000000004,5263.0,48.31008,0.1,68900.0,0.33,276.0,2700.0,24.973197181767528,1.6186564307749312,4370.372363092314,14.384300109222554,3.9915658084480925,10.588897072544974,2.372909377673161,20399,228,6728,10301,230.54899025044546,132.80722281180277,0.0024699108625926146,False
0.14,0.7477090353769822,2.4000000000000004,5264.0,48.31008,0.3,68900.0,0.33,276.0,2700.0,32.1055784826335,2.2416434736233777,6052.43737878312,18.3006523799375,5.966280864517831,13.804926102695998,3.7246373908944532,3176,90,1038,1613,269.8730672663312,155.80953584785516,0.002920208059302411,False
0.15000000000000002,0.6296109692520512,2.4000000000000004,5265.0,48.31008,0.3,68900.0,0.33,276.0,2700.0,24.598707933367606,1.8378345115318162,4962.153181135904,14.475744369937619,4.034316073991134,10.122963563429987,2.1964815624593177,2627,80,856,1337,213.9032107215368,123.46680501270573,0.0021779159590879934,False
0.16,0.7719616397795865,2.4000000000000004,5266.0,48.31008,0.3,68900.0,0.33,276.0,2700.0,33.06375166500125,2.6365214908606984,7118.608025323886,19.1295188381015,6.420140555376119,13.934232826899748,3.783619064515421,3327,94,1090,1686,242.5815373340618,140.03963296299634,0.0026898893605382945,False
0.17,0.6199195384626335,2.4000000000000004,5267.0,48.31008,0.3,68900.0,0.33,276.0,2700.0,23.5058325079911,1.9877060000411875,5366.806200111206,14.177425575421367,3.895472873715179,9.328406932569735,1.9077668736739917,2378,76,776,1208,191.77911527202627,110.67759420336644,0.0019053282633695258,False
0.18000000000000002,0.6713277188709963,2.4000000000000004,5268.0,48.31008,0.3,68900.0,0.33,276.0,2700.0,26.229412900367446,2.3484326487959133,6340.7681517489655,15.786806798006442,4.665391657689494,10.442606102361005,2.3169590088935803,2705,82,892,1361,192.44107935587215,111.10198062467305,0.0020041482828708906,False
0.19,0.494333090433109,2.4000000000000004,5269.0,48.31008,0.2,68900.0,0.33,276.0,2700.0,16.27826602308203,1.532069816185479,4136.588503700794,10.525151108040335,2.3484669026613263,5.753114915041694,0.8163970864758472,3465,90,1142,1746,134.42782008255207,77.18322131326289,0.001312654014491412,False
0.2,0.7995534901878701,2.4000000000000004,5270.0,48.31008,0.3,68900.0,0.33,276.0,2700.0,33.64870101675535,3.3481149408563877,9039.910340312246,20.09048466655463,6.961172795458232,13.558216350200723,3.6130578546018444,3335,94,1096,1685,199.76643917194576,115.24456972885685,0.0022913457745628416,False
0.21000000000000002,0.6672362943902148,2.4000000000000004,5271.0,48.31008,0.3,68900.0,0.33,276.0,2700.0,25.17843767929854,2.624339763283085,7085.71736086433,15.656288163170322,4.601068276895595,9.522149516128218,1.97672851361251,2489,78,810,1268,161.59514734621166,93.29646975488326,0.0017267680524887272,False
0.22,0.6246222581147732,2.4000000000000004,5272.0,48.31008,0.3,68900.0,0.33,276.0,2700.0,22.480804200180142,2.450587342969438,6616.585826017482,14.321888505996547,3.9624847980929703,8.158915694183595,1.5118974551235325,2374,76,782,1195,146.00106596162684,84.28491526109848,0.0015274643655864611,False
0.23,0.5500455003195341,2.4000000000000004,5273.0,48.31008,0.3,68900.0,0.33,276.0,2700.0,18.20978157903311,2.06864237637799,5585.334416220574,12.096446822256775,2.9782565991040983,6.113334756776334,0.9096142227261081,1763,64,574,896,123.27024664363051,71.0287154353433,0.0012598550205143273,False
0.24000000000000005,0.6879697236962294,2.4000000000000004,5274.0,48.31008,0.3,68900.0,0.33,276.0,2700.0,25.599035900077276,3.042931390113792,8215.91475330724,16.322031649474837,4.932559726583052,9.277004250602438,1.8896283364692597,2630,80,866,1325,146.00816960760173,84.27044353395152,0.0015928924358699554,False
0.25,0.7416445027473719,2.4000000000000004,5275.0,48.31008,0.3,68900.0,0.33,276.0,2700.0,28.54699512310003,3.535649466912611,9546.25356066405,18.095698993411567,5.855917901410451,10.451296129688462,2.32026843449784,2824,84,932,1420,149.46343014105528,86.26927094449812,0.0016913741272012815,False
0.26,0.5835605020405232,2.4000000000000004,5276.0,48.31008,0.2,68900.0,0.33,276.0,2700.0,19.27404117174245,2.468814264006857,6665.798512818514,13.079272836527025,3.4000598975513827,6.194768335215425,0.9312456335445258,4093,100,1360,2047,115.84211326441167,66.71032256496926,0.0012226406804421732,False
0.27,0.895961952871275,2.4000000000000004,5277.0,48.31008,0.3,68900.0,0.33,276.0,2700.0,37.96155891409951,5.08358647460255,13725.683481426884,23.598414575841492,9.065285861705812,14.36314433825802,3.981699387103262,3647,100,1196,1847,167.95917645875772,96.94583531194291,0.0020311003876870705,False
0.28,0.8645467150860782,2.4000000000000004,5278.0,48.31008,0.3,68900.0,0.33,276.0,2700.0,35.53829929439108,4.929385739926611,13309.341497801852,22.429678224180257,8.342359056772768,13.108621070210823,3.4129733168461565,3507,98,1150,1776,157.063779663943,90.6637306913565,0.0018712551361413164,False
0.29000000000000004,0.9737005007493211,2.4000000000000004,5279.0,48.31008,0.3,68900.0,0.33,276.0,2700.0,42.78120648401138,6.1521947380293645,16610.925792679285,26.597141438913262,11.015366740620042,16.184065045098116,4.8631720025906775,4134,108,1362,2085,170.22542270131808,98.21421806597081,0.002131432524765156,False
0.3,0.7954118997783093,2.4000000000000004,5280.0,48.31008,0.3,68900.0,0.33,276.0,2700.0,30.499858227054084,4.518430066293498,12199.761178992445,19.945021363571257,6.878267610335398,10.554836863482826,2.3598375440419,2982,88,984,1500,137.8137569120351,79.49547310479316,0.0015737065098956212,False
0.31,0.8626699972249083,2.4000000000000004,5281.0,48.31008,0.3,68900.0,0.33,276.0,2700.0,34.533035416910316,5.290226365125701,14283.611185839392,22.36064411464109,8.300329671645814,12.172391302269226,3.0101033065201133,3191,94,1058,1598,141.4071660569637,81.55975747505185,0.001701694732356309,False
0.32,0.6830636144011147,2.4000000000000004,5282.0,48.31008,0.1,68900.0,0.33,276.0,2700.0,23.294831162272462,3.658543847248373,9878.068387570607,16.163522333797406,4.852871134732196,7.131308828475056,1.1943272874838224,32756,214,6222,20065,119.94352255545719,69.23043259881808,0.0012589365861088437,False
0.33,0.8412071208096062,2.4000000000000004,5283.0,48.31008,0.3,68900.0,0.33,276.0,2700.0,32.57026366958344,5.298827228686566,14306.833517453728,21.577438082848385,7.828831564828925,10.992825586735055,2.530004336142359,3058,90,1014,1531,132.5254293100723,76.36491349548096,0.0015584460312986408,False
0.34,0.9012458485533099,2.4000000000000004,5284.0,48.31008,0.3,68900.0,0.33,276.0,2700.0,36.219183175688826,6.074943034762641,16402.34619385913,23.797427349838717,9.190502894980481,12.42175582585011,3.1155598602178403,3182,94,1054,1595,135.08408285621772,77.80021509104132,0.0016636053361295223,False
0.3500000000000001,0.8515479527642573,2.4000000000000004,5285.0,48.31008,0.3,68900.0,0.33,276.0,2700.0,32.67758199519791,5.628779659144523,15197.705079690211,21.953342136101945,8.053901490450423,10.724239859095967,2.4251218313059004,3080,90,1024,1538,126.54422904280804,72.93185314253111,0.001504497502730907,False
0.36000000000000004,0.9277680303481717,2.4000000000000004,5286.0,48.31008,0.3,68900.0,0.33,276.0,2700.0,37.419602173937356,6.637812293411464,17922.093192210952,24.80696001272308,9.835011019945735,12.612642161214275,3.197198726534271,3374,96,1116,1694,135.54657271539915,78.1491223203496,0.0016444749934442864,False
0.37,0.8027180729573857,2.4000000000000004,5287.0,48.31008,0.3,68900.0,0.33,276.0,2700.0,29.080147502274414,5.273739892798958,14239.097710557187,20.20192349631372,7.024927059390217,8.878224005960693,1.7511871665912588,2879,86,952,1445,114.40202965819219,65.94353228716272,0.0013336926619262283,False
0.38,0.7927041308048618,2.4000000000000004,5288.0,48.31008,0.3,68900.0,0.33,276.0,2700.0,28.21394559154606,5.245726014335154,14163.460238704916,19.850150617676512,6.82438958592436,8.363794973869549,1.578663571589206,2762,84,920,1376,111.89980036505904,64.48512518651803,0.0012782979435285225,False
0.39,0.8678490406366197,2.4000000000000004,5289.0,48.31008,0.3,68900.0,0.33,276.0,2700.0,32.626562644680305,6.237942292633802,16842.444190111266,22.551367506840958,8.416630009650719,10.075195137839348,2.178687717016917,3098,90,1024,1556,119.14812014184298,68.72128213363698,0.001405855780302233,False
0.4,0.7352710685101311,2.4000000000000004,5290.0,48.31008,0.3,68900.0,0.33,276.0,2700.0,24.349615039898087,4.735881721426456,12786.880647851433,17.88130231781218,5.741269917679852,6.468312722085905,1.0053881962533957,2397,76,794,1200,95.59618539744258,54.97844898787986,0.0011184724446142624,False
0.4100000000000001,0.7468744558453115,2.4000000000000004,5291.0,48.31008,0.2,68900.0,0.33,276.0,2700.0,24.77842670190321,4.935229669038118,13325.12010640292,18.272392569912583,5.951019308372304,6.506034131990628,1.0157896393341863,6697,112,1686,3750,106.91697984822667,61.61897045272724,0.0011417173652005649,False
0.42000000000000004,1.0237776412076889,2.4000000000000004,5292.0,48.31008,0.3,68900.0,0.33,276.0,2700.0,42.29506633185994,8.726794385344483,23562.344840430105,28.60927576432831,12.397393481887317,13.685790567531633,3.6705990965428335,3972,106,1318,1989,157.1758729018414,90.7278071004835,0.002780405135605241,False
0.43,0.7385668766508278,2.4000000000000004,5293.0,48.31008,0.2,68900.0,0.33,276.0,2700.0,23.84161014111044,4.959427108932769,13390.453194118478,17.9920429168205,5.800385674329197,5.849567224289942,0.840958565396428,6627,110,1658,3724,102.83910889504662,59.312403612839034,0.001088290436355573,False
0.44,0.7730780843656185,2.4000000000000004,5294.0,48.31008,0.2,68900.0,0.33,276.0,2700.0,25.584855835900797,5.450259331495915,14715.700195038971,19.168030802341214,6.441519098438759,6.416825033559583,0.9912597669428438,7129,116,1798,3992,103.00959007319163,59.41770411652631,0.0011251989784053177,False
0.45,0.754560783919683,2.4000000000000004,5295.0,48.31008,0.3,68900.0,0.33,276.0,2700.0,24.291612834448436,5.274761134045319,14241.85506192236,18.533322166205586,6.092468756532757,5.75829066824285,0.817707622487438,2340,74,764,1178,85.87529707456912,48.984011416992594,0.001065293278569052,False
0.46,1.0804437979118546,2.4000000000000004,5296.0,48.31008,0.3,68900.0,0.33,276.0,2700.0,45.155674740521654,10.181945148633439,27491.251901310283,30.962171957395988,14.084854885684406,14.193502783125666,3.902909737050967,4223,108,1388,2123,122.70709414631,70.4799810707858,0.001630357882515336,False
0.4700000000000001,1.109814854245247,2.4000000000000004,5297.0,48.31008,0.2,68900.0,0.33,276.0,2700.0,47.00586278925811,10.828931372759728,29238.114706451266,32.21347431625267,15.01256955236821,14.792388473005438,4.183638179608483,12758,166,3144,7212,127.37288260158559,73.29860993984391,0.0016802458274864042,False
0.4800000000000001,1.0515991801675255,2.4000000000000004,5298.0,48.31008,0.3,68900.0,0.33,276.0,2700.0,42.479666986496525,9.963496733595305,26901.441180707323,29.754399152565394,13.209232007006845,12.725267833931131,3.2457352734115403,3817,104,1270,1898,117.27320781748932,67.41156757875993,0.0015097952180910773,False
0.49,0.9979345555925205,2.4000000000000004,5299.0,48.31008,0.3,68900.0,0.33,276.0,2700.0,38.464577523869984,9.177418003946688,24779.028610656056,27.563012512783974,11.671597002933838,10.90156501108601,2.4941789989871506,3516,98,1132,1778,115.68653919610348,66.66816242800066,0.0013945926148460884,False
0.5,0.8332288790593406,2.4000000000000004,5300.0,48.31008,0.08,68900.0,0.33,276.0,2700.0,27.709615769921204,6.6656045546811535,17997.132297639113,21.289254192896827,7.6578322114284125,6.4203615770243765,0.992227656747259,95577,294,11418,63696,114.36196448920418,64.96114214355717,0.0011216289120788078,False
0.01,0.6228663081026682,2.4000000000000004,5301.0,51.32946,0.05,68900.0,0.33,276.0,2700.0,28.22968165715291,0.14114631389066185,381.095047504787,14.26788242244005,3.9373837051282905,13.96179923471286,3.7962373912376286,90838,490,30144,45616,3615.8103489161317,2058.3413933864363,0.03103410451791746,True
0.02,0.5932996942439202,2.4000000000000004,5302.0,51.32946,0.1,68900.0,0.33,276.0,2700.0,26.14554461678589,0.261438691007291,705.8844657196857,13.370167958507754,3.5288560565779057,12.775376658278137,3.2674173655706147,21787,236,7218,10954,2046.0471297941087,1180.6066179188183,0.016145827884147035,True
0.03,0.5919380217604282,2.4000000000000004,5303.0,51.32946,0.1,68900.0,0.33,276.0,2700.0,25.771316608703366,0.3865132004627874,1043.5856412495261,13.329353485498853,3.510678060029008,12.441963123204513,3.1241648595662204,21510,234,7080,10884,1112.1718735843215,633.7013889327694,0.009527486555403792,True
0.04,0.47242530159899865,2.4000000000000004,5304.0,51.32946,0.1,68900.0,0.33,276.0,2700.0,18.799265694533965,0.37585127260412604,1014.7984360311403,9.92863950261985,2.1244402617565203,8.870626191914115,1.7485889891523942,15696,194,5156,7956,648.2599959280533,370.5005374871746,0.005451772456641643,True
0.05,0.7329337700077017,2.4000000000000004,5305.0,51.32946,0.2,68900.0,0.33,276.0,2700.0,33.96226898077092,0.848794925131474,2291.7462978549797,17.8029335150331,5.699567588936073,16.159335465737822,4.850772663804599,7373,140,2416,3743,738.816280123432,421.08906320898217,0.008090671455750754,True
0.06000000000000001,0.5202307900350928,2.4000000000000004,5306.0,51.32946,0.2,68900.0,0.33,276.0,2700.0,20.847688659260577,0.6249782704357006,1687.4413301763918,11.245858979396283,2.6303400640178043,9.601829679864293,2.0053617935821038,4488,106,1480,2262,440.0993675674546,253.97177412588007,0.004231604233009056,True
0.06999999999999999,0.5183555063595714,2.4000000000000004,5307.0,51.32946,0.1,68900.0,0.33,276.0,2700.0,20.480272552743592,0.7160911618259073,1933.4461369299497,11.19310555237328,2.6093003658888843,9.287167000370312,1.8932092040629769,17436,206,5724,8844,403.6427316177756,231.54268887516653,0.003649282278409292,True
0.08,0.773212925545489,2.4000000000000004,5308.0,51.32946,0.3,68900.0,0.33,276.0,2700.0,35.66478495166072,1.4255190677740053,3848.901482989814,19.172684294251052,6.4441040520639765,16.49210065740967,5.018584984289971,3584,98,1180,1808,499.761728201474,288.5355667682728,0.005509142231255243,True
0.09,0.5045339373511954,2.4000000000000004,5309.0,51.32946,0.2,68900.0,0.33,276.0,2700.0,19.2174279866992,0.8632574453718211,2330.795102503917,10.807018645521774,2.4572677785621697,8.410409341177425,1.5940103331903486,4182,100,1360,2136,290.4722990222362,167.20888858862486,0.0027999314636860764,True
0.09999999999999999,0.6609105422442139,2.4000000000000004,5310.0,51.32946,0.2,68900.0,0.33,276.0,2700.0,27.867292583629215,1.3912702340790655,3756.4296320134767,15.455321357282148,4.502666641696381,12.411971226347067,3.1113964076173155,5876,124,1926,2981,350.13355980218466,201.03959012299146,0.0035969166813786236,True
0.11,0.6245509458951423,2.4000000000000004,5311.0,51.32946,0.3,68900.0,0.33,276.0,2700.0,25.40604508803846,1.394544839960828,3765.271067894236,14.319693714253424,3.9614635506925198,11.086351373785037,2.5669187107316915,2560,80,838,1297,308.4948748046977,177.80040122600946,0.0030573773852353987,True
0.12,0.7784832666268784,2.4000000000000004,5312.0,51.32946,0.3,68900.0,0.33,276.0,2700.0,34.73340123849311,2.08038495957265,5617.039390846155,19.354926544518268,6.545630570547791,15.378474693974841,4.465245610975142,3420,96,1128,1722,342.63408661074504,197.81987362168783,0.0037803208337684894,True
0.13,0.8192198051147103,2.4000000000000004,5313.0,51.32946,0.3,68900.0,0.33,276.0,2700.0,37.14961664021852,2.410123695574239,6507.333978050446,20.78709995547823,7.363112591337916,16.36251668474029,4.952988895763676,3733,100,1226,1888,325.5248480488386,187.92287365686013,0.003765320989849782,True
0.14,0.6925638662357699,2.4000000000000004,5314.0,51.32946,0.3,68900.0,0.33,276.0,2700.0,28.640327089743618,1.9990758761210887,5397.504865526939,16.471010234869762,5.007887477861681,12.169316854873856,3.008811601740592,2754,84,906,1389,265.4952204922357,153.20034105243784,0.0027979104886802957,False
0.15000000000000002,0.6130570690175827,2.4000000000000004,5315.0,51.32946,0.3,68900.0,0.33,276.0,2700.0,23.644855109468466,1.7662955497395583,4768.997984296808,13.967614591169173,3.798901311490316,9.677240518299293,2.032605761750758,2359,76,772,1195,226.61273223641692,130.80720738742636,0.0022368129250983707,False
0.16,0.6329788594026591,2.4000000000000004,5316.0,51.32946,0.3,68900.0,0.33,276.0,2700.0,24.52352987028726,1.9533037472835757,5273.920117665654,14.579966480387654,4.083244215178519,9.943563389899605,2.1299404678949436,2525,78,824,1283,217.3441433490059,125.44553335280496,0.0021962799531892933,False
0.17,0.5965855619079174,2.4000000000000004,5317.0,51.32946,0.3,68900.0,0.33,276.0,2700.0,22.188376792856214,1.87572226425472,5064.450113487744,13.468849740314054,3.5729507124691215,8.71952705254216,1.6972284482144016,2249,74,740,1133,196.32858187861467,113.31454405054589,0.0019250145558222618,False
0.18000000000000002,0.7718999105718791,2.4000000000000004,5318.0,51.32946,0.3,68900.0,0.33,276.0,2700.0,32.455602210948925,2.9087896867482423,7853.732154220254,19.127390391491282,6.418959771028572,13.328211819457643,3.5101700842803294,3352,94,1100,1696,226.18201757207945,130.54184063202877,0.0025592131675461816,False
0.19,0.5698899048452092,2.4000000000000004,5319.0,51.32946,0.08,68900.0,0.33,276.0,2700.0,20.217111499293573,1.9062601364255745,5146.902368349051,12.674974083291238,3.2240272805256653,7.542137416002335,1.3177671441000909,34695,250,8534,19658,163.75284721790896,94.499828539121,0.0016600221619331823,False
0.2,0.8311288872140554,2.4000000000000004,5320.0,51.32946,0.3,68900.0,0.33,276.0,2700.0,35.73634815865517,3.556879655046367,9603.57506862519,21.213665865769844,7.613204338062378,14.522682292885325,4.056324683016011,3628,98,1188,1840,218.62932089620404,126.22499676188298,0.002569511945111598,False
0.21000000000000002,0.7487298768801087,2.4000000000000004,5321.0,51.32946,0.3,68900.0,0.33,276.0,2700.0,30.10623442471541,3.141758421551858,8482.747738190017,18.335243033533327,5.9849805835608745,11.770991391182083,2.8432221620090163,2925,86,962,1476,191.77105547542394,110.65070482718195,0.002130459423032059,False
0.22,0.8352180403630971,2.4000000000000004,5322.0,51.32946,0.3,68900.0,0.33,276.0,2700.0,35.39451121390957,3.871095114479772,10451.956809095384,21.360955435763028,7.700251268239401,14.033555778146539,3.8291561537596293,3452,96,1134,1745,201.93948977809188,116.58963506524371,0.0023697790261843887,False
0.23,0.7233367874324295,2.4000000000000004,5323.0,51.32946,0.3,68900.0,0.33,276.0,2700.0,27.980350977090527,3.192257857154595,8619.096214317406,17.48258930504848,5.530252166344265,10.497761672042046,2.3379943091896704,2836,84,936,1426,169.548337271922,97.84733349889497,0.0018745337802061294,False
0.24000000000000005,0.7456884704308808,2.4000000000000004,5324.0,51.32946,0.3,68900.0,0.33,276.0,2700.0,29.07134906590607,3.4596089700132344,9340.944219035733,18.232263871476622,5.929372316817193,10.839085194429448,2.4697633468039584,2756,84,912,1382,166.63593017757705,96.14897562364904,0.0018771802745220117,False
0.25,0.6946745900081372,2.4000000000000004,5325.0,51.32946,0.3,68900.0,0.33,276.0,2700.0,25.729986807122607,3.18352342741543,8595.51325402166,16.539634502621517,5.042725634461123,9.19035230450109,1.8592022070456928,2612,80,858,1319,150.0156989629834,86.4011514589704,0.0016535450801005336,False
0.26,0.8774299094645593,2.4000000000000004,5326.0,51.32946,0.3,68900.0,0.33,276.0,2700.0,37.00714114972789,4.774117261144966,12890.116605091407,22.90596951585701,8.634388559360929,14.101171633870884,3.860271298215963,3458,98,1140,1742,181.212836766462,104.60778619301473,0.0021712526283380277,False
0.27,0.8451416821023428,2.4000000000000004,5327.0,51.32946,0.3,68900.0,0.33,276.0,2700.0,34.549884545861545,4.623010434890444,12482.1281742042,21.72014827527727,7.9140099409364275,12.829736270584274,3.290999506045983,3490,96,1146,1765,167.32015362515,96.50288008540205,0.001995913124488978,False
0.28,0.8636619621583843,2.4000000000000004,5328.0,51.32946,0.3,68900.0,0.33,276.0,2700.0,35.47941302080424,4.9211416616248576,13287.082486387115,22.397122010093515,8.322528736849753,13.082291010710723,3.4013870752248954,3507,98,1150,1776,166.72199778650162,96.23908765578075,0.0019853952348443523,False
0.29000000000000004,0.658505661162968,2.4000000000000004,5329.0,51.32946,0.08,68900.0,0.33,276.0,2700.0,22.64258564490307,3.232094716358679,8726.655734168433,15.379183020066197,4.465590012712973,7.263402624836871,1.2334952963542936,52341,264,9406,32438,219.83909111970968,125.6669524856579,0.0017535858532663864,False
0.3,0.7713240035087232,2.4000000000000004,5330.0,51.32946,0.3,68900.0,0.33,276.0,2700.0,29.006508981131816,4.294427679405051,11594.954734393637,19.10753751105697,6.407949888909939,9.898971470074844,2.113522209504888,2908,86,962,1459,139.53450884119633,80.26250222005832,0.0016119262760730998,False
0.31,0.9291136707361092,2.4000000000000004,5331.0,51.32946,0.3,68900.0,0.33,276.0,2700.0,39.011377213904645,5.984369343659825,16157.797227881527,24.85865131929783,9.868427041092485,14.152725894606814,3.8840576974326595,3609,100,1188,1821,159.96009025257646,92.2855392692476,0.0020005540359851596,False
0.32,0.7809675254365414,2.4000000000000004,5332.0,51.32946,0.3,68900.0,0.33,276.0,2700.0,29.062539326923787,4.5813771535925865,12369.718314699983,19.441071401936323,6.593820188276212,9.621467924987464,2.012443034683626,2892,86,958,1449,133.5160742589498,76.7679681268872,0.0015487201802637676,False
0.33,0.7347386972209357,2.4000000000000004,5333.0,51.32946,0.3,68900.0,0.33,276.0,2700.0,26.02529584465106,4.2189075375723615,11391.050351445376,17.863440019433302,5.731755180716861,8.161855825217756,1.5128476431444993,2606,80,864,1304,125.8241131585072,72.5846564515495,0.0013966395260708077,False
0.34,0.6668210801137173,2.4000000000000004,5334.0,51.32946,0.08,68900.0,0.33,276.0,2700.0,21.913651309677036,3.643002617540634,9836.107067359711,15.64306611955776,4.594570307673849,6.2705851901192755,0.9515676901332153,56593,260,9244,35787,119.80542349459262,69.08556793146371,0.0012416203587425209,False
0.3500000000000001,0.9989212819182833,2.4000000000000004,5335.0,51.32946,0.3,68900.0,0.33,276.0,2700.0,42.67983850477802,7.379174548321047,19923.771280466826,27.602652146379512,11.69881370772044,15.077186358398507,4.319639159399393,3917,106,1296,1967,156.0422912446279,89.92778072022449,0.0019790617481950405,False
0.36000000000000004,0.8434448864699153,2.4000000000000004,5336.0,51.32946,0.3,68900.0,0.33,276.0,2700.0,31.885732393858227,5.641715732997223,15232.632479092503,21.65855620684036,7.877207553014895,10.227176187017868,2.235491820017671,3145,90,1042,1576,129.8653184137822,74.81092113454088,0.0015404988884058018,False
0.37,0.7785314311956255,2.4000000000000004,5337.0,51.32946,0.3,68900.0,0.33,276.0,2700.0,27.614405331224162,5.0025775911549495,13506.959496118363,19.356595238199663,6.546562832423661,8.2578100930245,1.5439852412687118,2765,84,922,1376,119.80606382668363,69.05679250382738,0.0013626643365554155,False
0.38,0.7917966880545266,2.4000000000000004,5338.0,51.32946,0.2,68900.0,0.33,276.0,2700.0,28.159107286335594,5.235306736345244,14135.328188132158,19.81839822554478,6.8063911189573,8.340709060790815,1.5710843826120557,7678,122,1944,4290,126.85807908620545,73.23314862972097,0.0013843024062189483,False
0.39,0.9608950466447568,2.4000000000000004,5339.0,51.32946,0.3,68900.0,0.33,276.0,2700.0,38.797268836503825,7.441230000039384,20091.321000106334,26.092728335069527,10.678012283918848,12.704540501434298,3.2367822838794647,3571,100,1188,1783,138.61055986145206,79.8818840067811,0.0017094464886205634,False
0.4,0.9638599391621075,2.4000000000000004,5340.0,51.32946,0.3,68900.0,0.33,276.0,2700.0,38.70728495720082,7.607415704886996,20540.02240319489,26.209150263235767,10.755546953582073,12.498134693965053,3.1481312486950763,3571,100,1188,1783,135.38488665862172,78.00101736445995,0.0016794804112804382,False
0.4100000000000001,1.0827109865764455,2.4000000000000004,5341.0,51.32946,0.3,68900.0,0.33,276.0,2700.0,46.88901830140577,9.467900946935874,25563.33255672686,31.05798935717701,14.155160564631473,15.831028944228759,4.687259617695599,4487,112,1488,2249,142.19555260413875,81.64024102939156,0.0019203225205293678,False
0.42000000000000004,0.7781897202641992,2.4000000000000004,5342.0,51.32946,0.1,68900.0,0.33,276.0,2700.0,26.358395213031983,5.380093450390612,14526.252316054653,19.34475769506028,6.539950494828089,7.013637517971702,1.1598570444374765,43033,230,7126,27106,115.75542867144043,66.75445739757293,0.0012573237024852784,False
0.43,1.1186219777169542,2.4000000000000004,5343.0,51.32946,0.3,68900.0,0.33,276.0,2700.0,48.93606228112427,10.354734319035744,27957.782661396508,32.59291168599353,15.297947043265996,16.343150595130744,4.943212724230252,4500,114,1494,2253,142.82000662413265,81.97292187090335,0.001923985557674488,False
0.44,0.9891554521414293,2.4000000000000004,5344.0,51.32946,0.3,68900.0,0.33,276.0,2700.0,39.28213907188944,8.463661643413326,22851.88643721598,27.211408065667744,11.43116326769618,12.070731006221695,2.9675016242828534,3679,100,1230,1828,125.49631842057596,72.19129074858107,0.001600496152494715,False
0.45,0.7775273378871826,2.4000000000000004,5345.0,51.32946,0.08,68900.0,0.33,276.0,2700.0,25.608862528108407,5.571142315118813,15042.084250820795,19.3218198160362,6.527144465675314,6.287042712072207,0.9560021505565013,82196,282,10670,54099,118.47281161514991,67.1411895406793,0.0011922500603167923,False
0.46,0.989842416541954,2.4000000000000004,5346.0,51.32946,0.3,68900.0,0.33,276.0,2700.0,38.75648139778545,8.710130679804111,23517.3528354711,27.238851239253034,11.449865961887971,11.517630158532416,2.73973528208386,3720,100,1232,1858,123.72606058774319,71.16956487934533,0.0015435548975826709,False
0.4700000000000001,0.9341480295857054,2.4000000000000004,5347.0,51.32946,0.3,68900.0,0.33,276.0,2700.0,34.758847596153565,7.950882802380322,21467.38356642687,25.052444340740344,9.994061956923428,9.706403255413221,2.0431791545431057,3270,92,1072,1640,122.80902691810037,70.57090074403789,0.0014050439304654498,False
0.4800000000000001,0.9198238706449613,2.4000000000000004,5348.0,51.32946,0.3,68900.0,0.33,276.0,2700.0,33.566010930656695,7.8242192801937325,21125.392056523076,24.5027211835499,9.639150078808886,9.063289747106793,1.814930798615153,3394,92,1046,1759,113.57725269155172,65.10729474516116,0.0013630117003529142,False
0.49,0.824785877674413,2.4000000000000004,5349.0,51.32946,0.2,68900.0,0.33,276.0,2700.0,27.44293569391722,6.477115755608265,17488.212540142315,20.986024873336024,7.479368352094626,6.4569108205811965,1.0022525964863611,7454,118,1832,4214,106.8363636523409,61.5059711814118,0.0011860362576119206,False
0.5,0.8291150316212708,2.4000000000000004,5350.0,51.32946,0.2,68900.0,0.33,276.0,2700.0,27.465367686738972,6.604542533885592,17832.2648414911,21.141282085526843,7.570555980761272,6.324085601212129,0.9660134468756798,7837,120,1926,4428,104.1885907650555,60.09009395237873,0.001178871248036218,False
0.01,0.3487379312078338,2.4000000000000004,5351.0,54.348839999999996,0.05,68900.0,0.33,276.0,2700.0,13.33709836442938,0.06668339742704413,180.04517305301914,6.787142788278552,1.0946377807856462,6.549955576150828,1.027954383358602,43234,314,14318,21751,1836.0910540135067,1047.8562015474743,0.014954124640416466,True
0.02,0.4693011818693458,2.4000000000000004,5352.0,54.348839999999996,0.1,68900.0,0.33,276.0,2700.0,19.156652733548864,0.19154977217467048,517.1843848716103,9.84455779164641,2.0935534077257207,9.312094941902453,1.9020036355510503,16060,198,5312,8086,1231.8229369678406,702.1961366703927,0.011040946855544772,True
0.03,0.3794137692714805,2.4000000000000004,5353.0,54.348839999999996,0.1,68900.0,0.33,276.0,2700.0,14.333677792995093,0.21494861822716188,580.3612692133371,7.5304143220052415,1.3141788552914992,6.803263470989852,1.0992302370643374,11859,164,3892,6015,701.4981647434969,400.62329621677947,0.00577787327479623,True
0.04,0.7314117442541388,2.4000000000000004,5354.0,54.348839999999996,0.1,68900.0,0.33,276.0,2700.0,34.185573794772026,0.6835774346088896,1845.659073444002,17.751974337638845,5.672509853611974,16.43359945713318,4.988932419003084,27671,274,9088,14033,1176.448766708623,670.580094242743,0.01066619277111566,True
0.05,0.7263134889684186,2.4000000000000004,5355.0,54.348839999999996,0.2,68900.0,0.33,276.0,2700.0,33.52812726151745,0.8379413821501389,2262.441731805375,17.581703010150825,5.582440077499394,15.946424251366622,4.744498695349255,7104,138,2340,3588,796.1204759473264,454.42791814470684,0.008447255715183483,True
0.06000000000000001,0.46814258299938405,2.4000000000000004,5356.0,54.348839999999996,0.1,68900.0,0.33,276.0,2700.0,18.061393725526795,0.5413894224236858,1461.7514405439517,9.813437929674498,2.082165545168804,8.247955795852297,1.5407761227451182,15194,190,4990,7703,446.07031497978767,255.43241937704545,0.003923213393899177,True
0.06999999999999999,0.5601766763653561,2.4000000000000004,5357.0,54.348839999999996,0.2,68900.0,0.33,276.0,2700.0,22.80161798085651,0.7973382518098594,2152.8132798866204,12.390566088957051,3.102295540522681,10.411051891899458,2.3049572887128216,4917,110,1614,2490,430.5409302974227,248.56316867789292,0.004271317773441444,True
0.08,0.5076058852722496,2.4000000000000004,5358.0,54.348839999999996,0.2,68900.0,0.33,276.0,2700.0,19.6382798067862,0.7844588619790225,2118.0389273433607,10.892414401345269,2.4905974819647763,8.745865405440933,1.7061386199857538,4102,100,1340,2086,345.56321591262804,198.41300167144746,0.003331513621170432,True
0.09,0.5323796720527243,2.4000000000000004,5359.0,54.348839999999996,0.1,68900.0,0.33,276.0,2700.0,20.719923244042096,0.9308697319522526,2513.3482762710823,11.589759058199189,2.7690499231888372,9.130164185842908,1.8381801912365847,16862,204,5550,8531,319.90914087460834,184.01316046681367,0.0031685508428256955,True
0.09999999999999999,0.4770949466966057,2.4000000000000004,5360.0,54.348839999999996,0.08,68900.0,0.33,276.0,2700.0,17.528177660860052,0.8743144879406104,2360.649117439648,10.05477440606253,2.171097773892177,7.473403254797523,1.2967832859515667,22702,232,7498,11449,255.40851693351968,147.31614798844961,0.002505040043453093,False
0.11,0.7192885651687777,2.4000000000000004,5361.0,54.348839999999996,0.3,68900.0,0.33,276.0,2700.0,31.201056075266703,1.7132704442583848,4625.830199497639,17.348155091708154,5.459751007828797,13.852900983558548,3.746480563570412,3210,90,1050,1629,366.80453666460966,211.76160658589686,0.003903354811879321,True
0.12,0.6436458352216833,2.4000000000000004,5362.0,54.348839999999996,0.3,68900.0,0.33,276.0,2700.0,26.25410038655171,1.5716269084561658,4243.392652831648,14.911946062260462,4.240536432111939,11.342154324291247,2.668909523655773,2526,80,828,1278,309.0918124904513,178.4386190991185,0.003105379761393954,True
0.13,0.5688265424271524,2.4000000000000004,5363.0,54.348839999999996,0.2,68900.0,0.33,276.0,2700.0,21.68096118179848,1.4046610907769443,3792.58494509775,12.643722736293055,3.210565807707877,9.037238445505425,1.8059047169309326,4495,106,1470,2284,242.60079038189417,139.9296075738149,0.002454789084937101,False
0.14,0.6409260754717259,2.4000000000000004,5364.0,54.348839999999996,0.3,68900.0,0.33,276.0,2700.0,25.53405767945272,1.7816370174007246,4810.419946981956,14.827029583421634,4.200095039764596,10.707028096031085,2.418458022363872,2554,80,836,1294,264.0292064624527,152.4027743029769,0.002673180802174541,False
0.15000000000000002,0.7923223820616738,2.4000000000000004,5365.0,54.348839999999996,0.3,68900.0,0.33,276.0,2700.0,34.70739221673512,2.5959858327845553,7009.1617485183,19.836790299104177,6.8168143661328795,14.870601917630946,4.220828533348325,3446,96,1134,1739,298.0992248093089,172.0872054720864,0.0033303570863747038,True
0.16,0.7584209550241681,2.4000000000000004,5366.0,54.348839999999996,0.3,68900.0,0.33,276.0,2700.0,32.189013130566764,2.566542408105937,6929.66450188603,18.664924408802854,6.1642644343461095,13.52408872176391,3.5977220262401723,3206,90,1046,1631,267.98722987708203,154.71091784501374,0.002954513552146913,False
0.17,0.858901554426308,2.4000000000000004,5367.0,54.348839999999996,0.3,68900.0,0.33,276.0,2700.0,38.57449731533178,3.2685425086651505,8825.064773395907,22.222291198161972,8.216325662970013,16.35220611716981,4.947783154304862,3691,100,1208,1873,275.0600205429884,158.70109823367966,0.0033103077676361788,False
0.18000000000000002,0.7689596108495993,2.4000000000000004,5368.0,54.348839999999996,0.3,68900.0,0.33,276.0,2700.0,32.26636034655303,2.891757918952612,7807.746381172052,19.026118658008386,6.362868448236881,13.240241688544643,3.471110529284269,3368,94,1100,1712,238.60717190319457,137.71385374276431,0.0026959851180257633,False
0.19,0.8002700102378708,2.4000000000000004,5369.0,54.348839999999996,0.3,68900.0,0.33,276.0,2700.0,33.998436324916334,3.2154859948597365,8681.81218612129,20.115694435545088,6.975577061418071,13.882741889371246,3.7600910665583345,3331,94,1094,1684,236.68777881709357,136.56196320218564,0.002706082899484248,False
0.2,0.5851685595022071,2.4000000000000004,5370.0,54.348839999999996,0.3,68900.0,0.33,276.0,2700.0,20.799625483306485,2.0632073875115053,5570.659946281065,13.127138801204248,3.4211305967314884,7.672486682102237,1.357923209219983,2248,74,742,1129,171.62385994212784,98.90827311477273,0.0017216915717980811,False
0.21000000000000002,0.7516341282912596,2.4000000000000004,5371.0,54.348839999999996,0.3,68900.0,0.33,276.0,2700.0,30.288010574064966,3.1608449172335615,8534.281276530615,18.433795247121964,6.0383737979123175,11.854215326943002,2.877528880678756,2952,86,970,1491,202.187479619126,116.66623955857578,0.0022673408097283795,False
0.22,0.7263169562456242,2.4000000000000004,5372.0,54.348839999999996,0.3,68900.0,0.33,276.0,2700.0,28.438373727352158,3.1059199909584096,8385.983975587706,17.58181858815273,5.582501038338368,10.856555139199429,2.476581047379958,2761,84,910,1390,186.78138302851454,107.80034345107414,0.002078313521959339,False
0.23,0.6963880825838932,2.4000000000000004,5373.0,54.348839999999996,0.3,68900.0,0.33,276.0,2700.0,26.361802688483674,3.0061248039643265,8116.536970703682,16.59542625582274,5.071113964228255,9.766376432660934,2.0649891602639285,2602,80,856,1312,173.8007578193083,100.13545432138032,0.001889670561136527,False
0.24000000000000005,0.8260540725116432,2.4000000000000004,5374.0,54.348839999999996,0.3,68900.0,0.33,276.0,2700.0,34.184982606261585,4.073244994855908,10997.76148611095,21.031457587348655,7.506011524987796,13.15352501891293,3.4327665301318886,3502,96,1150,1771,195.515806923763,112.87988233193813,0.0022769145561159147,False
0.25,0.5559293152968671,2.4000000000000004,5375.0,54.348839999999996,0.3,68900.0,0.33,276.0,2700.0,18.056372970424,2.2243216978281066,6005.668584135888,12.266946448518993,3.049931021602197,5.789426521905007,0.8256093237740902,1675,64,550,844,129.34623077067957,74.65535045644955,0.0013390339707654918,False
0.26,0.59636818198308,2.4000000000000004,5376.0,54.348839999999996,0.1,68900.0,0.33,276.0,2700.0,19.95642947985508,2.557524744061394,6905.316808965765,13.462312964329016,3.5700235654285635,6.494116515526063,1.0124988213671693,23071,200,5500,13219,141.20439523226787,81.45982932685433,0.0014268175086405443,False
0.27,0.8296539940359589,2.4000000000000004,5377.0,54.348839999999996,0.3,68900.0,0.33,276.0,2700.0,33.53597289159435,4.486132361564832,12112.557376225046,21.16064396052955,7.581955554537248,12.375328931064796,3.095823192972416,3226,92,1066,1621,175.11492024663346,101.00305276932563,0.0020616052866703244,False
0.28,0.7158051618078103,2.4000000000000004,5378.0,54.348839999999996,0.3,68900.0,0.33,276.0,2700.0,26.19127645773913,3.620802542795736,9776.166865548488,17.232807190264538,5.3995213762353576,8.958469267474591,1.7787188334396213,2551,80,838,1288,148.81717680894474,85.84988089911874,0.0016489755105989446,False
0.29000000000000004,0.6008852201930561,2.4000000000000004,5379.0,54.348839999999996,0.3,68900.0,0.33,276.0,2700.0,19.50096134366701,2.776559192679428,7496.709820234456,13.598387722752834,3.6311404818967112,5.902573620914177,0.854581289217283,1940,68,640,974,128.6962858390754,73.25697689451128,0.0016467291640655426,False
0.3,0.8437721808796148,2.4000000000000004,5380.0,54.348839999999996,0.3,68900.0,0.33,276.0,2700.0,33.58604967101509,4.981358782887649,13449.668713796653,21.670431050151837,7.88429822059504,11.915618620863253,2.902939437707391,3249,92,1076,1629,171.6886171445641,98.67770519084829,0.0025670307182377077,False
0.31,0.9641508071154089,2.4000000000000004,5381.0,54.348839999999996,0.3,68900.0,0.33,276.0,2700.0,41.46226224947622,6.364256524173113,17183.492615267405,26.22058362579609,10.763172018225951,15.24167862368013,4.398915494052838,3957,106,1304,1995,177.7336646325967,102.5378391859449,0.0022248956388881453,False
0.32,0.8693479293848196,2.4000000000000004,5382.0,54.348839999999996,0.3,68900.0,0.33,276.0,2700.0,34.68298183833381,5.480647955418194,14797.749479629123,22.606691349180803,8.450473455752752,12.076290489153006,2.969825500334558,3208,94,1066,1603,157.2799664096075,90.75093120858527,0.0018833825108698873,False
0.33,0.7347957720742464,2.4000000000000004,5383.0,54.348839999999996,0.3,68900.0,0.33,276.0,2700.0,26.028651784061893,4.2194612675755065,11392.545422453868,17.865354672979432,5.732774788573473,8.16329711108246,1.5133135209979667,2606,80,864,1304,133.23383330080634,76.85912684699939,0.0014789327220230304,False
0.34,0.8371674701739709,2.4000000000000004,5384.0,54.348839999999996,0.3,68900.0,0.33,276.0,2700.0,32.034528685198175,5.363551771379229,14481.589782723919,21.43132100322554,7.741961522405997,10.603207681972634,2.3784097510267683,3093,90,1028,1545,144.23342118560592,83.07001237154434,0.0016983858872457033,False
0.3500000000000001,0.6616838652133652,2.4000000000000004,5385.0,54.348839999999996,0.1,68900.0,0.33,276.0,2700.0,21.400700634812274,3.6553254210770407,9869.37863690801,15.479835584226555,4.514628074436372,5.92086505058572,0.8593026533593311,31051,204,5786,19086,123.80443823057064,71.37059124020573,0.0012732766392513492,False
0.36000000000000004,0.9334287467473127,2.4000000000000004,5386.0,54.348839999999996,0.3,68900.0,0.33,276.0,2700.0,37.8038996037591,6.706985830779384,18108.86174310434,25.024717205311134,9.976052136255076,12.779182398447965,3.2690663054756914,3360,96,1114,1683,150.9651744067444,87.05563527892899,0.0018650308258675492,False
0.37,1.0481721886705873,2.4000000000000004,5387.0,54.348839999999996,0.3,68900.0,0.33,276.0,2700.0,45.61838466182133,8.333313767315314,22499.947171751348,29.61229500922993,13.107507513254227,16.006089652591402,4.774193745938913,4229,110,1398,2126,162.190893373096,93.34612769327383,0.0021308409457780927,False
0.38,0.7330814940681568,2.4000000000000004,5388.0,54.348839999999996,0.2,68900.0,0.33,276.0,2700.0,24.6988320435305,4.577854440212267,12360.206988573122,17.807882586578078,5.702197876104679,6.8909494569524234,1.1243434358924125,6788,114,1766,3755,126.90717690405278,73.20031662187965,0.0013363179599372372,False
0.39,1.0344014559360935,2.4000000000000004,5389.0,54.348839999999996,0.3,68900.0,0.33,276.0,2700.0,43.979822865836105,8.451828035759185,22819.935696549797,29.0442517745931,12.703641168084985,14.935571091243006,4.2518131323258,4191,108,1388,2103,153.43438774712178,88.34450228785025,0.00199756117586506,False
0.4,0.9856623771812743,2.4000000000000004,5390.0,54.348839999999996,0.3,68900.0,0.33,276.0,2700.0,40.21389954848857,7.908738623144019,21353.59428248885,27.072048565457454,11.336355265407155,13.141850983031116,3.4276166422631364,3949,104,1308,1979,143.31914913728264,82.47165838159535,0.0018307290321225727,False
0.4100000000000001,0.8897488781261407,2.4000000000000004,5391.0,54.348839999999996,0.3,68900.0,0.33,276.0,2700.0,33.49200857875805,6.721513953793359,18148.08767524207,23.365302814434276,8.919391820795266,10.126705764323777,2.197877867001907,3220,92,1066,1615,128.82610978621491,74.07996092634191,0.001565373491299712,False
0.42000000000000004,0.8490702036877491,2.4000000000000004,5392.0,54.348839999999996,0.3,68900.0,0.33,276.0,2700.0,30.64673822823663,6.280645483583577,16957.742805675658,21.86302758075322,7.9996185375083915,8.78371064748341,1.718973053924814,2975,86,970,1500,122.18742855013973,70.32092288215705,0.0014559130890059958,False
0.43,0.7637570625322495,2.4000000000000004,5393.0,54.348839999999996,0.08,68900.0,0.33,276.0,2700.0,25.280214844145657,5.2687271200853445,14225.563224230431,18.847461429339244,6.264349177981032,6.432753414806413,0.9956220578956874,76259,278,10276,49927,122.49011866518374,69.69267251265339,0.0012815604953459621,False
0.44,0.9867867276708171,2.4000000000000004,5394.0,54.348839999999996,0.3,68900.0,0.33,276.0,2700.0,39.11926148692425,8.427828574721074,22755.1371517469,27.11687211456955,11.366818932177155,12.002389372354703,2.938990357456081,3668,100,1226,1823,132.35373236182332,76.10451419290261,0.0016895005491836502,False
0.45,1.0233077610215364,2.4000000000000004,5395.0,54.348839999999996,0.3,68900.0,0.33,276.0,2700.0,41.36571727043962,9.116434632143333,24614.373506787,28.590102736288937,12.383955054795756,12.77561453415068,3.2675204226524226,3679,102,1230,1826,159.4848111578112,88.88032743848959,0.0017379461864010627,False
0.46,1.0459941015180039,2.4000000000000004,5396.0,54.348839999999996,0.3,68900.0,0.33,276.0,2700.0,42.67386893672303,9.611129813759725,25950.050497151256,29.522131535375514,13.043107567529475,13.151737401347518,3.4319777537697504,4070,106,1304,2074,133.06956960891765,76.35082164255428,0.0017542010324377397,False
0.4700000000000001,1.0356658852746663,2.4000000000000004,5397.0,54.348839999999996,0.3,68900.0,0.33,276.0,2700.0,41.647212206672634,9.569648485852271,25838.050911801132,29.096210815324245,12.740398417179522,12.55100139134839,3.1707499313272507,3832,102,1266,1917,138.2186909596159,79.43855385726597,0.0017007033271838595,False
0.4800000000000001,1.0307576046280924,2.4000000000000004,5398.0,54.348839999999996,0.3,68900.0,0.33,276.0,2700.0,41.01177589912923,9.611202872627148,25950.2477560933,28.89474018692222,12.598080733593953,12.117035712207013,2.986877860966805,3910,102,1268,1974,135.9406782487364,78.15469852283084,0.0016617793026520251,False
0.49,1.025881482684139,2.4000000000000004,5399.0,54.348839999999996,0.3,68900.0,0.33,276.0,2700.0,40.38476312462763,9.647863476132313,26049.231385557247,28.695189120412014,12.457673217389631,11.689574004215618,2.809809741257318,3920,102,1244,2008,127.26152118368817,73.28581046603519,0.0016233989348541564,False
0.5,1.1493863769056496,2.4000000000000004,5400.0,54.348839999999996,0.3,68900.0,0.33,276.0,2700.0,49.025420621062224,11.994555767466201,32385.300572158743,33.933632763689964,16.32121064599632,15.09178785737226,4.326654878530119,5090,116,1536,2664,134.85613576088952,77.16599378755025,0.001865748317568305,False
0.01,0.3188681704101096,2.4000000000000004,5401.0,57.36822,0.05,68900.0,0.33,276.0,2700.0,11.942576803646102,0.059710789623128445,161.2191319824468,6.086128463043449,0.9024328296801508,5.856448340602652,0.8427220400570223,39722,298,13162,19973,1920.7358608196598,1094.9431305644493,0.014170820424854,True
0.02,0.6155374721368617,2.4000000000000004,5402.0,57.36822,0.1,68900.0,0.33,276.0,2700.0,27.480656911668746,0.274789813955866,741.9324976808382,14.04331306912176,3.833640475700185,13.437343842546985,3.558850661744319,22672,242,7502,11413,1817.4367768042002,1033.7036609718648,0.017010737726436204,True
0.03,0.4876455582610667,2.4000000000000004,5403.0,57.36822,0.1,68900.0,0.33,276.0,2700.0,19.874808241440423,0.2980655749538396,804.777052375367,10.341781969408851,2.278693385924194,9.533026272031572,1.9806278109703543,16300,200,5358,8257,997.1277915702482,569.0742399472102,0.008305572943162276,True
0.04,0.7094284301214335,2.4000000000000004,5404.0,57.36822,0.1,68900.0,0.33,276.0,2700.0,32.74860713947322,0.6548381015029104,1768.0628740578582,17.0224409910805,5.290303656050548,15.726166148392721,4.635465554547637,27086,270,8906,13721,1208.5013126691683,688.7599214541106,0.010701219924821655,True
0.05,0.5222452288159731,2.4000000000000004,5405.0,57.36822,0.1,68900.0,0.33,276.0,2700.0,21.22641184123973,0.530398496643302,1432.0759409369152,11.302625430626938,2.6530513176199673,9.923786410612793,2.1226528209766653,17425,208,5730,8824,686.2823424848641,392.1451017874691,0.0056171008723055384,True
0.06000000000000001,0.48656764509963624,2.4000000000000004,5406.0,57.36822,0.1,68900.0,0.33,276.0,2700.0,19.031396046157777,0.5704894920426183,1540.3216285150695,10.312331259526655,2.267561718303692,8.719064786631122,1.6970722262610733,15448,194,5064,7846,492.1272161845804,281.77806393865035,0.004344500673836977,True
0.06999999999999999,0.5233151397839059,2.4000000000000004,5407.0,57.36822,0.2,68900.0,0.33,276.0,2700.0,20.750969525492742,0.7255655558721258,1959.0270008547395,11.332816760168358,2.6651602689868343,9.418152765324384,1.9395947131147087,4459,106,1458,2266,428.75179943565996,247.53991862176537,0.004132106839700977,True
0.08,0.7432199469886657,2.4000000000000004,5408.0,57.36822,0.2,68900.0,0.33,276.0,2700.0,33.677426643429875,1.3460247354447716,3634.2667857008832,18.148852909385745,5.884468528507524,15.52857373404413,4.538443793062752,6987,138,2286,3552,528.0956675534932,301.96286185810715,0.005767024696111291,True
0.09,0.5505226398610947,2.4000000000000004,5409.0,57.36822,0.2,68900.0,0.33,276.0,2700.0,21.719848355484775,0.9758663619671684,2634.8391773113544,12.110240827097718,2.9840315828004487,9.609607528387057,2.0081652208332805,4750,108,1554,2413,466.2701338897872,256.95387495297007,0.003786440253674155,True
0.09999999999999999,0.4504720560115926,2.4000000000000004,5410.0,57.36822,0.08,68900.0,0.33,276.0,2700.0,16.171519963122773,0.806481603053745,2177.5003282451116,9.342990246076544,1.912925010623125,6.828529717046228,1.10644340756938,20693,220,6828,10445,255.40823864214207,147.41184554713755,0.002464221940142091,False
0.11,0.8046870563269897,2.4000000000000004,5411.0,57.36822,0.3,68900.0,0.33,276.0,2700.0,36.811427193207955,2.021840855745149,5458.970310511902,20.2713870505569,7.064772681092102,16.540040142651055,5.042931825346953,3597,98,1176,1827,422.81676645563863,244.1127771832207,0.004792358333481007,True
0.12,0.6886495999354247,2.4000000000000004,5412.0,57.36822,0.3,68900.0,0.33,276.0,2700.0,28.98257049435691,1.7353351149240004,4685.404810294801,16.34404519453469,4.943664170662104,12.63852529982222,3.208329055738104,2791,84,914,1414,338.3249963485007,195.28452765956175,0.0035826372604488513,True
0.13,0.6197292751882529,2.4000000000000004,5413.0,57.36822,0.2,68900.0,0.33,276.0,2700.0,24.57038857818728,1.5924738715422164,4299.679453163984,14.171592573158211,3.892775985220393,10.39879600502907,2.3003021136781765,5167,114,1690,2626,274.9450535713873,158.44501796726595,0.002894252696865989,False
0.14,0.5409881705108633,2.4000000000000004,5414.0,57.36822,0.3,68900.0,0.33,276.0,2700.0,19.903011392287272,1.387463777299142,3746.1521987076835,11.835686494536395,2.8698775430440637,8.067324897750877,1.4824137657449217,2062,70,672,1048,243.9458762573343,140.84188903927435,0.0022763313622691404,False
0.15000000000000002,0.6694122686914457,2.4000000000000004,5415.0,57.36822,0.3,68900.0,0.33,276.0,2700.0,26.94847289742139,2.0140668838360285,5437.980586357277,15.725650533917834,4.635211401380995,11.222822363503555,2.6211445175449666,2678,82,882,1349,269.3605204211546,155.5141805764885,0.0028057912497793133,False
0.16,0.6993132516890688,2.4000000000000004,5416.0,57.36822,0.3,68900.0,0.33,276.0,2700.0,28.47853252262003,2.2697039594702035,6128.20069056955,16.690841015825896,5.119797892130882,11.787691506794133,2.8500939326606787,2777,84,912,1403,262.35703529525915,151.31235467596616,0.0027972176132355546,False
0.17,0.62329422138206,2.4000000000000004,5417.0,57.36822,0.3,68900.0,0.33,276.0,2700.0,23.69863520700936,2.004094229457739,5411.054419535895,14.281036202696646,3.9434919356601714,9.417599004312715,1.9393977062024326,2526,78,824,1284,226.3520060760356,130.6478001660505,0.0022757364228336865,False
0.18000000000000002,0.5936889166051393,2.4000000000000004,5418.0,57.36822,0.3,68900.0,0.33,276.0,2700.0,21.77071494755571,1.947149833042859,5257.304549215719,13.381842988201587,3.5340622968880657,8.388871959354123,1.5869124638452068,2247,74,742,1128,204.6771025213189,118.13475863601252,0.002032597631557572,False
0.19,0.7667088829312677,2.4000000000000004,5419.0,57.36822,0.3,68900.0,0.33,276.0,2700.0,31.824798107468272,3.0089903642021714,8124.273983345863,18.948744429666668,6.320132929843386,12.876053677801604,3.311142565641215,3347,94,1098,1694,239.8081876358543,138.38545856488173,0.0026957151193837316,False
0.2,0.7231544957376723,2.4000000000000004,5420.0,57.36822,0.3,68900.0,0.33,276.0,2700.0,28.80480865194494,2.8637257043751356,7732.059401812866,17.476526868384102,5.527065788089795,11.328281783560836,2.663340083714659,2807,84,926,1412,218.46833439297734,126.10628532752824,0.002378627787035104,False
0.21000000000000002,0.8342703323642952,2.4000000000000004,5421.0,57.36822,0.3,68900.0,0.33,276.0,2700.0,35.63784043289596,3.722577052410693,10050.958041508871,21.326781981511928,7.680023514921635,14.311058451384035,3.9574464625109425,3611,98,1184,1829,233.92758873515427,135.05813966574186,0.0027585687736815076,False
0.22,0.5851165976693337,2.4000000000000004,5422.0,57.36822,0.1,68900.0,0.33,276.0,2700.0,20.306644151606715,2.2114297376264536,5970.860291591424,13.125591072194934,3.4204485267507048,7.181053079411781,1.2090187891242512,22269,200,5536,12563,165.845843272581,95.74566194617024,0.0016910741794672938,False
0.23,0.5961798152780585,2.4000000000000004,5423.0,57.36822,0.1,68900.0,0.33,276.0,2700.0,20.663506316357562,2.3508207211701038,6347.21594715928,13.456649597874728,3.5674882473022427,7.206856718482834,1.216667526132139,22693,202,5626,12812,162.75792222754572,93.94694704770963,0.0016654963263773863,False
0.24000000000000005,0.859982955351317,2.4000000000000004,5424.0,57.36822,0.3,68900.0,0.33,276.0,2700.0,36.44132673390741,4.344006290173409,11728.816983468205,22.261956751082256,8.24037831376172,14.179369982825154,3.8963720235883113,3451,98,1138,1738,213.4560175995743,123.23364002271929,0.002540596306194839,False
0.25,0.9216222171149799,2.4000000000000004,5425.0,57.36822,0.3,68900.0,0.33,276.0,2700.0,40.367671556685785,5.013234021110832,13535.731856999246,24.571453875471608,9.68327625137124,15.796217681214177,4.670042230260408,3882,104,1276,1962,219.03192893403534,126.44326610173424,0.002692234304746065,False
0.26,0.6790207814751085,2.4000000000000004,5426.0,57.36822,0.3,68900.0,0.33,276.0,2700.0,24.558426833088497,3.155784399981845,8520.617879950982,16.033358872284623,4.787787967398461,8.525067960803874,1.6320035674166156,2522,78,832,1268,159.9860146941867,92.1745478013371,0.0017399436607879798,False
0.27,0.757162226609166,2.4000000000000004,5427.0,57.36822,0.3,68900.0,0.33,276.0,2700.0,28.95054305627615,3.8670993337968786,10441.168201251572,18.621970270557203,6.140797401602965,10.328572785718947,2.2736980678060865,2869,84,940,1453,168.84609439875476,97.23669200953873,0.001927661238567529,False
0.28,0.9001122829862397,2.4000000000000004,5428.0,57.36822,0.3,68900.0,0.33,276.0,2700.0,37.93800916276812,5.265345121499804,14216.43182804947,23.754673588425288,9.163551185898443,14.18333557434283,3.8982060643986394,3439,98,1130,1738,193.48901618430708,111.67465417837599,0.0023479417054886984,False
0.29000000000000004,0.9188715322082646,2.4000000000000004,5429.0,57.36822,0.3,68900.0,0.33,276.0,2700.0,38.91925583783249,5.592211894333447,15098.972114700307,24.466355785487746,9.615832513514293,14.452900052344742,4.023620619180846,3750,102,1232,1896,190.14304767836074,109.71946409947257,0.00234272034107454,False
0.3,0.8239399367156706,2.4000000000000004,5430.0,57.36822,0.3,68900.0,0.33,276.0,2700.0,32.3062026824245,4.789381734599059,12931.330683417458,20.955741756772966,7.4616282242252945,11.350460925651532,2.672246489626236,3085,90,1022,1546,172.272772040688,99.43172416913076,0.001958503664772905,False
0.31,0.9349502041610325,2.4000000000000004,5431.0,57.36822,0.3,68900.0,0.33,276.0,2700.0,39.41536556759188,6.046987538481282,16326.866353899462,25.083382149198815,10.014170798503987,14.331983418393062,3.967183260022704,3787,102,1246,1912,181.07460085145323,104.42780270062022,0.002258781018847162,False
0.32,0.737168680529539,2.4000000000000004,5432.0,57.36822,0.3,68900.0,0.33,276.0,2700.0,26.422706879110258,4.15900396194242,11229.310697244535,17.94502957240324,5.7752621423715755,8.477677306707019,1.6162581804291554,2602,80,862,1303,144.71567827237237,83.49149219275128,0.0016066107623410532,False
0.33,1.0273146585516812,2.4000000000000004,5433.0,57.36822,0.3,68900.0,0.33,276.0,2700.0,45.37940513911859,7.412335571159864,20013.306042131633,28.75377859443556,12.498840448296361,16.62562654468303,5.086504877136497,4312,110,1424,2170,185.85932754251797,107.1262629842799,0.0024215740238538765,False
0.34,0.8020463954388872,2.4000000000000004,5434.0,57.36822,0.3,68900.0,0.33,276.0,2700.0,29.828500389803914,4.988526961162204,13469.022795137951,20.178249745419887,7.011365832744842,9.650250644384027,2.0228388715826373,2889,86,958,1446,148.20790953820784,85.47685819158599,0.0016994279128439318,False
0.3500000000000001,0.7995860041868454,2.4000000000000004,5435.0,57.36822,0.3,68900.0,0.33,276.0,2700.0,29.41123559007818,5.057169038248573,13654.356403271147,20.091628347258272,6.96182603604884,9.31960724281991,1.9046569978002665,2911,86,962,1462,141.92514209772241,81.81571295655512,0.001652329872798202,False
0.36000000000000004,0.7982732853910057,2.4000000000000004,5436.0,57.36822,0.3,68900.0,0.33,276.0,2700.0,29.06827209833088,5.1345728798023,13863.346775466209,20.04547455013212,6.9354816760946285,9.02279754819876,1.8009087962923287,2859,86,948,1431,139.7868614479678,80.58301057026958,0.0016098880726431463,False
0.37,0.7465636928030039,2.4000000000000004,5437.0,57.36822,0.08,68900.0,0.33,276.0,2700.0,25.72223501339102,4.652526082355816,12561.820422360704,18.2618742533956,5.945342558481915,7.460360759995421,1.2928164761260987,70411,284,10620,45289,138.70637315488028,78.89629435610287,0.001479970250705036,False
0.38,0.7925401816142723,2.4000000000000004,5438.0,57.36822,0.3,68900.0,0.33,276.0,2700.0,28.204034800202344,5.243842963979558,14158.376002744808,19.84441232841404,6.821135640201439,8.359622471788303,1.577292676221881,2771,84,920,1383,132.85500737864848,76.56123346684639,0.0015312672150116517,False
0.39,0.9966040370400338,2.4000000000000004,5439.0,57.36822,0.3,68900.0,0.33,276.0,2700.0,41.2810018900522,7.9255579454813185,21399.00645279956,27.509600500796658,11.634959441192708,13.771401389255544,3.709401495711389,3813,104,1264,1911,156.50376597536075,90.14853327004295,0.0020057917531507946,False
0.4,0.9798207685368292,2.4000000000000004,5440.0,57.36822,0.3,68900.0,0.33,276.0,2700.0,39.80788337490784,7.8275353884284105,21134.345548756708,26.83967735098341,11.178890080831172,12.968206023924427,3.3513546924027615,3865,104,1280,1937,151.8378183009223,87.1225993843515,0.0019175469467075865,False
0.4100000000000001,0.7441676153066209,2.4000000000000004,5441.0,57.36822,0.1,68900.0,0.33,276.0,2700.0,24.623246673467946,4.90341776320889,13239.227960664002,18.180856339519654,5.901682783952888,6.442390333948293,0.9982650207439976,39145,220,6586,24570,127.46902673698403,73.5247428281534,0.0013607807636880308,False
0.42000000000000004,0.8111489950308978,2.4000000000000004,5442.0,57.36822,0.3,68900.0,0.33,276.0,2700.0,28.32105334266853,5.792251657614287,15639.079475558574,20.500041713876065,7.196503352736984,7.821011628792466,1.4042516951226975,2878,84,926,1461,120.73291780637291,69.50701210721388,0.0014497886107697837,False
0.43,0.8781007123319815,2.4000000000000004,5443.0,57.36822,0.2,68900.0,0.33,276.0,2700.0,32.211337822000075,6.758918560324039,18249.080112874904,22.93088333100268,8.649762304890388,9.280454490997396,1.8908437445663484,8767,132,2182,4934,136.68326461129132,78.76807857305316,0.0015887639597204394,False
0.44,0.8171555801968837,2.4000000000000004,5444.0,57.36822,0.2,68900.0,0.33,276.0,2700.0,28.188417184100697,6.023042828099891,16262.215635869707,20.71352490172333,7.320279297791796,7.474892282377368,1.2972364696919048,7531,120,1894,4218,128.16573870990678,73.92237083383154,0.0014290025734683789,False
0.45,0.8539032713435446,2.4000000000000004,5445.0,57.36822,0.3,68900.0,0.33,276.0,2700.0,30.18010567539866,6.599672023259123,17819.114462799633,22.039337118304953,8.105709850484923,8.140768557093708,1.5060378272258,3061,86,960,1571,119.0486383322085,68.17305886074743,0.0014637042821596476,False
0.46,0.8207422263151068,2.4000000000000004,5446.0,57.36822,0.2,68900.0,0.33,276.0,2700.0,27.916620821220878,6.216962747194258,16785.799417424496,20.84143214675012,7.394800663854492,7.075188674470759,1.1778379166602342,7550,120,1876,4252,125.71838736479026,72.5404388926035,0.0013866166773327264,False
0.4700000000000001,1.1567797024872655,2.4000000000000004,5447.0,57.36822,0.3,68900.0,0.33,276.0,2700.0,50.542909289121255,11.660137300227726,31482.37071061486,34.259381079946806,16.573296376459385,16.28352820917445,4.9131590762316595,4930,118,1594,2499,152.22278368662919,87.35226714655762,0.0020825584262944004,False
0.4800000000000001,1.0647296070543355,2.4000000000000004,5448.0,57.36822,0.3,68900.0,0.33,276.0,2700.0,43.415665757105046,10.188136438541353,27507.968384061653,30.301599406950167,13.603507714831828,13.114066350154879,3.4153712762904753,4464,108,1362,2329,137.06075008755255,78.6202970372006,0.0018360642527595623,False
0.49,0.9040807008331297,2.4000000000000004,5449.0,57.36822,0.3,68900.0,0.33,276.0,2700.0,32.30334380424022,7.667915742637395,20703.372505120966,23.904488514947644,9.258116789736565,8.398855289292577,1.5902010470991703,3150,88,958,1643,117.50205837725466,67.50318137921721,0.0014684098656874926,False
0.5,0.9366884367095519,2.4000000000000004,5450.0,57.36822,0.3,68900.0,0.33,276.0,2700.0,34.1319498289897,8.271188069448277,22332.207787510346,25.15047679494618,10.057829851831436,8.981473034043518,1.7866417823831586,3520,92,1062,1841,129.48928353703232,74.68227263858469,0.0015067041136870936,False
0.01,0.5230372545455076,2.4000000000000004,5451.0,60.3876,0.05,68900.0,0.33,276.0,2700.0,22.368951545231134,0.11184266333105196,301.9751909938403,11.324972477628359,2.662012136449812,11.043979067602775,2.55016947311876,70762,426,23470,35551,3430.706156232075,1953.393212192656,0.027718835477539453,True
0.02,0.5356339042475907,2.4000000000000004,5452.0,60.3876,0.1,68900.0,0.33,276.0,2700.0,22.799208589277416,0.22797533073195209,615.5333929762706,11.682506950975972,2.806916529658217,11.116701638301445,2.578941198926265,18806,218,6226,9461,1559.2362637607648,888.2909526701624,0.01452200775771308,True
0.03,0.6211910173898052,2.4000000000000004,5453.0,60.3876,0.1,68900.0,0.33,276.0,2700.0,27.523412070199676,0.41279463238522995,1114.545507440121,14.216429335786774,3.913523963500438,13.306982734412902,3.5007293311152083,23192,244,7626,11747,1662.7488266877083,959.3050300130766,0.02202737010986332,True
0.04,0.37161297293903783,2.4000000000000004,5454.0,60.3876,0.1,68900.0,0.33,276.0,2700.0,13.721653620287123,0.2742990311191882,740.6073840218081,7.339159662118924,1.2561825903951573,6.382493958168199,0.9818835592759692,11436,162,3752,5802,8211.742394476036,4370.46976238136,0.004789161539649219,True
0.05,0.5563567715852127,2.4000000000000004,5455.0,60.3876,0.2,68900.0,0.33,276.0,2700.0,23.13702928045832,0.5781639326236574,1561.042618083875,12.279367064669396,3.0551772594720723,10.857662215788926,2.477013326848415,4883,110,1610,2462,664.5433796858771,380.2965208630179,0.006424278761591723,True
0.06000000000000001,0.5758127734532028,2.4000000000000004,5456.0,60.3876,0.2,68900.0,0.33,276.0,2700.0,23.9712796418227,0.7186859999126186,1940.4521997640702,12.849562298864216,3.2996160829956316,11.121717342958485,2.580930083083013,5313,116,1746,2688,568.4670359257706,328.2041344557218,0.005667692515421309,True
0.06999999999999999,0.5881956712476841,2.4000000000000004,5457.0,60.3876,0.2,68900.0,0.33,276.0,2700.0,24.406034454706106,0.8534928283945928,2304.4306366654005,13.217421121057171,3.461004502020841,11.188613333648934,2.607511673626248,5262,116,1726,2667,497.1674707255928,285.83893862271907,0.005051715483409201,True
0.08,0.7436248747243526,2.4000000000000004,5458.0,60.3876,0.2,68900.0,0.33,276.0,2700.0,33.70395635719024,1.3470859239951842,3637.1319947869974,18.162524844025825,5.891820270355148,15.541431513164419,4.544734346359964,6982,138,2286,3547,556.2090159329106,318.03687574576855,0.006075552270703072,True
0.09,0.47447864980190346,2.4000000000000004,5459.0,60.3876,0.2,68900.0,0.33,276.0,2700.0,17.639446862613738,0.7922482947879744,2139.070395927531,9.98403635407514,2.144884072217176,7.655410508538598,1.3526357774292017,3795,96,1240,1929,325.78101364582795,188.06750651284082,0.0030498772969990875,True
0.09999999999999999,0.6041827907914188,2.4000000000000004,5460.0,60.3876,0.2,68900.0,0.33,276.0,2700.0,24.49532249831076,1.2226717298131458,3301.2136704954937,13.698050119735415,3.6761463722312353,10.797272378575345,2.4534746424180893,5009,112,1636,2549,369.427344624603,212.34773036487653,0.0037622081518979785,True
0.11,0.4504953693347911,2.4000000000000004,5461.0,60.3876,0.2,68900.0,0.33,276.0,2700.0,15.935063480897929,0.8736408515681002,2358.830299233871,9.343605753602294,1.913142833949109,6.591457727295635,1.0395019823810088,3421,90,1124,1729,260.6553930313124,150.36136764509564,0.002380572261465787,False
0.12,0.421230611269716,2.4000000000000004,5462.0,60.3876,0.05,68900.0,0.33,276.0,2700.0,14.264446382020136,0.8522476681842729,2301.0687040975367,8.58172480385994,1.6509050949859958,5.682721578160196,0.7986574268017229,62362,326,15224,35470,218.33423368287762,126.01310953575475,0.00203927069390344,False
0.13,0.6275092730564844,2.4000000000000004,5463.0,60.3876,0.1,68900.0,0.33,276.0,2700.0,25.023484425926515,1.6219251016452676,4379.197774442223,14.410850120784676,4.003960670561476,10.612634305141839,2.3820355689162085,20306,228,6704,10244,288.7510040852326,166.32563983140687,0.0030934410591403594,True
0.14,0.5578293489528596,2.4000000000000004,5464.0,60.3876,0.3,68900.0,0.33,276.0,2700.0,20.816763245988824,1.4514264070582517,3918.8512990572794,12.32219096997103,3.0732911015694566,8.494572276017793,1.621864694511205,2010,70,658,1017,264.3778716093229,152.6386310668705,0.0024914533430695626,False
0.15000000000000002,0.772475039852413,2.4000000000000004,5465.0,60.3876,0.3,68900.0,0.33,276.0,2700.0,33.40308389347666,2.498162708540171,6745.0393130584625,19.147224778788207,6.429966196572933,14.255859114688455,3.931803488032762,3455,96,1138,1742,319.45605875699636,184.41180563405203,0.0035740469327833536,True
0.16,0.5417586440216182,2.4000000000000004,5466.0,60.3876,0.08,68900.0,0.33,276.0,2700.0,19.445991513009464,1.5471006787013568,4177.171832493664,11.85778817630875,2.879005139391953,7.588203336700714,1.331904460690596,33251,244,8158,18860,212.3390320680977,122.4878239211475,0.0021341548872335883,False
0.17,0.6847780226103968,2.4000000000000004,5467.0,60.3876,0.3,68900.0,0.33,276.0,2700.0,27.311556460083366,2.3111925359690324,6240.219847116387,16.218843628846184,4.880629421199743,11.092712831237183,2.569436885230711,2668,82,876,1348,256.62582778990816,148.16045235743348,0.0027104091336521596,False
0.18000000000000002,0.7948300283034337,2.4000000000000004,5468.0,60.3876,0.3,68900.0,0.33,276.0,2700.0,33.94632617806871,3.042954843788985,8215.978078230259,19.924619079427366,6.866668107504481,14.021707098641343,3.823713263715496,3312,94,1086,1677,277.26963567966055,159.992343291505,0.0031341934387814066,True
0.19,0.679519139588945,2.4000000000000004,5469.0,60.3876,0.3,68900.0,0.33,276.0,2700.0,26.44242325405052,2.497664753127369,6743.694833443896,16.04938186352168,4.79578231421921,10.39304139052884,2.298117561091841,2733,82,898,1380,231.44742253070407,133.6166289091213,0.002422358878189658,False
0.2,0.6459597720844279,2.4000000000000004,5470.0,60.3876,0.3,68900.0,0.33,276.0,2700.0,24.208454491536166,2.40409028833447,6491.043778503069,14.984338286799979,4.275125463370579,9.224116204736188,1.8710351750361092,2498,78,814,1271,207.39341446053396,119.6097466061809,0.0021625540753851973,False
0.21000000000000002,0.6101983913174522,2.4000000000000004,5471.0,60.3876,0.3,68900.0,0.33,276.0,2700.0,21.92802729769852,2.2830466732150834,6164.226017680725,13.88056349226388,3.7590968775797604,8.04746380543464,1.476050204364677,2257,74,742,1138,188.78373960411952,108.90619457871908,0.0019294103079983119,False
0.22,0.8479567763715395,2.4000000000000004,5472.0,60.3876,0.3,68900.0,0.33,276.0,2700.0,36.247151547301584,3.9648855511528915,10705.190988112807,21.822493131583958,7.975298214357365,14.424658415717627,4.010412663204473,3630,98,1190,1839,237.74619878367827,137.16416112922425,0.0028430854073592813,False
0.23,0.8401873869655871,2.4000000000000004,5473.0,60.3876,0.3,68900.0,0.33,276.0,2700.0,35.42074366509449,4.047903016275042,10929.338143942612,21.54051487530651,7.806847149091649,13.880228789787981,3.758944132816607,3481,96,1142,1762,228.41635024481639,131.67868364216025,0.0026956094326929577,False
0.24000000000000005,0.7607456812253919,2.4000000000000004,5474.0,60.3876,0.3,68900.0,0.33,276.0,2700.0,30.004719232380694,3.571613389990203,9643.356152973547,18.744360432616865,6.207747580352833,11.260358799763829,2.63613419036263,2802,84,918,1419,199.01629180742975,114.82693819638425,0.0022662224244748034,False
0.25,0.6093221852792967,2.4000000000000004,5475.0,60.3876,0.1,68900.0,0.33,276.0,2700.0,20.894848387054743,2.5791311249069473,6963.654037248758,13.85392280492524,3.7469463168092827,7.040925582129503,1.1678151919023354,23592,204,5746,13417,164.37765730767325,94.80425236370687,0.0016780986276211688,False
0.26,0.9151518085016475,2.4000000000000004,5476.0,60.3876,0.3,68900.0,0.33,276.0,2700.0,39.59777816478303,5.1109000731021315,13799.430197375756,24.32453513791472,9.525088304489927,15.273243026868311,4.414188231387795,3724,102,1224,1882,220.09193798894012,127.04043054327269,0.002708399161649831,False
0.27,0.6647611940652373,2.4000000000000004,5477.0,60.3876,0.3,68900.0,0.33,276.0,2700.0,23.48869189883936,3.1297494275429103,8450.323454365858,15.57753537441276,4.562414885258334,7.9111565244266,1.4326654577154234,2336,76,770,1175,161.23961004279158,93.04535878674156,0.0017296054019174778,False
0.28,0.7969464277903381,2.4000000000000004,5478.0,60.3876,0.3,68900.0,0.33,276.0,2700.0,31.152392712533,4.315358818466889,11651.4688098606,19.99886765938881,6.908915111074915,11.15352505314419,2.5935562926080262,2944,88,976,1474,181.7986143801557,104.8401334539292,0.0020966328898121933,False
0.29000000000000004,0.8862097451080879,2.4000000000000004,5479.0,60.3876,0.3,68900.0,0.33,276.0,2700.0,36.690499258448554,5.269042190322773,14226.413913871487,23.232949860523625,8.836933206325531,13.457549397924929,3.5678910160027577,3519,98,1160,1773,194.51157393178482,112.26927741811373,0.002344194539087873,False
0.3,0.9813395443128221,2.4000000000000004,5480.0,60.3876,0.3,68900.0,0.33,276.0,2700.0,43.007973434430596,6.394647347399976,17265.547837979935,26.90000967386217,11.2196993409252,16.107963760568428,4.825051993525223,4213,108,1384,2131,204.53585754281914,117.767966517342,0.002609741854314488,False
0.31,0.6287803625494706,2.4000000000000004,5481.0,60.3876,0.3,68900.0,0.33,276.0,2700.0,20.534185143721825,3.1204045727814864,8425.092346510013,14.450084390068367,4.022303081567554,6.084100753653457,0.9018985087860671,2063,70,682,1034,131.17094924199517,75.56215806434327,0.0014436674886870488,False
0.32,0.6714194885279934,2.4000000000000004,5482.0,60.3876,0.08,68900.0,0.33,276.0,2700.0,22.64091235821044,3.553916838598266,9595.575464215319,15.789739123381684,4.666840542082406,6.851173234828755,1.1129237034841402,55421,264,9436,34689,146.98112051019493,84.84371487021609,0.0015433512134827333,False
0.33,0.8065416697757372,2.4000000000000004,5483.0,60.3876,0.3,68900.0,0.33,276.0,2700.0,30.376705726108828,4.936890168013255,13329.603453635787,20.33690487239326,7.102429009897206,10.039800853715569,2.1655388418839507,2902,86,958,1459,156.86358031929063,90.51751725259729,0.001847283554401289,False
0.34,0.9325017772001986,2.4000000000000004,5484.0,60.3876,0.3,68900.0,0.33,276.0,2700.0,38.33524899048826,6.434674223278545,17373.620402852073,24.989003275551177,9.952871540011481,13.346245714937083,3.5181973167329357,3636,100,1202,1827,177.75915578129585,102.37729639832831,0.0021772247494353477,False
0.3500000000000001,0.769872270881018,2.4000000000000004,5485.0,60.3876,0.3,68900.0,0.33,276.0,2700.0,27.604414223846796,4.740975299158081,12800.63330772682,19.057529839372545,6.380247158561804,8.54688438447425,1.6392718594037232,2786,84,926,1391,144.62182252559117,83.36281675450407,0.0016573834578836367,False
0.36000000000000004,0.957471190790707,2.4000000000000004,5486.0,60.3876,0.3,68900.0,0.33,276.0,2700.0,39.454052785579066,7.004013403506983,18910.836189468853,25.958559250657864,10.588904315126266,13.495493534921202,3.584890911619283,3861,104,1282,1932,171.88926250313034,99.08805941499607,0.0021471557798498357,False
0.37,0.8232175737970739,2.4000000000000004,5487.0,60.3876,0.3,68900.0,0.33,276.0,2700.0,30.34546679113223,5.5078239612379365,14871.124695342429,20.92989674097838,7.446499908978486,9.41557005015385,1.938675947740549,3058,88,1016,1528,145.63639327408046,83.8772249772944,0.0017240207727366426,False
0.38,0.7654205576768702,2.4000000000000004,5488.0,60.3876,0.2,68900.0,0.33,276.0,2700.0,26.583239373185812,4.935891832846784,13326.907948686317,18.904512421684537,6.2957492809405196,7.678726951501275,1.3598574480937353,7669,122,1954,4278,144.48932396066044,83.33558734895107,0.001562215333961682,False
0.39,1.034993486176376,2.4000000000000004,5489.0,60.3876,0.3,68900.0,0.33,276.0,2700.0,44.022666370318746,8.460182519133296,22842.4928016599,29.068574998685992,12.720843443049429,14.954091371632753,4.260660923916133,4185,108,1386,2100,170.56637431520082,98.20806749167136,0.002221094315878295,False
0.4,0.8545006837089171,2.4000000000000004,5490.0,60.3876,0.3,68900.0,0.33,276.0,2700.0,31.510726366876796,6.168103986822192,16653.88076441992,22.061171394419684,8.11888294459072,9.449554972457111,1.9507789577685273,3010,88,998,1507,139.93051817673114,80.60707902912945,0.0016918567651790885,False
0.4100000000000001,1.0818961579564095,2.4000000000000004,5491.0,60.3876,0.3,68900.0,0.33,276.0,2700.0,46.828511265542616,9.455497004584194,25529.841912377324,31.023537669490697,14.129867663265886,15.80497359605192,4.674370658681692,4473,112,1484,2241,167.15353545272822,95.97202389519482,0.0022570017438125495,False
0.42000000000000004,0.8337667033049245,2.4000000000000004,5492.0,60.3876,0.3,68900.0,0.33,276.0,2700.0,29.69948456920981,6.0817222151879555,16420.64998100748,21.308630779086634,7.669287298776853,8.390853790123177,1.5875650835888973,3002,86,970,1519,132.2701411313268,76.11158132676,0.0015826122839076033,False
0.43,0.7653754619158994,2.4000000000000004,5493.0,60.3876,0.3,68900.0,0.33,276.0,2700.0,25.37373162944206,5.288833228924069,14279.849718094987,18.902964906763952,6.294896802460455,6.470766722678107,1.0060635735363856,2518,78,836,1256,127.85467431301822,73.76588788344341,0.0013853578041467037,False
0.44,0.9593223353264121,2.4000000000000004,5494.0,60.3876,0.3,68900.0,0.33,276.0,2700.0,37.25135491515052,8.01688912893085,21645.600648113297,26.03106262620758,10.63702445406608,11.220292288942943,2.6201353251352284,3484,98,1162,1731,143.36104555109316,82.12981706499565,0.0018022019004011066,False
0.45,1.0539707083907315,2.4000000000000004,5495.0,60.3876,0.3,68900.0,0.33,276.0,2700.0,43.54454223739251,9.606670249707733,25938.00967421088,29.85291010211184,13.279912187175595,13.691632135280674,3.6732419374678624,4177,108,1368,2105,152.5273970775175,87.55226656253235,0.002010048389018782,False
0.46,0.9676036525379803,2.4000000000000004,5496.0,60.3876,0.3,68900.0,0.33,276.0,2700.0,37.248821871079386,8.363368988661714,22581.096269386628,26.356469622679565,10.853942150828969,10.89235224839982,2.490573162167255,3478,98,1150,1735,140.52369869488385,80.86962037744513,0.0017561051852949356,False
0.4700000000000001,0.79952535702247,2.4000000000000004,5497.0,60.3876,0.1,68900.0,0.33,276.0,2700.0,26.423164413844688,5.9919972545377345,16178.392587251883,20.08949510321909,6.960607600449961,6.333669310625599,0.9686103459122268,47488,230,7238,30465,128.98610396369787,74.45661659708942,0.0014022050459115065,False
0.4800000000000001,1.1557741592667747,2.4000000000000004,5498.0,60.3876,0.3,68900.0,0.33,276.0,2700.0,50.144124037640346,11.802966425869819,31868.00934984851,34.21499634826737,16.538869405588674,15.929127689372976,4.735902979718855,5159,118,1604,2669,166.49434485584163,95.7268007859412,0.002152953542687301,False
0.49,1.1194084148805301,2.4000000000000004,5499.0,60.3876,0.3,68900.0,0.33,276.0,2700.0,47.096373822044164,11.292208096999365,30488.961861898286,32.62688857439819,15.323592679610167,14.469485247645977,4.0313845826108015,4775,112,1488,2465,152.03806239989305,87.47692727264403,0.002028588955243644,False
0.5,0.9996682273504568,2.4000000000000004,5500.0,60.3876,0.3,68900.0,0.33,276.0,2700.0,38.304919578635094,9.314430506859638,25148.962368521024,27.632675364973068,11.71944259463723,10.672244213662026,2.4050120877775907,3758,98,1158,1949,136.01070413912015,78.26963563184833,0.001728998720118191,False
0.01,0.4442159976059873,2.4000000000000004,5501.0,63.40698,0.05,68900.0,0.33,276.0,2700.0,18.09544524833227,0.09047513184656018,244.2828559857125,9.178314357909013,1.8549903417631823,8.917130890423255,1.7645152099166221,57207,374,18962,28758,2925.0135464942905,1666.4116024736832,0.023518842429623436,True
0.02,0.356841857270666,2.4000000000000004,5502.0,63.40698,0.08,68900.0,0.33,276.0,2700.0,13.48646777172176,0.13484792255639888,364.089390902277,6.981201199693908,1.1504254869620392,6.5052665720278515,1.0155775644056404,17387,200,5720,8801,1149.613512691425,655.6509598713378,0.009189540774451235,True
0.03,0.41286628855155205,2.4000000000000004,5503.0,63.40698,0.08,68900.0,0.33,276.0,2700.0,15.983471640222891,0.23969552593557866,647.1779200260623,8.36792254827686,1.5800201603860418,7.615549091946031,1.3403246344504631,21119,222,6924,10727,968.7820579455617,552.7805211096979,0.007464492786097948,True
0.04,0.4436182747680727,2.4000000000000004,5504.0,63.40698,0.1,68900.0,0.33,276.0,2700.0,17.296211077573762,0.3457901802649227,933.6334867152913,9.162632203121543,1.8495089408961904,8.133578874452219,1.5037187606312679,14359,184,4714,7282,749.068128565403,428.2284335810964,0.006231431933460625,True
0.05,0.5056479415723226,2.4000000000000004,5505.0,63.40698,0.1,68900.0,0.33,276.0,2700.0,20.31793566493797,0.5076865922356496,1370.753799036254,10.837958959341092,2.46932407387571,9.479976705596878,1.9616374816400604,16716,202,5486,8481,698.8849130941518,399.01400446442756,0.005962979893515213,True
0.06000000000000001,0.43852288166280345,2.4000000000000004,5506.0,63.40698,0.1,68900.0,0.33,276.0,2700.0,16.537806242248053,0.4956817979253244,1338.340854398376,9.029311459366204,1.8031616658129475,7.508494782881849,1.307479867887623,13623,178,4466,6918,486.82835399421504,279.3954971856581,0.004222036243377733,True
0.06999999999999999,0.485249560231829,2.4000000000000004,5507.0,63.40698,0.08,68900.0,0.33,276.0,2700.0,18.705021014331276,0.6539573579814738,1765.6848665499792,10.276358271966501,2.2539929030400763,8.428662742364775,1.6000355450586023,24686,242,8118,12503,454.69960764499234,260.5138355397617,0.004151043848928787,True
0.08,0.5690035732373391,2.4000000000000004,5508.0,63.40698,0.2,68900.0,0.33,276.0,2700.0,23.027850736716147,0.9200416991762216,2484.112587775798,12.648923554456971,3.2128045965285654,10.378927182259176,2.2927628973523437,4881,110,1600,2475,451.2764995357644,260.50963809114074,0.004493759442601468,True
0.09,0.6301200899172198,2.4000000000000004,5509.0,63.40698,0.2,68900.0,0.33,276.0,2700.0,26.30228398048899,1.182075965092363,3191.6051057493796,14.491481234762517,4.041689980297845,11.810802745726473,2.8596140152054828,5270,118,1726,2675,445.73247331673673,257.0923721614004,0.004599763326759071,True
0.09999999999999999,0.4235376670190288,2.4000000000000004,5510.0,63.40698,0.08,68900.0,0.33,276.0,2700.0,14.835243634601563,0.7396677866276851,1997.1030238947496,8.641005330380752,1.670771968555783,6.194238304220811,0.9311041819280979,19153,212,6326,9658,267.7063536497733,154.27711097651624,0.0025282613288935157,False
0.11,0.7933206111444671,2.4000000000000004,5511.0,63.40698,0.3,68900.0,0.33,276.0,2700.0,36.04354424319806,1.97960729349461,5344.939692435447,19.87173372965151,6.836633465809744,16.171810513546554,4.857026172315134,3599,98,1180,1823,460.72698833407094,265.99469682497977,0.005195835510311645,True
0.12,0.5439898303120332,2.4000000000000004,5512.0,63.40698,0.2,68900.0,0.33,276.0,2700.0,20.57451528218598,1.2308518021942254,3323.2998659244086,11.92187579508067,2.90553354625075,8.652639487105311,1.6746817440565247,4563,106,1488,2325,293.37047673053297,169.2191716807415,0.002914472052510375,True
0.13,0.545155084301237,2.4000000000000004,5513.0,63.40698,0.2,68900.0,0.33,276.0,2700.0,20.381647981202143,1.3202057327381627,3564.5554783930393,11.955395774941831,2.919445085911147,8.426252206260312,1.5992393531729845,4564,106,1492,2320,274.205462565203,158.13870176848116,0.002714731843531163,False
0.14,0.6713553596978492,2.4000000000000004,5514.0,63.40698,0.3,68900.0,0.33,276.0,2700.0,27.34831049881883,1.9086347147563492,5153.3137298421425,15.787689985940807,4.665828030288735,11.560620512878023,2.757193315532386,2830,84,928,1432,317.3903886957633,183.1727957426046,0.0033167054988986464,True
0.15000000000000002,0.8420684955625787,2.4000000000000004,5515.0,63.40698,0.3,68900.0,0.33,276.0,2700.0,38.06356854867564,2.847699057680094,7688.787455736254,21.60864767990589,7.847431265468243,16.45492086876975,4.999732207788149,3712,100,1220,1876,360.92282201142643,208.28334379545834,0.004225818255475165,True
0.16,0.5613492009157904,2.4000000000000004,5516.0,63.40698,0.3,68900.0,0.33,276.0,2700.0,20.50118151467599,1.6315158788346789,4405.092872853633,12.424772328897832,3.116843833907648,8.076409185778159,1.4853279550729692,2030,70,662,1031,244.07780322087635,140.91363209955273,0.0023343209825344114,False
0.17,0.5812887624326597,2.4000000000000004,5517.0,63.40698,0.2,68900.0,0.33,276.0,2700.0,21.339558398658312,1.8035727007477724,4869.646292018985,13.011762250473618,3.3704239031975076,8.327796148184694,1.5668512024497352,4673,106,1538,2360,222.4613337548392,128.31028145100248,0.0023052328258710677,False
0.18000000000000002,0.49941834377624905,2.4000000000000004,5518.0,63.40698,0.08,68900.0,0.33,276.0,2700.0,16.76417658901988,1.496561380774633,4040.715728091509,10.665338796818434,2.4023461320564707,6.098837792201445,0.9057847512818378,29130,226,7228,16440,189.34972876002706,109.31165716880021,0.0018392775910991163,False
0.19,0.5767426732015117,2.4000000000000004,5519.0,63.40698,0.3,68900.0,0.33,276.0,2700.0,20.588545856276795,1.9415464003389806,5242.175280915248,12.877053002893781,3.3115776678583164,7.711492853383014,1.3700312675193358,2243,74,738,1130,207.20055456896705,119.45000314852822,0.0020646896744151368,False
0.2,0.63769465260803,2.4000000000000004,5520.0,63.40698,0.3,68900.0,0.33,276.0,2700.0,23.734082127192075,2.3566530519000626,6362.963240130169,14.726379593725463,4.152345329377799,9.007702533466611,1.7956922774777366,2481,78,810,1260,212.88649649213295,122.90791869207582,0.0022335093166799954,False
0.21000000000000002,0.666265231612549,2.4000000000000004,5521.0,63.40698,0.3,68900.0,0.33,276.0,2700.0,25.121731533654085,2.618385617990418,7069.641168574129,15.625372516049758,4.585880050658801,9.496359017604327,1.9674944326683832,2489,78,810,1268,211.7698785180104,122.26470015500408,0.0022622036560070308,False
0.22,0.6944509143164221,2.4000000000000004,5522.0,63.40698,0.3,68900.0,0.33,276.0,2700.0,26.51564438852391,2.894419763686834,7814.933361954451,16.53235701030114,5.03902693419599,9.98328737822277,2.144607170509156,2606,80,856,1316,211.8119525421736,122.05545410129939,0.0022865639978277823,False
0.23,0.9298021706113793,2.4000000000000004,5523.0,63.40698,0.3,68900.0,0.33,276.0,2700.0,41.59192670531494,4.757589065900396,12845.49047793107,24.885116889695023,9.885551329512609,16.706809815619916,5.127962263612213,3832,104,1260,1936,260.7494908978093,150.52527424701054,0.0032539943257391445,False
0.24000000000000005,0.5906908812895784,2.4000000000000004,5524.0,63.40698,0.1,68900.0,0.33,276.0,2700.0,20.125770465433494,2.3861395379565375,6442.5767524826515,13.292012855364673,3.494077772415109,6.833757610068821,1.1079382344585715,22907,202,5636,12977,172.77158624546615,99.67921625714554,0.0017584476703460703,False
0.25,0.902358862167751,2.4000000000000004,5525.0,63.40698,0.3,68900.0,0.33,276.0,2700.0,39.02467381853212,4.845359303841466,13082.470120371958,23.839437392008943,9.217013131596321,15.18523642652318,4.371653827754855,3570,100,1172,1806,236.78881971267822,136.6936158311262,0.0028865808621779065,False
0.26,0.726549297405216,2.4000000000000004,5526.0,63.40698,0.3,68900.0,0.33,276.0,2700.0,27.36026164119441,3.5200229250356116,9504.061897596152,17.589564122278908,5.586586918233272,9.770697518915501,2.0665639931976605,2733,82,900,1377,187.2289858740687,107.66248147872085,0.0020891795377115515,False
0.27,0.7418334731650433,2.4000000000000004,5527.0,63.40698,0.3,68900.0,0.33,276.0,2700.0,28.014763733929268,3.7407691252800452,10100.076638256121,18.10207137423831,5.859338055288894,9.912692359690958,2.1185689300088484,2745,82,902,1386,183.72404390124333,105.97154156410448,0.0020750908797569755,False
0.28,0.7762655465415129,2.4000000000000004,5528.0,63.40698,0.2,68900.0,0.33,276.0,2700.0,29.856502813856487,4.133934232652174,11161.62242816087,19.27815529689735,6.502791912612503,10.578347516959138,2.368857679960329,6319,128,2096,3169,185.7847331171514,107.19062698433005,0.002132867413029017,False
0.29000000000000004,0.6789592805756632,2.4000000000000004,5529.0,63.40698,0.3,68900.0,0.33,276.0,2700.0,23.79790741295283,3.399616372725895,9178.964206359917,16.031381955055124,4.786801962198268,7.766525457897707,1.3871855894723732,2504,78,828,1256,160.35109991398977,92.19597385944267,0.0017518811053893043,False
0.3,0.8701313250772242,2.4000000000000004,5530.0,63.40698,0.3,68900.0,0.33,276.0,2700.0,35.31770206191497,5.241106641522626,14150.987932111091,22.63562887812112,8.468194774136043,12.68207318379385,3.2270881326134164,3174,94,1054,1587,197.86085430784982,114.18869217902058,0.0023260608505337945,False
0.31,0.8300989399501568,2.4000000000000004,5531.0,63.40698,0.3,68900.0,0.33,276.0,2700.0,32.41878088366336,4.962516912472418,13398.79566367553,21.176633855142633,7.591374453743949,11.242147028520726,2.6288575412715307,3087,90,1022,1548,186.4018775458623,107.5824164573367,0.0021233902440132026,False
0.32,0.9145544767017426,2.4000000000000004,5532.0,63.40698,0.3,68900.0,0.33,276.0,2700.0,37.709613065210235,5.964908951718419,16105.254169639731,24.30179327550862,9.510565278799332,13.407819789701616,3.5456563270809127,3608,100,1194,1811,193.41334392522225,111.44335731188973,0.002350906438047417,False
0.33,1.025497537031634,2.4000000000000004,5533.0,63.40698,0.3,68900.0,0.33,276.0,2700.0,45.24592251303192,7.390310937855552,19953.83953220999,28.679501855976387,12.446658835926126,16.566420657055534,5.056347898070574,4227,110,1398,2124,206.7459104836552,119.14808671552035,0.0026698978157492855,False
0.34,0.9638580217690791,2.4000000000000004,5534.0,63.40698,0.3,68900.0,0.33,276.0,2700.0,40.50744899376198,6.803948223835076,18370.660204354706,26.209074901899232,10.755496700412325,14.298374091862751,3.9515484765772486,4004,106,1312,2030,191.15215973397935,110.22727357277465,0.0023900297066601593,False
0.3500000000000001,0.8911025209064387,2.4000000000000004,5535.0,63.40698,0.3,68900.0,0.33,276.0,2700.0,35.25497400922926,6.079823261600012,16415.522806320034,23.416008220085576,8.951054407567819,11.838965789143682,2.8712311459678066,3323,94,1100,1667,173.48852038836063,99.98888612092043,0.0020996258173962804,False
0.36000000000000004,0.6619592639154914,2.4000000000000004,5536.0,63.40698,0.3,68900.0,0.33,276.0,2700.0,21.187801833733484,3.716088232174771,10033.438226871882,15.488569312867215,4.5188924036504154,5.6992325208662695,0.8028041714756444,1996,70,662,997,123.9479087815987,71.46054103358884,0.0014262260736302703,False
0.37,0.9265366556060473,2.4000000000000004,5537.0,63.40698,0.3,68900.0,0.33,276.0,2700.0,37.044293308153385,6.74710686688686,18217.18854059452,24.759697972701296,9.804493458508821,12.284595335452089,3.0573865916219614,3302,96,1094,1655,172.88158174019688,99.67213665842392,0.0021078484598705126,False
0.38,0.9793049256500466,2.4000000000000004,5538.0,63.40698,0.3,68900.0,0.33,276.0,2700.0,40.36992242227825,7.555361612174356,20399.476352870763,26.819199036126946,11.165050306270135,13.550723386151304,3.6096886940957793,3866,104,1282,1937,175.03063683277708,100.48378789157763,0.0022158378363646143,False
0.39,0.7684795915362819,2.4000000000000004,5539.0,63.40698,0.1,68900.0,0.33,276.0,2700.0,26.517036323350908,5.046584659974567,13625.77858193133,19.00960614937183,6.353739507216749,7.507430173979078,1.307154847242182,41285,232,7190,25706,148.73680126805775,85.86741720990359,0.001622432015232555,False
0.4,0.8496362348942027,2.4000000000000004,5540.0,63.40698,0.3,68900.0,0.33,276.0,2700.0,31.204578266693733,6.106874366785584,16488.560790321077,21.883645957672044,8.011999528329188,9.32093230902169,1.9051251615436042,3047,88,1012,1523,146.21462894510395,84.24390184703951,0.001763447225266492,False
0.4100000000000001,0.9533117498440853,2.4000000000000004,5541.0,63.40698,0.3,68900.0,0.33,276.0,2700.0,37.69834717358527,7.583813365732937,20476.29608747893,25.795961499209355,10.481269529453813,11.902385674375914,2.897456163720876,3376,96,1118,1693,158.65003526907702,91.33762101328114,0.001999078803318161,False
0.42000000000000004,1.1076550974717407,2.4000000000000004,5542.0,63.40698,0.3,68900.0,0.33,276.0,2700.0,48.43257151919957,10.015670474685802,27042.310281651666,32.12072314267171,14.943096464102585,16.311848376527863,4.927425989416783,4477,114,1488,2239,177.2420593591893,101.77478800178443,0.002394101762923715,False
0.43,0.7459063262144725,2.4000000000000004,5543.0,63.40698,0.3,68900.0,0.33,276.0,2700.0,24.25747136523754,5.0488372721200925,13631.86063472425,18.239632533512577,5.933345123580483,6.017838831724962,0.8845078514603903,2295,74,762,1144,116.29108763446963,66.8983521770222,0.0014209080657106568,False
0.44,0.7828360259844656,2.4000000000000004,5544.0,63.40698,0.08,68900.0,0.33,276.0,2700.0,26.152819462893195,5.575211329434239,15053.070589472447,19.505966256596327,6.630206455215953,6.646853206296868,1.0549951257817138,81229,284,10718,53354,139.63828569528738,80.45735490490851,0.0015104609114352306,False
0.45,0.9211061169554127,2.4000000000000004,5545.0,63.40698,0.3,68900.0,0.33,276.0,2700.0,34.444825646864345,7.559234016838896,20409.931845465017,24.55172024297202,9.670600012658664,9.893105403892324,2.111365995819768,3170,92,1056,1576,141.86673618491466,81.57481788082511,0.0017667460670348668,False
0.46,1.1156771340640046,2.4000000000000004,5546.0,63.40698,0.3,68900.0,0.33,276.0,2700.0,47.755640126954866,10.779937187513081,29105.83040628532,32.46582202424398,15.202153197234871,15.289818102710889,4.42221600972179,4386,112,1448,2200,167.6922461025709,96.28705858386553,0.002232183410190377,False
0.4700000000000001,0.8413540528877621,2.4000000000000004,5547.0,63.40698,0.2,68900.0,0.33,276.0,2700.0,28.915598311123205,6.577719220398183,17759.841895075097,21.582760452300874,7.832002373654476,7.33283785882233,1.254283153256293,7842,122,1956,4408,137.2539781081354,79.18775643149148,0.0015514311693424654,False
0.4800000000000001,0.9874046006823134,2.4000000000000004,5548.0,63.40698,0.2,68900.0,0.33,276.0,2700.0,38.02832958989424,8.895175758410746,24016.974547709015,27.14151787318708,11.383581329093454,10.886811716707161,2.4884055706827084,10230,144,2556,5750,152.20076500404048,87.72925348799974,0.0018588642035181054,False
0.49,1.051864923565901,2.4000000000000004,5549.0,63.40698,0.3,68900.0,0.33,276.0,2700.0,42.205259366414296,10.093885055370054,27253.489649499144,29.76543083980404,13.217140507913987,12.439828526610256,3.1232554525439333,3949,104,1286,1988,147.9462934480496,84.5724269367652,0.0019550917131693235,False
0.5,0.8285270635591988,2.4000000000000004,5550.0,63.40698,0.2,68900.0,0.33,276.0,2700.0,27.430528222080632,6.595832667721011,17808.748202846728,21.120168040908975,7.558131789721395,6.3103601811716565,0.9622991220003847,7793,120,1928,4393,130.06268004607193,74.57701688326492,0.0014540332551426184,False
0.01,0.44443886434267416,2.4000000000000004,5551.0,66.42636,0.05,68900.0,0.33,276.0,2700.0,18.107088318080045,0.09053334719529892,244.44003742730706,9.18416389904301,1.8570365345433029,8.922924419037034,1.766503187348004,57243,374,18978,28770,3033.266663698647,1728.0286306870175,0.024656240333079768,True
0.02,0.6664007592365829,2.4000000000000004,5552.0,66.42636,0.1,68900.0,0.33,276.0,2700.0,30.62783584689853,0.30626160330816604,826.9063289320483,15.629685875063847,4.587998012554981,14.998149971834684,4.281736409246815,25003,258,8286,12568,2179.4013313647856,1242.1356621562431,0.022460899596374137,True
0.03,0.3842056496698867,2.4000000000000004,5553.0,66.42636,0.1,68900.0,0.33,276.0,2700.0,14.566549554602966,0.21844169465127997,589.792575558456,7.64865669915996,1.350546771287768,6.917892855443006,1.132105076636488,12613,170,4136,6403,850.7743332580258,485.7270254150061,0.00716949413485319,True
0.04,0.5350958819175213,2.4000000000000004,5554.0,66.42636,0.1,68900.0,0.33,276.0,2700.0,22.21329249847025,0.444131808682853,1199.155883443703,11.667154574143975,2.80063521033436,10.546137924326274,2.3565034016515067,18192,214,5978,9219,1015.676957798453,578.739342508544,0.00825012618706278,True
0.05,0.5998973693580072,2.4000000000000004,5555.0,66.42636,0.1,68900.0,0.33,276.0,2700.0,25.660750679539746,0.6412569676006922,1731.3938125218688,13.568585128629287,3.617722025507181,12.092165550910458,2.9764650579064886,21182,232,6962,10733,898.8735011694095,513.3602548880201,0.007761122694589182,True
0.06000000000000001,0.38843616111133594,2.4000000000000004,5556.0,66.42636,0.1,68900.0,0.33,276.0,2700.0,14.061765574011282,0.4214005778782217,1137.7815602711987,7.753526627649363,1.383126169105532,6.30823894636192,0.9617255912273104,11974,166,3942,6055,441.3222030084909,253.60714838329028,0.0038174646493296343,True
0.06999999999999999,0.5594233950319958,2.4000000000000004,5557.0,66.42636,0.2,68900.0,0.33,276.0,2700.0,22.759028496461276,0.795847619856025,2148.7885736112676,12.368608725890603,3.0929702293091896,10.390419770570674,2.2971226094531647,4929,110,1618,2496,524.9812012818694,303.08509842250845,0.00521076772394821,True
0.08,0.5959025437538178,2.4000000000000004,5558.0,66.42636,0.2,68900.0,0.33,276.0,2700.0,24.57254978482249,0.9818296611004751,2650.940084971283,13.448314873122523,3.563758257092543,11.124234911699965,2.5819285959920677,5232,116,1712,2658,491.6697456953606,283.7338200866451,0.004996984064684777,True
0.09,0.6255734308049963,2.4000000000000004,5559.0,66.42636,0.2,68900.0,0.33,276.0,2700.0,26.031956165499057,1.1699112134178151,3158.760276228101,14.35117517695603,3.9761213138504794,11.680780988543027,2.806210100432664,5314,118,1738,2701,462.41097419917276,266.82733158063564,0.004774685511839221,True
0.09999999999999999,0.7234082711627583,2.4000000000000004,5560.0,66.42636,0.3,68900.0,0.33,276.0,2700.0,31.76950964911866,1.5863810873535376,4283.228935854551,17.48496685244149,5.531501972020802,14.284542796677169,3.9451208846672645,3316,92,1086,1681,494.1751438096884,285.2985766928365,0.005251523758494839,True
0.11,0.7582915701821222,2.4000000000000004,5561.0,66.42636,0.3,68900.0,0.33,276.0,2700.0,33.71793274766594,1.8516986612403392,4999.586385348916,18.66050731167562,6.161849761806923,15.057425435990321,4.310151100566584,3297,92,1076,1677,463.10167250781484,267.3688784807149,0.005123996053641878,True
0.12,0.8084631735738994,2.4000000000000004,5562.0,66.42636,0.3,68900.0,0.33,276.0,2700.0,36.742884690449564,2.20095396668876,5942.575710059652,20.404876905097016,7.141571739253595,16.33800778535255,4.940617772564835,3596,98,1174,1829,453.1788493529874,261.6416854161553,0.005151917860680278,True
0.13,0.8107746117056074,2.4000000000000004,5563.0,66.42636,0.3,68900.0,0.33,276.0,2700.0,36.576540501694005,2.3728737465701504,6406.759115739406,20.486765580278437,7.1888309642429755,16.089774921415568,4.815957217672825,3624,98,1186,1839,488.71792398052514,281.9653528538514,0.005306624797627961,True
0.14,0.5983256083620512,2.4000000000000004,5564.0,66.42636,0.3,68900.0,0.33,276.0,2700.0,23.072325889508395,1.6093157921046206,4345.152638682475,13.521217032323174,3.596432686427195,9.551108857185222,1.9871168943225745,2379,76,782,1200,307.5835312768357,177.5808470454924,0.0029899432872888022,True
0.15000000000000002,0.519775342358487,2.4000000000000004,5565.0,66.42636,0.2,68900.0,0.33,276.0,2700.0,18.52736714748845,1.3824839525910564,3732.706671995852,11.233038697867338,2.6252210833557887,7.294328449621114,1.2427371307647324,3896,98,1284,1964,239.22849341281545,138.11467104107086,0.002351113989017471,False
0.16,0.7323852505427795,2.4000000000000004,5566.0,66.42636,0.3,68900.0,0.33,276.0,2700.0,30.532983573765367,2.4340600435618267,6571.962117616932,17.7845617405271,5.689807372353972,12.748421833238268,3.255747328792145,2907,86,952,1473,317.1347005016167,183.07131121256361,0.0034447670492664265,True
0.17,0.5627846618156082,2.4000000000000004,5567.0,66.42636,0.3,68900.0,0.33,276.0,2700.0,20.328486480698537,1.7176315877213184,4637.60528684756,12.466696295833207,3.1347091926876898,7.861790184865329,1.4170776049663714,2021,70,660,1025,240.71595774073654,138.96781487235353,0.0023226206273459045,False
0.18000000000000002,0.7474463783882871,2.4000000000000004,5568.0,66.42636,0.3,68900.0,0.33,276.0,2700.0,30.89495985838262,2.7683318750172794,7474.496062546655,18.291756628523277,5.961475238576149,12.603203229859343,3.1931433635588697,2911,86,954,1474,288.53819389128074,166.5285761584317,0.003174000261413878,True
0.19,0.8300633099401638,2.4000000000000004,5569.0,66.42636,0.3,68900.0,0.33,276.0,2700.0,35.97548436109561,3.403305558296768,9188.925007401274,21.17535324635263,7.590619952882198,14.800131114742982,4.18731439458543,3619,98,1184,1837,296.1382681080752,170.83123145856786,0.003480419275440245,True
0.2,0.7447303068394776,2.4000000000000004,5570.0,66.42636,0.3,68900.0,0.33,276.0,2700.0,30.143042081255345,2.997549047306388,8093.382427727247,18.199869510761648,5.911918346777316,11.943172570493697,2.9143692994709283,2927,86,962,1478,259.2018400185438,149.57804966489726,0.00286450335107107,False
0.21000000000000002,0.7357410994979188,2.4000000000000004,5571.0,66.42636,0.3,68900.0,0.33,276.0,2700.0,29.298459258541588,3.0569420291035683,8253.743478579634,17.897078874459854,5.7496783913889935,11.401380384081733,2.6927363622854252,2930,86,964,1478,242.106539213817,139.76348977196812,0.0026955890399313126,False
0.22,0.7427926776590404,2.4000000000000004,5572.0,66.42636,0.3,68900.0,0.33,276.0,2700.0,29.452501149476966,3.217474007392179,8687.179819958883,18.134431103927458,5.876717161452406,11.318070045549508,2.6592431540602273,2788,84,916,1408,235.2268089301158,135.75028325978093,0.002614133838340321,False
0.23,0.5421693898244719,2.4000000000000004,5573.0,66.42636,0.08,68900.0,0.33,276.0,2700.0,17.801569756671835,2.021698016806446,5458.584645377404,11.8695768626756,2.8838780970480857,5.9319928939962345,0.86218008024164,36269,232,7590,21692,176.22031091067782,101.7261321821979,0.0017295740401998994,False
0.24000000000000005,0.5535592837498282,2.4000000000000004,5574.0,66.42636,0.05,68900.0,0.33,276.0,2700.0,18.162044583389562,2.150492432111265,5806.329566700415,12.19816365445765,3.0209395081110926,5.963880928931912,0.8704470759998277,132784,372,19530,85823,192.84605356746272,107.96878696182314,0.0017142141528066204,False
0.25,0.920574104229371,2.4000000000000004,5575.0,66.42636,0.3,68900.0,0.33,276.0,2700.0,40.29411966098723,5.004040034148515,13510.90809220099,24.53138518388077,9.65754359461367,15.76273447710646,4.653503560465156,3889,104,1280,1963,253.25200229878845,146.19846106342592,0.0031124711612805665,False
0.26,0.608102367993868,2.4000000000000004,5576.0,66.42636,0.2,68900.0,0.33,276.0,2700.0,20.588860137406737,2.639740729543187,7127.299969766605,13.816866886974925,3.73006966682687,6.771993250431812,1.090328937283683,4314,102,1436,2154,166.0836730930426,95.35444270502803,0.001764966886730751,False
0.27,0.6524345477255566,2.4000000000000004,5577.0,66.42636,0.1,68900.0,0.33,276.0,2700.0,22.792505236283823,3.03576422809791,8196.563415864357,15.187618717424117,4.372803220995613,7.604886518859706,1.3370389928977033,26832,214,6236,15532,179.42047078515776,103.56465542242067,0.0018784314902413261,False
0.28,0.7240594531027793,2.4000000000000004,5578.0,66.42636,0.3,68900.0,0.33,276.0,2700.0,26.68083737415788,3.6893410710943697,9961.220891954797,17.506631063873932,5.542894919750278,9.174206310283946,1.8535538486559084,2759,82,910,1388,183.42193706003653,105.85812881863765,0.0020435432754421913,False
0.29000000000000004,0.9382637293963239,2.4000000000000004,5579.0,66.42636,0.3,68900.0,0.33,276.0,2700.0,40.26789965866771,5.787765248354553,15626.966170557294,25.211347661604,10.09749715052355,15.056551997063707,4.309731902168997,3779,102,1242,1910,222.384659755942,128.32524164805415,0.0027914152212232886,False
0.3,0.6662775507649326,2.4000000000000004,5580.0,66.42636,0.08,68900.0,0.33,276.0,2700.0,22.834994696134554,3.368700536655567,9095.491448970031,15.625764571487663,4.586072544418768,7.209230124646892,1.2173720077632013,54743,268,9690,34010,171.4790222324585,97.08922043456946,0.0017716516283462459,False
0.31,0.815790235285395,2.4000000000000004,5581.0,66.42636,0.3,68900.0,0.33,276.0,2700.0,31.506832098005756,4.821164850695495,13017.145096877837,20.664918831706903,7.292031379324133,10.841913266298853,2.4708665286286378,3044,90,1014,1517,184.82911341410409,106.5712996884902,0.002176210523454964,False
0.32,0.6311430106504237,2.4000000000000004,5582.0,66.42636,0.3,68900.0,0.33,276.0,2700.0,20.431595361656132,3.2004261191497614,8641.150521704356,14.523119297728451,4.056529796281265,5.908476063927681,0.8561036771315038,2055,70,682,1026,139.20781164637208,79.92602381660159,0.0015548575828213463,False
0.33,0.6611535108637994,2.4000000000000004,5583.0,66.42636,0.1,68900.0,0.33,276.0,2700.0,21.834760579881085,3.527469218885678,9524.166890991331,15.463021808296556,4.5064227352457475,6.371738771584528,0.9789535163600696,31391,208,5934,19246,163.99565070271856,94.44526031798871,0.0016707533825285048,False
0.34,0.8461230339343866,2.4000000000000004,5584.0,66.42636,0.3,68900.0,0.33,276.0,2700.0,32.60696708587422,5.460866299494152,14744.339008634211,21.75580344087669,7.93534254138987,10.851163644997527,2.474476241895718,3086,90,1024,1544,177.91242466141944,102.52207211654054,0.0021039489690674626,False
0.3500000000000001,0.7965547006992162,2.4000000000000004,5585.0,66.42636,0.3,68900.0,0.33,276.0,2700.0,29.224876443302023,5.024556187562747,13566.301706419417,19.985116404795644,6.9010837063163475,9.239760038506379,1.8765275187536004,2901,86,962,1452,164.4694115993902,94.7868850597251,0.0019049745842398985,False
0.36000000000000004,0.7293930418521137,2.4000000000000004,5586.0,66.42636,0.08,68900.0,0.33,276.0,2700.0,24.96948810655312,4.396791761282307,11871.33775546223,17.68447567364911,5.636742047463072,7.285012432904008,1.2399502861807647,68361,282,10564,43749,158.22077552217186,91.33539063842156,0.0017039149185130841,False
0.37,0.7799849279462858,2.4000000000000004,5587.0,66.42636,0.3,68900.0,0.33,276.0,2700.0,27.701658688222494,5.018719462199643,13550.542547939036,19.40698003287539,6.574734191342576,8.294678655347106,1.556014729142933,2756,84,918,1373,155.39850420602394,89.57810664760765,0.001762567644309585,False
0.38,1.016387501974295,2.4000000000000004,5588.0,66.42636,0.3,68900.0,0.33,276.0,2700.0,42.9941105831876,8.053957362747129,21745.684879417247,28.30837060760341,12.187079661435403,14.685739975584188,4.133122298688274,4092,108,1352,2058,190.16574843778474,109.54546323203697,0.0024400648293997343,False
0.39,1.0334473283323156,2.4000000000000004,5589.0,66.42636,0.3,68900.0,0.33,276.0,2700.0,43.91081250621481,8.438371015633034,22783.601742209194,29.005070525560296,12.675947939510582,14.905741980654515,4.237576923877548,4191,108,1388,2103,187.385444910704,107.89410636209674,0.0024384394662000236,False
0.4,0.8495916212819892,2.4000000000000004,5590.0,66.42636,0.3,68900.0,0.33,276.0,2700.0,31.20177597654196,6.106313908755226,16487.04755363911,21.882020560121948,8.011023256092232,9.319755416420012,1.9047093473370058,3047,88,1012,1523,153.1702116524077,88.251160211335,0.0018472983447995236,False
0.4100000000000001,0.8005943645082769,2.4000000000000004,5591.0,66.42636,0.3,68900.0,0.33,276.0,2700.0,27.934310121984513,5.582185770154789,15071.90157941793,20.12711063542086,6.982103524185547,7.807199486563654,1.3999177540307581,2852,84,920,1446,145.52345800526732,83.79914284659387,0.0016849702251582547,False
0.42000000000000004,1.1028018763729677,2.4000000000000004,5592.0,66.42636,0.3,68900.0,0.33,276.0,2700.0,48.06781127742544,9.93907082391324,26835.49122456575,31.91272832428439,14.787712454672853,16.15508295314105,4.848641630759612,4509,114,1496,2259,185.2078096056612,106.35652459535851,0.0024936195883001077,False
0.43,1.0633479988164904,2.4000000000000004,5593.0,66.42636,0.3,68900.0,0.33,276.0,2700.0,44.83522512136355,9.473054329687189,25577.24669015541,30.243817985309963,13.561682696638863,14.591407136053586,4.088628366951674,4234,110,1404,2122,175.64378120193103,100.8347034454141,0.00232578043309465,False
0.44,0.841189387185444,2.4000000000000004,5594.0,66.42636,0.3,68900.0,0.33,276.0,2700.0,29.649183279044113,6.344411368987444,17129.9106962661,21.576795748587614,7.828448924347049,8.0723875304565,1.4840375553596052,3080,86,966,1583,140.54119424852024,80.82034330048361,0.0016883867455231697,False
0.45,0.8487600359736485,2.4000000000000004,5595.0,66.42636,0.3,68900.0,0.33,276.0,2700.0,29.863065577803816,6.52833800130027,17626.512603510728,21.851732758690773,7.992839083927393,8.011332819113044,1.4645010826271232,3123,86,970,1612,138.41171176426002,79.63229657165284,0.0016856413407569297,False
0.46,0.9135189298826836,2.4000000000000004,5596.0,66.42636,0.3,68900.0,0.33,276.0,2700.0,33.6859369198051,7.543905449868631,20368.544714645304,24.262388759090236,9.48542003901204,9.423548160714866,1.9415145891434085,3232,92,1058,1623,144.01534069269317,82.91563001957911,0.001800401929291582,False
0.4700000000000001,0.7978562815205403,2.4000000000000004,5597.0,66.42636,0.2,68900.0,0.33,276.0,2700.0,26.32553437858318,5.969054196251229,16116.44632987832,20.030822201558205,6.927125690816832,6.294712177024973,0.958071494565603,7433,118,1862,4168,139.34067666541762,80.42416257949108,0.001526007110978301,False
0.4800000000000001,0.8972968029944313,2.4000000000000004,5598.0,66.42636,0.3,68900.0,0.33,276.0,2700.0,32.12957702688199,7.479475143287812,20194.58288687709,23.648624160805937,9.096819714462027,8.480952866076052,1.6173445711742156,3239,88,982,1692,136.1290363983054,78.08599147577807,0.0017133260472404661,False
0.49,1.177451873699342,2.4000000000000004,5599.0,66.42636,0.3,68900.0,0.33,276.0,2700.0,51.48275524240219,12.366871544987085,33390.55317146513,35.177483136052885,17.290983247286785,16.305272106349307,4.924111702299701,5289,118,1634,2744,176.02947969932396,101.07704492402566,0.0024207302670871864,False
0.5,0.8488975875144193,2.4000000000000004,5600.0,66.42636,0.2,68900.0,0.33,276.0,2700.0,28.647691443420403,6.900123473055674,18630.33337725032,21.856741428393644,7.995845167906736,6.790950015026759,1.0957216948510613,7635,120,1894,4300,137.24537117214135,79.07274528966535,0.0015618435763996984,False
0.01,0.3492913650231541,2.4000000000000004,5601.0,69.44574,0.05,68900.0,0.33,276.0,2700.0,13.363359547061867,0.06681470334020653,180.39969901855764,6.800342926139133,1.0983976674603941,6.563016620922734,1.0315829641201877,43194,314,14320,21708,2479.1745242070315,1412.3444139557366,0.019146217367394542,True
0.02,0.6864014420055164,2.4000000000000004,5602.0,69.44574,0.1,68900.0,0.33,276.0,2700.0,31.901004555563784,0.3189932903948171,861.2818840660062,16.271296949240767,4.907001974421175,15.629707606323016,4.588008684026358,26096,264,8632,13142,2539.3309428037596,1444.3550515443335,0.024662858374829552,True
0.03,0.5590632048815332,2.4000000000000004,5603.0,69.44574,0.1,68900.0,0.33,276.0,2700.0,23.853625864847842,0.3577478393049519,965.9191661233701,12.358114599587704,3.0885170683095353,11.495511265260138,2.7307692290045833,19696,224,6464,9994,1413.4752186431815,806.488347982352,0.01196153368486658,True
0.04,0.6990497224469361,2.4000000000000004,5604.0,69.44574,0.1,68900.0,0.33,276.0,2700.0,32.078631494457944,0.6414385886026085,1731.884189227043,16.682236261087432,5.115400501288001,15.396395233370512,4.473961912685392,26219,264,8590,13328,1408.2816544422924,804.0822746876446,0.012645400389528993,True
0.05,0.45923704879488775,2.4000000000000004,5605.0,69.44574,0.1,68900.0,0.33,276.0,2700.0,17.85106410901361,0.44601480333753984,1204.2399690113575,9.575362357419683,1.9958332123380302,8.275701751593926,1.5498184090004905,15010,188,4912,7636,683.5840485055472,391.19297821545865,0.0057921123045792,True
0.06000000000000001,0.45486758494712465,2.4000000000000004,5606.0,69.44574,0.2,68900.0,0.33,276.0,2700.0,17.37309701468022,0.5207405210982902,1405.9994069653835,9.45928046152544,1.954247795231977,7.9138165531547795,1.433507274133687,3883,96,1272,1969,531.5212448509008,306.87347337182734,0.0048436721920126335,True
0.06999999999999999,0.4936423383289006,2.4000000000000004,5607.0,69.44574,0.1,68900.0,0.33,276.0,2700.0,19.14985700601328,0.6695266176903099,1807.7218677638366,10.506158941011096,2.3412031925163244,8.643698065002186,1.6716765748260145,15743,196,5172,7979,512.5419863918715,293.9144090882182,0.004644220115902701,True
0.08,0.6950829201065443,2.4000000000000004,5608.0,69.44574,0.2,68900.0,0.33,276.0,2700.0,30.582352334242636,1.222221763077283,3299.998760308664,16.5529231371862,5.049481977977335,14.029429197056437,3.827260214900052,6368,130,2084,3236,603.9451580126222,345.45659001319467,0.00638592848792751,True
0.09,0.42605734148437885,2.4000000000000004,5609.0,69.44574,0.2,68900.0,0.33,276.0,2700.0,15.192704556624737,0.6821448910184685,1841.791205749865,8.705901991545126,1.6926262147680737,6.486802565079611,1.0104813237496053,3218,88,1056,1628,362.94658444175445,209.19554964207418,0.008853911630782182,True
0.09999999999999999,0.4039426208303968,2.4000000000000004,5610.0,69.44574,0.08,68900.0,0.33,276.0,2700.0,13.886003490768145,0.6922057794360151,1868.955604477241,8.141761397202862,1.5063581818248528,5.744242093565283,0.8141524023888377,17516,200,5784,8834,877.0096956727446,482.09584952721707,0.0026079999838075477,True
0.11,0.7572250608969888,2.4000000000000004,5611.0,69.44574,0.3,68900.0,0.33,276.0,2700.0,33.648093693329784,1.847857513251856,4989.215285780011,18.624113547904077,6.1419675671779075,15.023980145425707,4.294110053926051,3296,92,1076,1676,483.47152779817543,279.12921042679733,0.005346815878708248,True
0.12,0.6833468754590718,2.4000000000000004,5612.0,69.44574,0.3,68900.0,0.33,276.0,2700.0,28.655788015007257,1.715728166163498,4632.466048641445,16.172657634736062,4.857450924958681,12.483130380271195,3.1417227587951833,2814,84,922,1425,403.78877620926465,232.49044095772743,0.004289847050949486,True
0.13,0.6173417380681279,2.4000000000000004,5613.0,69.44574,0.2,68900.0,0.33,276.0,2700.0,24.43195196853115,1.5834754919145666,4275.38382816933,14.09847392041023,3.859028097153704,10.333478048120918,2.2755526052391373,5173,114,1692,2629,332.7694682774095,191.84557058629983,0.00348606550030608,True
0.14,0.6525697425275767,2.4000000000000004,5614.0,69.44574,0.3,68900.0,0.33,276.0,2700.0,26.22277827310212,1.8298474589561804,4940.588139181687,15.191874489221096,4.37485679577521,11.030903783881023,2.545009336819029,2538,80,830,1287,343.19436007827267,198.07721801823143,0.0035003347235956868,True
0.15000000000000002,0.7654725633177479,2.4000000000000004,5615.0,69.44574,0.3,68900.0,0.33,276.0,2700.0,32.94762729220432,2.464003463444337,6652.80935129971,18.906297120848723,6.296732468631626,14.041330171355593,3.8327290051872893,3289,92,1074,1672,365.60972104978606,211.0741526504569,0.004062393431631299,True
0.16,0.5975443442170075,2.4000000000000004,5616.0,69.44574,0.3,68900.0,0.33,276.0,2700.0,22.501477966021476,1.7915395949423185,4837.15690634426,13.497695208196644,3.585878233740136,9.003782757824832,1.7943386387978173,2354,76,772,1190,279.24482439420717,161.22109934676047,0.002761861717230013,True
0.17,0.5290008898711993,2.4000000000000004,5617.0,69.44574,0.1,68900.0,0.33,276.0,2700.0,18.526923354839735,1.5644987220233206,4224.146549462966,11.493743035073054,2.7300529411954413,7.0331803197666805,1.1655542191721207,16224,192,5060,8396,229.14116347370168,132.27515270266983,0.0022521494514111708,False
0.18000000000000002,0.6547991299992222,2.4000000000000004,5618.0,69.44574,0.3,68900.0,0.33,276.0,2700.0,25.254811285798265,2.2607185034846853,6103.93995940865,15.262119203492736,4.408803648568461,9.99269208230553,2.1480851450837757,2479,78,810,1258,269.57976935631916,155.50334303694004,0.002785237641560454,False
0.19,0.6848321877121306,2.4000000000000004,5619.0,69.44574,0.3,68900.0,0.33,276.0,2700.0,26.75947386192253,2.5277845608753244,6825.018314363376,16.2205926565013,4.8815079638827035,10.53888120542123,2.353723403007379,2686,82,884,1354,263.81489843810385,152.30537773372976,0.0028129964769121837,False
0.2,0.8541979366481709,2.4000000000000004,5620.0,69.44574,0.3,68900.0,0.33,276.0,2700.0,37.293269635122655,3.7125718026931165,10023.943867271415,22.050105448985605,8.112205664943785,15.24316418613705,4.399633862250669,3564,98,1166,1809,302.7568980492758,174.5871171458412,0.003609198582656125,True
0.21000000000000002,0.6520212173923242,2.4000000000000004,5621.0,69.44574,0.3,68900.0,0.33,276.0,2700.0,24.295385474518657,2.5316192817811967,6835.372060809231,15.174610418519258,4.366528406000288,9.120775055999399,1.8349091242190916,2487,78,810,1266,228.421752643781,131.87916646924086,0.002408738518292006,False
0.22,0.6893129664257699,2.4000000000000004,5622.0,69.44574,0.3,68900.0,0.33,276.0,2700.0,26.2104098690242,2.860843966542378,7724.278709664421,16.36553537192572,4.954513389880982,9.84487449709848,2.093669423338604,2605,80,858,1312,232.16013358458972,134.00369582912884,0.002480150415631274,False
0.23,0.5603435315487437,2.4000000000000004,5623.0,69.44574,0.1,68900.0,0.33,276.0,2700.0,18.748223195809402,2.1305631623072645,5752.520538229614,12.395431672360555,3.104363376613909,6.352791523448847,0.9738002143066447,20525,192,5096,11587,188.40925480532962,108.66043734234694,0.001877291061301944,False
0.24000000000000005,0.8851307218589375,2.4000000000000004,5624.0,69.44574,0.3,68900.0,0.33,276.0,2700.0,38.151045975031465,4.549172599108293,12282.766017592392,23.19266024861823,8.811886052624839,14.958385726413237,4.262713453516546,3618,100,1188,1830,265.10226125335237,153.0490154838708,0.0031991163713266423,False
0.25,0.9171096125802383,2.4000000000000004,5625.0,69.44574,0.3,68900.0,0.33,276.0,2700.0,40.05138998462148,4.973698824602662,13428.986826427188,24.399136324184596,9.572783990130343,15.652253660436884,4.599085165527681,3731,102,1222,1892,264.520610323103,152.69514223070152,0.0032392944020428636,False
0.26,0.9231619412980931,2.4000000000000004,5626.0,69.44574,0.3,68900.0,0.33,276.0,2700.0,40.15709882812522,5.183611759336615,13995.75175020886,24.630366626907314,9.721154860166422,15.526732201217907,4.537543100829807,3709,102,1216,1879,255.96627494563654,147.74917502419777,0.0031525192314864024,False
0.27,0.9415903427317587,2.4000000000000004,5627.0,69.44574,0.3,68900.0,0.33,276.0,2700.0,41.13529521533521,5.512040875269846,14882.510363228583,25.340096205990964,10.181579627069283,15.795199009344248,4.669538751799437,3938,104,1296,1988,249.28131728779783,143.86101142404573,0.0031268238898656876,False
0.28,0.701807148713204,2.4000000000000004,5628.0,69.44574,0.3,68900.0,0.33,276.0,2700.0,25.368884715526164,3.505667698885927,9465.302786992004,16.772358137442843,5.161524746038228,8.59652657808332,1.6558570471523004,2436,78,802,1227,184.6968185680822,106.40551321103133,0.0020553442526289266,False
0.29000000000000004,0.7527840154691965,2.4000000000000004,5629.0,69.44574,0.3,68900.0,0.33,276.0,2700.0,28.142819978298693,4.029628694701045,10879.99747569282,18.47287384168995,6.059593047510733,9.669946136608743,2.029964352809688,2727,82,900,1371,194.05314587286787,111.87155290383514,0.002175924501258095,False
0.3,0.7602098840528281,2.4000000000000004,5630.0,69.44574,0.3,68900.0,0.33,276.0,2700.0,28.327312782446803,4.192548249602397,11319.880273926472,18.72604016847394,6.197709313326535,9.601272613972863,2.005161063724138,2757,82,908,1389,186.22867061896645,107.43309023326509,0.002138504149115874,False
0.31,0.8533974658952852,2.4000000000000004,5631.0,69.44574,0.3,68900.0,0.33,276.0,2700.0,33.925706691092714,5.196090412623977,14029.444114084738,22.020857911513684,8.094566907407224,11.90484877957903,2.898476494783247,3223,92,1066,1618,201.84230233488026,116.38705764291821,0.002413364158739217,False
0.32,0.6603811014572971,2.4000000000000004,5632.0,69.44574,0.1,68900.0,0.33,276.0,2700.0,22.027303743580816,3.4557394602577096,9330.496542695815,15.438546827934138,4.49448840506576,6.5887569156466785,1.0387489448080505,31616,210,6024,19356,167.77100813727102,96.83282200771218,0.0017408844720453683,False
0.33,0.7935859312280305,2.4000000000000004,5633.0,69.44574,0.3,68900.0,0.33,276.0,2700.0,29.57239951339885,4.804179642916106,12971.285035873485,19.881025584021103,6.841907068482114,9.691373929377747,2.0377274255660085,2893,86,958,1450,179.40280907918364,103.35194591927646,0.002082768642777854,False
0.34,1.036305470133836,2.4000000000000004,5634.0,69.44574,0.3,68900.0,0.33,276.0,2700.0,45.71524318146135,7.689273235743969,20761.03773650872,29.122508501062416,12.759016322329042,16.59273468039893,5.069743086585073,4341,110,1432,2187,220.5938752873928,127.00128305834018,0.002888658458858484,False
0.3500000000000001,0.6818696166251238,2.4000000000000004,5635.0,69.44574,0.08,68900.0,0.33,276.0,2700.0,22.5135413529852,3.8500725467573127,10395.195876244745,16.125037514992346,4.833594903972573,6.388503837992854,0.9835223572152603,59641,264,9446,37958,161.76995853108846,93.38823316300208,0.001684696519700759,False
0.36000000000000004,0.8412008080316133,2.4000000000000004,5636.0,69.44574,0.3,68900.0,0.33,276.0,2700.0,31.74334277384846,5.616085601395463,15163.43112376775,21.57720942515185,7.8286953519743845,10.166133348696611,2.2126097505789213,3133,90,1038,1570,175.50473068449864,101.12289077418832,0.0020771482822396375,False
0.37,0.7718186753779321,2.4000000000000004,5637.0,69.44574,0.08,68900.0,0.33,276.0,2700.0,27.2128165721035,4.928283670717626,13306.36591093759,19.124589516983264,6.4174060675263345,8.088227055120235,1.4891223968087086,74693,294,11268,48037,172.78581611903218,97.82800496429884,0.001863261471175192,False
0.38,1.0411081513342066,2.4000000000000004,5638.0,69.44574,0.3,68900.0,0.33,276.0,2700.0,44.78189196649124,8.39363582557481,22662.81672905199,29.320307859095244,12.89935719803217,15.461584107395993,4.50572137245736,4021,108,1330,2020,200.64257542919694,115.49916295852593,0.0026340998090280125,False
0.39,0.7132078694634836,2.4000000000000004,5639.0,69.44574,0.2,68900.0,0.33,276.0,2700.0,23.33358477704357,4.42581160844459,11949.691342800394,17.14700004803447,5.3548742078618545,6.186584729009098,0.9290625994172643,6408,110,1624,3582,157.32968581678125,90.74219382742791,0.001621791212077788,False
0.4,0.7971427318340961,2.4000000000000004,5640.0,69.44574,0.3,68900.0,0.33,276.0,2700.0,27.976529003952447,5.461264514237326,14745.414188440782,20.005760200581683,6.912841646168048,7.970768803370763,1.4515771319307218,2815,84,920,1417,154.74624563564058,89.135182340858,0.0017860217232141943,False
0.4100000000000001,1.0484109419015706,2.4000000000000004,5641.0,69.44574,0.3,68900.0,0.33,276.0,2700.0,44.37085302922224,8.95167706613852,24169.528078574007,29.62218562096124,13.114578725043676,14.748667408261,4.162901658905156,4068,108,1346,2043,190.18213815646257,109.33515382574845,0.002487639314218921,False
0.42000000000000004,0.8132113710683022,2.4000000000000004,5642.0,69.44574,0.3,68900.0,0.33,276.0,2700.0,28.445678946071,5.818423034328805,15709.742192687772,20.57323947986282,7.238857609820514,7.872439466208178,1.4204345754917096,3037,86,966,1548,148.5952750965629,85.6726270042472,0.0017574812538122988,False
0.43,0.9940816877037684,2.4000000000000004,5643.0,69.44574,0.3,68900.0,0.33,276.0,2700.0,39.91308772465628,8.414794789395124,22719.945931366834,27.408466048247583,11.565698200448677,12.504621676408696,3.1509034110535534,3525,100,1178,1752,177.13104309095556,101.98966690127666,0.00222307884214941,False
0.44,0.7940916398331535,2.4000000000000004,5644.0,69.44574,0.1,68900.0,0.33,276.0,2700.0,26.813899914125447,5.720649028705341,15445.752377504421,19.898741056862935,6.851965553361286,6.915158857262512,1.1313165246559453,45669,232,7250,29056,153.94721010243478,88.83964461867772,0.0016809036040603637,False
0.45,1.037328349423368,2.4000000000000004,5645.0,69.44574,0.3,68900.0,0.33,276.0,2700.0,42.35611747507844,9.339274678187067,25216.04163110508,29.164587398148313,12.788826651708725,13.191530076930128,3.4495519735216575,4165,106,1352,2107,171.61414728107255,98.52547246784526,0.002257081152143199,False
0.46,0.9568126317905519,2.4000000000000004,5646.0,69.44574,0.1,68900.0,0.33,276.0,2700.0,36.52621104051601,8.197168497632136,22132.354943606766,25.93278638302894,10.57181755937585,10.59342465748707,2.374649061743714,64515,282,9852,41375,179.90565331677215,101.97532579862914,0.002035753194565442,False
0.4700000000000001,0.9022382709652044,2.4000000000000004,5647.0,69.44574,0.3,68900.0,0.33,276.0,2700.0,32.70065786515022,7.4672082155945345,20161.462182105242,23.834884244309897,9.214138579711527,8.865773620840322,1.7469303641169924,3154,90,994,1619,148.05579388666035,85.20938521095808,0.0018290863450783291,False
0.4800000000000001,1.1053354231770458,2.4000000000000004,5648.0,69.44574,0.3,68900.0,0.33,276.0,2700.0,46.36507962815249,10.895995767592737,29419.18857250039,32.02123485503221,14.8687022646553,14.343844773120281,3.9727064970625623,4555,112,1450,2326,171.92815619495227,98.5075818417102,0.0023310184299342638,False
0.49,1.0112039219296476,2.4000000000000004,5649.0,69.44574,0.3,68900.0,0.33,276.0,2700.0,39.37139810709966,9.39958904683796,25378.89042646249,28.098129214251728,12.040886149710712,11.27326889284793,2.641297102872752,3750,100,1190,1915,156.5985002776125,89.75477390759785,0.0020438434403390595,False
0.5,0.9941175092853136,2.4000000000000004,5650.0,69.44574,0.3,68900.0,0.33,276.0,2700.0,37.929123643894016,9.220481523174382,24895.30011257083,27.409901207411334,11.566680040754997,10.519222436482682,2.346198517580616,3780,98,1152,1972,169.5873625139812,97.77859147167437,0.0019746776903910132,False
0.01,0.6263146402587245,2.4000000000000004,5651.0,72.46512,0.05,68900.0,0.33,276.0,2700.0,28.44107581017819,0.14220328465578808,383.9488685706278,14.374012829151434,3.9867670034527354,14.067062981026757,3.8445637187969472,90749,490,30096,45599,5054.300184935399,2872.103518319484,0.04420299943940457,True
0.02,0.7075423085598704,2.4000000000000004,5652.0,72.46512,0.1,68900.0,0.33,276.0,2700.0,33.268612756527965,0.33266937240446426,898.2073054920535,16.96041432900748,5.2582557720321565,16.308198427520484,4.925586399627692,27258,272,9034,13701,2709.719179813375,1543.1098562825848,0.027060265688525674,True
0.03,0.6012471438781666,2.4000000000000004,5653.0,72.46512,0.1,68900.0,0.33,276.0,2700.0,26.324216289137578,0.3948066956692914,1065.9780783070867,13.609312782074722,3.6360640374124493,12.714903507062855,3.241257341743158,21384,234,7032,10830,1566.8527275769475,893.096443420855,0.013787010797121838,True
0.04,0.4726550002241533,2.4000000000000004,5654.0,72.46512,0.1,68900.0,0.33,276.0,2700.0,18.811418230717262,0.37609432332779225,1015.4546729850391,9.934831229833634,2.1267215676901596,8.876587000883628,1.7506272443623674,15750,194,5166,7995,904.0296918187146,515.9192764367668,0.007702732076608216,True
0.05,0.7166188425818596,2.4000000000000004,5655.0,72.46512,0.2,68900.0,0.33,276.0,2700.0,32.8963514191764,0.8221469860916139,2219.7968624473574,17.259723763006864,5.41355432974955,15.636627656169534,4.591407343657936,6829,136,2242,3460,992.6389532745151,572.8535294298125,0.011024224184249884,True
0.06000000000000001,0.37683214364961504,2.4000000000000004,5656.0,72.46512,0.1,68900.0,0.33,276.0,2700.0,13.506111662214305,0.4047309605243118,1092.773593415642,7.466950448708506,1.294820100751382,6.0391612135058,0.8900891402270702,11003,158,3608,5585,452.2414320301695,259.8382141101321,0.0040166499364595485,True
0.06999999999999999,0.4111610519363745,2.4000000000000004,5657.0,72.46512,0.08,68900.0,0.33,276.0,2700.0,14.931748591044128,0.521892823166424,1409.110622549345,8.32455040457753,1.5657878627326522,6.607198186466599,1.043895039566228,19444,212,6408,9826,427.78138988824657,245.88085337274327,0.003869072426483066,True
0.08,0.5081835704410376,2.4000000000000004,5658.0,72.46512,0.2,68900.0,0.33,276.0,2700.0,19.66928893206375,0.7856992269901241,2121.387912873335,10.908499716458394,2.4968945139369456,8.760789215605357,1.7111952869468214,4094,100,1338,2081,461.7162349195654,266.571518708179,0.004449194435837071,True
0.09,0.7465389412507304,2.4000000000000004,5659.0,72.46512,0.2,68900.0,0.33,276.0,2700.0,33.578061469838374,1.5094859521130828,4075.6120707053237,18.26103659834915,5.944890559113384,15.317024871489224,4.435404607000301,7047,138,2306,3582,600.5063578585749,343.85294716801076,0.006576479125007324,True
0.09999999999999999,0.6252413749015892,2.4000000000000004,5660.0,72.46512,0.2,68900.0,0.33,276.0,2700.0,25.728193404323033,1.28431527511376,3467.6512428071524,14.340948569995758,3.971357619391429,11.387244834327275,2.687042344277669,5313,118,1738,2700,455.35621297118485,262.66834880142505,0.004719627875304571,True
0.11,0.44801631910768225,2.4000000000000004,5661.0,72.46512,0.1,68900.0,0.33,276.0,2700.0,15.811168608214128,0.8668266335704923,2340.431910640329,9.278231524228593,1.8900606308918155,6.532937083985535,1.0232339973213231,13597,178,4488,6859,295.45653941376605,170.45200179452277,0.0028357738000572047,True
0.12,0.6121877078821285,2.4000000000000004,5662.0,72.46512,0.3,68900.0,0.33,276.0,2700.0,24.40732270901428,1.4608202478039214,3944.2146690705877,13.94111948505384,3.786769928493648,10.466203223960441,2.3259496806897264,2427,78,802,1218,400.39750440331113,231.169466409495,0.00386863289745592,True
0.13,0.823550167704918,2.4000000000000004,5663.0,72.46512,0.3,68900.0,0.33,276.0,2700.0,37.4448579284354,2.4293143793083445,6559.1488241325305,20.94179480194308,7.45346304366058,16.503063126492318,5.024148664352236,3721,100,1226,1876,462.9354267487369,267.24163656100956,0.005353962740438079,True
0.14,0.6892878807937082,2.4000000000000004,5664.0,72.46512,0.3,68900.0,0.33,276.0,2700.0,28.439278460790316,1.9850024720943567,5359.506674654763,16.364722505786204,4.954102860277809,12.074555955004111,2.969100388183452,2804,84,918,1421,368.92144206455293,212.99687962087853,0.003924050779859711,True
0.15000000000000002,0.8096005393188641,2.4000000000000004,5665.0,72.46512,0.3,68900.0,0.33,276.0,2700.0,35.858982996874545,2.6823551412950146,7242.35888149654,20.445154248317948,7.164802449228964,15.413828748556597,4.482447307933949,3460,96,1132,1756,397.1350893145847,229.24923295919052,0.004573300343515997,True
0.16,0.6460605902759201,2.4000000000000004,5666.0,72.46512,0.3,68900.0,0.33,276.0,2700.0,25.28598309670373,2.0143000053968962,5438.61001457162,14.987495474144765,4.276636316406176,10.298487622558966,2.2623363110092796,2590,80,848,1312,309.4568560879404,178.57004891561692,0.0031833619724240605,True
0.17,0.7029123641500701,2.4000000000000004,5667.0,72.46512,0.3,68900.0,0.33,276.0,2700.0,28.413456843670815,2.4048540685739592,6493.10598514969,16.80853390626783,5.180081803345969,11.604922937402986,2.7752277347720096,2745,84,902,1386,312.1523006419153,180.1417652645641,0.003360574919221363,True
0.18000000000000002,0.6634114929451456,2.4000000000000004,5668.0,72.46512,0.3,68900.0,0.33,276.0,2700.0,25.76092232797147,2.3062684972802523,6226.924942656681,15.53465543061521,4.541418811018895,10.226266897356261,2.2351503137386426,2571,80,842,1302,281.59271381293667,162.40363627291947,0.002955944087057491,True
0.19,0.8310266264254278,2.4000000000000004,5669.0,72.46512,0.3,68900.0,0.33,276.0,2700.0,36.04015354244396,3.409449130524863,9205.51265241713,21.209987861501627,7.611035199921309,14.830165680942333,4.201586069396447,3610,98,1182,1831,324.24134964421796,187.00882630253972,0.003803678124708511,True
0.2,0.562754153874875,2.4000000000000004,5670.0,72.46512,0.1,68900.0,0.33,276.0,2700.0,19.589624461195726,1.942207285300426,5243.95967031115,12.465804744506135,3.1343288730557166,7.1238197166895905,1.1921215877552906,21333,196,5272,12059,219.86594731852713,126.76886413716593,0.002209162869925631,False
0.21000000000000002,0.8164431087473978,2.4000000000000004,5671.0,72.46512,0.3,68900.0,0.33,276.0,2700.0,34.45467670305365,3.598344860777374,9715.531124098909,20.68815518180193,7.3055305410391265,13.766521521251722,3.7071856802617527,3467,96,1142,1748,293.75552770286475,169.45375321705308,0.003380889842416181,True
0.22,0.8633595858042802,2.4000000000000004,5672.0,72.46512,0.3,68900.0,0.33,276.0,2700.0,37.28900000628264,4.07948888164027,11014.619980428728,22.385999991677572,8.315758058329742,14.90300001460507,4.236269176689472,3625,100,1186,1840,291.25928305637177,168.15817369513388,0.00349739641422966,True
0.23,0.5581491832027561,2.4000000000000004,5673.0,72.46512,0.2,68900.0,0.33,276.0,2700.0,18.633042845260665,2.1173174219941577,5716.757039384226,12.331499248334465,3.077233648760009,6.3015435969262,0.9599162267658512,3963,98,1316,1983,189.0397307374202,109.10915782367981,0.0019267440948519854,False
0.24000000000000005,0.5978682774767381,2.4000000000000004,5674.0,72.46512,0.1,68900.0,0.33,276.0,2700.0,20.513343983778544,2.43264836015784,6568.150572426168,13.507446131465223,3.5902521654008077,7.005897852313321,1.1576038052429678,22799,202,5624,12897,200.73587794838184,115.84568507322801,0.002037686659605309,False
0.25,0.9471463738259076,2.4000000000000004,5675.0,72.46512,0.3,68900.0,0.33,276.0,2700.0,42.17588913005954,5.239261217782552,14146.00528801289,25.55574916537061,10.322968717578943,16.620139964688928,5.083707499796391,3800,104,1248,1922,283.94553403288086,163.86261837054514,0.003531845065871959,True
0.26,0.8857625411267196,2.4000000000000004,5676.0,72.46512,0.3,68900.0,0.33,276.0,2700.0,37.573248782079695,4.8477112533507025,13088.820384046896,23.216248175824422,8.82654707336624,14.357000606255273,3.9788358200155383,3653,100,1196,1853,257.60267656498263,148.69840285296527,0.0031026314248966645,False
0.27,0.722240818788725,2.4000000000000004,5677.0,72.46512,0.3,68900.0,0.33,276.0,2700.0,26.835880584157525,3.5816199000608617,9670.373730164327,17.446153489175238,5.511111765668118,9.389727094982288,1.9294918656072562,2800,82,924,1408,206.39650062158736,119.08441570858852,0.0022932757510145283,False
0.28,0.6752013434867966,2.4000000000000004,5678.0,72.46512,0.3,68900.0,0.33,276.0,2700.0,23.832928386187657,3.2906338127785353,8884.711294502045,15.910765218262418,4.726783783567347,7.922163167925239,1.436149970788812,2512,78,830,1261,189.67684608557283,109.0264082860857,0.0020479252319763747,False
0.29000000000000004,0.6432776078880074,2.4000000000000004,5679.0,72.46512,0.08,68900.0,0.33,276.0,2700.0,21.79608593086458,3.109352257823099,8395.251096122367,14.90043836830233,4.235047564801814,6.895647562562251,1.1256953069787148,50411,258,9094,31206,184.08545260818707,106.21121697314025,0.0019065203675253028,False
0.3,0.830778142875557,2.4000000000000004,5680.0,72.46512,0.3,68900.0,0.33,276.0,2700.0,32.745263853111396,4.855240910202097,13109.150457545662,21.20105177199918,7.605765977112517,11.544212081112217,2.75052506691042,3196,92,1062,1597,213.23872599566124,122.96897754713282,0.0025025574018342936,False
0.31,0.6146051898454691,2.4000000000000004,5681.0,72.46512,0.05,68900.0,0.33,276.0,2700.0,19.774143185566405,3.002598069267398,8107.014787021974,14.014842964137143,3.8205614163977915,5.759300221429262,0.8179633471303935,177136,390,21208,118016,217.5792283989214,121.89220072688894,0.0017209000228442443,False
0.32,0.7175237134919172,2.4000000000000004,5682.0,72.46512,0.2,68900.0,0.33,276.0,2700.0,25.26999483052359,3.9745700341685555,10731.3390922551,17.28967644842939,5.429185701803445,7.9803183820942,1.4546156676348896,5642,116,1786,2893,186.57431417797594,107.70658287662687,0.001978805761530618,False
0.33,0.642071823783054,2.4000000000000004,5683.0,72.46512,0.05,68900.0,0.33,276.0,2700.0,20.792535814854837,3.355502132656344,9059.855758172129,14.86277953368815,4.217103560944275,5.9297562811666875,0.8616014282879307,194096,400,22222,130101,201.1960192551033,114.56048519305924,0.0017212111501278403,False
0.34,0.667745460283908,2.4000000000000004,5684.0,72.46512,0.1,68900.0,0.33,276.0,2700.0,21.964635935167088,3.6516700038739414,9859.509010459642,15.672507907597222,4.609044053843983,6.292128027569866,0.957374049970042,31885,208,5956,19597,169.7466663157682,97.98884047643713,0.0017540488180055774,False
0.3500000000000001,0.8889467118711827,2.4000000000000004,5685.0,72.46512,0.3,68900.0,0.33,276.0,2700.0,35.11247428439403,6.054885809753851,16348.191686335398,23.33527661430918,8.900661007423968,11.777197670084853,2.8457751976701173,3291,94,1090,1650,199.03228156455822,114.72410349887029,0.0023926703753515653,False
0.36000000000000004,0.7839232513375054,2.4000000000000004,5686.0,72.46512,0.3,68900.0,0.33,276.0,2700.0,28.19469312903037,4.977328665328209,13438.787396386166,19.543767040833682,6.651434382559516,8.650926088196687,1.6741057172313063,2751,84,916,1371,172.96441701186077,99.69866248291433,0.0019814937853306655,False
0.37,0.8944456207128564,2.4000000000000004,5687.0,72.46512,0.3,68900.0,0.33,276.0,2700.0,34.90618152656829,6.351556187293553,17149.20170569259,23.54143298189822,9.029546035609952,11.364748544670068,2.6779898483163995,3127,92,1038,1564,189.11666323348032,108.87374613889236,0.0022939889723967728,False
0.38,0.7631171630215133,2.4000000000000004,5688.0,72.46512,0.08,68900.0,0.33,276.0,2700.0,26.447281064165214,4.910059754132872,13257.161336158755,18.825534049028306,6.2522957128425185,7.621747015136908,1.3422359587096464,73004,288,10798,47125,172.41537997907582,99.41917891449278,0.0018783234120787614,False
0.39,0.743227549289241,2.4000000000000004,5689.0,72.46512,0.1,68900.0,0.33,276.0,2700.0,25.043557820794586,4.759256351976004,12849.992150335209,18.149109554651726,5.8846065025180145,6.894448266142859,1.125350150542011,38884,224,6796,24196,165.90604393818847,95.76521419777063,0.0017839303370827987,False
0.4,1.0389968273613512,2.4000000000000004,5690.0,72.46512,0.3,68900.0,0.33,276.0,2700.0,44.000188373544425,8.665996388155728,23398.190248020466,29.233281164976127,12.83754441964221,14.766907208568298,4.171548031486482,4113,108,1362,2064,201.89774301543216,116.22663491268932,0.0026199699136419175,False
0.4100000000000001,0.7639612531821038,2.4000000000000004,5691.0,72.46512,0.2,68900.0,0.33,276.0,2700.0,25.76649311571749,5.137783283870049,13872.014866449132,18.854460578277823,6.268198367940949,6.912032537439668,1.1304150840708997,6877,114,1710,3868,223.69822516269548,126.52765710870142,0.001762253404984859,False
0.42000000000000004,0.803253185151408,2.4000000000000004,5692.0,72.46512,0.2,68900.0,0.33,276.0,2700.0,27.845900161184556,5.69246948950265,15369.667621657154,20.22079202037068,7.035742403063284,7.625108140813875,1.343272913560634,7986,124,1992,4490,169.22417178369307,97.65173245075582,0.001831044794972013,False
0.43,0.8794495298837983,2.4000000000000004,5693.0,72.46512,0.3,68900.0,0.33,276.0,2700.0,32.29702046719019,6.777340329039914,18298.818888407768,22.981013042334062,8.680725685583694,9.316007424856124,1.9033853565437795,3080,90,1018,1541,166.92300718852619,96.23545032580897,0.0019801521555196434,False
0.44,0.8438664917975964,2.4000000000000004,5694.0,72.46512,0.3,68900.0,0.33,276.0,2700.0,29.813693918636798,6.380603709697833,17227.63001618415,21.673853323425035,7.886342140217549,8.139840595211762,1.505738430519716,3063,86,970,1566,153.80452812993346,88.44771647338318,0.0018474993633320583,False
0.45,0.8902056702660828,2.4000000000000004,5695.0,72.46512,0.3,68900.0,0.33,276.0,2700.0,32.45567779388063,7.111675749917234,19201.52452477653,23.382408407118604,8.930068814118972,9.073269386762028,1.8183930642017376,3132,90,1022,1579,158.82495984217974,91.29272870735464,0.0019365268955054563,False
0.46,0.9871829554238911,2.4000000000000004,5696.0,72.46512,0.3,68900.0,0.33,276.0,2700.0,38.57487664977933,8.668361587762705,23404.576286959305,27.132675769189714,11.377566520278503,11.442200880589613,2.7092049325157976,3716,100,1230,1857,169.66451772304063,97.41901211468598,0.002171820272082672,False
0.4700000000000001,1.128419968486886,2.4000000000000004,5697.0,72.46512,0.3,68900.0,0.33,276.0,2700.0,48.39380203638617,11.155097095834979,30118.76215875444,33.01732935743176,15.619369341328518,15.376472678954407,4.4642722454935395,4523,112,1484,2275,186.16065206566873,106.81850953684904,0.0025420154663497326,False
0.4800000000000001,0.8913321768385614,2.4000000000000004,5698.0,72.46512,0.3,68900.0,0.33,276.0,2700.0,31.753514964647568,7.38922024835155,19950.894670549184,23.42461535232036,8.956433021076316,8.32889961232721,1.5672127727247664,3274,88,992,1710,150.01631385514852,86.19873066890774,0.0018565530848828858,False
0.49,1.1837870661691867,2.4000000000000004,5699.0,72.46512,0.3,68900.0,0.33,276.0,2700.0,51.97176021898565,12.486677764250036,33714.0299634751,35.4609947088244,17.514736891226253,16.51076551016125,5.028059126976217,5066,118,1586,2611,190.57563214218413,109.21740120215443,0.002619781841560713,False
0.5,1.1027997258669517,2.4000000000000004,5700.0,72.46512,0.3,68900.0,0.33,276.0,2700.0,45.568852798551134,11.130413811838634,30052.117291964314,31.912636291117327,14.78764382625757,13.656216507433808,3.6572300144189356,4697,110,1412,2465,184.33463421719168,105.95221744371206,0.0023512591218932547,False
0.01,0.4527533979210364,2.4000000000000004,5701.0,75.4845,0.05,68900.0,0.33,276.0,2700.0,18.543242667092485,0.09271411894036144,250.3281211389759,9.403285908653546,1.9343083184746575,9.13995675843894,1.841594199534296,59621,380,19770,29960,3527.0979996181,2006.6280006748996,0.028671717906252777,True
0.02,0.5635715309102056,2.4000000000000004,5702.0,75.4845,0.1,68900.0,0.33,276.0,2700.0,24.399550728775406,0.2439787521269337,658.742630742721,12.489699512139529,3.144527899954219,11.909851216635877,2.9005491478272853,20087,226,6654,10100,2104.355076284932,1196.923793116399,0.019485662312328518,True
0.03,0.5963726802050184,2.4000000000000004,5703.0,75.4845,0.1,68900.0,0.33,276.0,2700.0,26.034162418359433,0.39045588760762656,1054.2308965405916,13.462448217173769,3.5700841222040935,12.571714201185664,3.179628234596467,21398,234,7050,10817,1630.8088252186335,930.0490739853171,0.01418398877972977,True
0.04,0.7228949512377869,2.4000000000000004,5704.0,75.4845,0.1,68900.0,0.33,276.0,2700.0,33.62598051857923,0.6723855690850306,1815.4410365295826,17.467896692442874,5.522530971657889,16.15808382613636,4.850145402572858,27317,272,8976,13847,1581.0047988215722,900.4242026846216,0.014538633037342265,True
0.05,0.734375327782507,2.4000000000000004,5705.0,75.4845,0.2,68900.0,0.33,276.0,2700.0,34.05709487070409,0.8511655723798063,2298.147045425477,17.851252217462697,5.725266366985443,16.205842653241394,4.874100794605637,7308,140,2396,3708,1094.572158882588,623.9005663215576,0.011934051895447122,True
0.06000000000000001,0.6345952913823365,2.4000000000000004,5706.0,75.4845,0.1,68900.0,0.33,276.0,2700.0,27.44369216078974,0.8228583754815737,2221.717613800249,14.630089532704213,4.106852240666498,12.813602628085528,3.2839938651849243,22579,242,7414,11452,930.6153149793284,532.536158258575,0.008015377229875732,True
0.06999999999999999,0.4511663166262794,2.4000000000000004,5707.0,75.4845,0.05,68900.0,0.33,276.0,2700.0,16.934918135888747,0.5920037572359853,1598.4101445371602,9.361325645783158,1.9194178448464616,7.5735924901055895,1.3274140876104763,54416,360,17980,27440,512.12393016889,293.93665842759333,0.004514850516473344,True
0.08,0.6710981129277973,2.4000000000000004,5708.0,75.4845,0.2,68900.0,0.33,276.0,2700.0,29.083672581535087,1.1622745729689776,3138.1413470162397,15.779471102742656,4.661767755209503,13.30420147879243,3.4994931822405255,6240,128,2052,3156,629.4429808322117,360.2631930097507,0.006624746934105003,True
0.09,0.4559336823966116,2.4000000000000004,5709.0,75.4845,0.1,68900.0,0.33,276.0,2700.0,16.688439511943418,0.7494529640078093,2023.523002821085,9.487558814729832,1.9643473812083507,7.200880697213586,1.2148944172005414,13886,180,4566,7031,376.20336568758995,216.80032575899816,0.0036254657981581936,True
0.09999999999999999,0.4332194668989318,2.4000000000000004,5710.0,75.4845,0.2,68900.0,0.33,276.0,2700.0,15.311381682622539,0.7634746890287338,2061.3816603775813,8.89124086294173,1.7556419173418518,6.4201408196808085,0.992167228313118,3175,88,1040,1609,341.12244843564355,196.94706869065283,0.0030967403035850457,True
0.11,0.42154005701269903,2.4000000000000004,5711.0,75.4845,0.1,68900.0,0.33,276.0,2700.0,14.507238558762817,0.7951104808506713,2146.7982982968124,8.589668342086409,1.6535619021789867,5.917570216676408,0.8584514213283154,11992,166,3950,6061,292.2753551402261,168.6963800006675,0.0027470985886539684,True
0.12,0.539277333428265,2.4000000000000004,5712.0,75.4845,0.3,68900.0,0.33,276.0,2700.0,20.31830232216506,1.2154790245929692,3281.793366401017,11.786663037186957,2.849670557753383,8.531639284978104,1.634191533160414,2061,70,676,1041,376.1382346546253,217.15137327079228,0.0034338634551047396,True
0.13,0.534535378360075,2.4000000000000004,5713.0,75.4845,0.3,68900.0,0.33,276.0,2700.0,19.807890606545993,1.2829115033855325,3463.861059140938,11.651168436726397,2.794100209202525,8.156722169819595,1.5111887058169924,2056,70,670,1045,339.78705586875407,196.17142111158142,0.0031558399928498897,True
0.14,0.4636008835183463,2.4000000000000004,5714.0,75.4845,0.2,68900.0,0.33,276.0,2700.0,15.8874792940221,1.10637653042058,2987.2166321355658,9.691773619317525,2.037872336790693,6.195705674704575,0.9314958063701129,3307,90,1086,1672,259.9901799909812,149.91867750790297,0.0024795634102635863,False
0.15000000000000002,0.49945400430630765,2.4000000000000004,5715.0,75.4845,0.1,68900.0,0.33,276.0,2700.0,17.470547717462047,1.3032224953390759,3518.700737415505,10.666324163052627,2.402726481260466,6.80422355440942,1.0995039859213902,14392,184,4762,7239,257.8551557203604,148.8246647007144,0.002549193107754548,False
0.16,0.6720167413571662,2.4000000000000004,5716.0,75.4845,0.3,68900.0,0.33,276.0,2700.0,26.824273024545672,2.1373631996242484,5770.880638985471,15.808828376339209,4.676276708554357,11.015444648206463,2.5389135089301087,2680,82,882,1351,334.6801647245195,193.22249253232707,0.003495962612640179,True
0.17,0.6187135131968229,2.4000000000000004,5717.0,75.4845,0.3,68900.0,0.33,276.0,2700.0,23.43706860469029,1.9818610682606193,5351.024884303672,14.140467212492686,3.878396830300714,9.296601392197603,1.8965357620400947,2378,76,776,1208,299.0689853348721,172.59699010516437,0.0029697384800563137,True
0.18000000000000002,0.7963715659041493,2.4000000000000004,5718.0,75.4845,0.3,68900.0,0.33,276.0,2700.0,34.04749213276167,3.052059779711393,8240.561405220762,19.978688932679045,6.897424324678928,14.068803200082623,3.845364544967535,3311,94,1086,1676,344.84823151109924,198.9968154283602,0.00392807332997086,True
0.19,0.7309215757695605,2.4000000000000004,5719.0,75.4845,0.3,68900.0,0.33,276.0,2700.0,29.56935219469475,2.7947230024886887,7545.752106719459,17.735575325913963,5.663812414638642,11.833776868780788,2.869089412149953,2933,86,966,1478,304.32975649248766,175.6474052211954,0.0033280306432377656,True
0.2,0.8349725149384806,2.4000000000000004,5720.0,75.4845,0.3,68900.0,0.33,276.0,2700.0,35.99389595620046,3.582634434800901,9673.112973962434,21.35209985464025,7.695007697751977,14.64179610156021,4.112373262951076,3611,98,1180,1835,320.55634908029504,185.07302675911015,0.003803175559326447,True
0.21000000000000002,0.6454242728830386,2.4000000000000004,5721.0,75.4845,0.3,68900.0,0.33,276.0,2700.0,23.916128615153657,2.49179731154787,6727.852741179249,14.96757306241529,4.267105851388401,8.948555552738366,1.7753085398405304,2462,78,804,1250,246.89302766733744,142.54154689142445,0.0025869419802812222,False
0.22,0.8557410323518655,2.4000000000000004,5722.0,75.4845,0.2,68900.0,0.33,276.0,2700.0,36.77218935790555,4.022639710319328,10861.127217862184,22.10653240291923,8.146274616327714,14.665656954986325,4.123634906008387,7296,142,2412,3672,296.9869775090401,171.39820863765567,0.0035981337074929964,True
0.23,0.6487030761153798,2.4000000000000004,5723.0,75.4845,0.3,68900.0,0.33,276.0,2700.0,23.587270280423137,2.6870535770378425,7255.044658002174,15.070337735065698,4.31634997707097,8.51693254535744,1.6292964000331271,2358,76,780,1182,226.42870925770828,130.52819541648515,0.0024055407869252605,False
0.24000000000000005,0.6466177810570045,2.4000000000000004,5724.0,75.4845,0.3,68900.0,0.33,276.0,2700.0,23.214299390261157,2.756763008935859,7443.260124126819,15.00494887372801,4.2849920727902875,8.209350516533148,1.5282290638544285,2366,76,780,1190,215.9048911352192,124.4488082648708,0.002311422979775967,False
0.25,0.5782188317304575,2.4000000000000004,5725.0,75.4845,0.2,68900.0,0.33,276.0,2700.0,19.22390577765525,2.3702632987320125,6399.710906576433,12.920737433214455,3.3306184753115646,6.303168344440795,0.9603551765795522,4123,100,1364,2071,189.68591325857255,109.4771153219204,0.0019519856312154762,False
0.26,0.6937138823557925,2.4000000000000004,5726.0,75.4845,0.3,68900.0,0.33,276.0,2700.0,25.41246863828211,3.266809834657012,8820.386553573931,16.50838590217805,5.026850893269341,8.904082736104062,1.760041058612329,2584,80,848,1306,215.23611671095793,124.22333558090759,0.002347539793406885,False
0.27,0.911065821605416,2.4000000000000004,5727.0,75.4845,0.3,68900.0,0.33,276.0,2700.0,39.00053910344704,5.22384880016495,14104.391760445364,24.16915088981603,9.426016164533081,14.831388213631008,4.202167364368131,3738,102,1230,1887,265.0279263328708,152.9693807920903,0.0032495512232163515,False
0.28,0.7596523263068796,2.4000000000000004,5728.0,75.4845,0.3,68900.0,0.33,276.0,2700.0,28.831069265713545,3.990373535912162,10774.008546962837,18.706983515707293,6.18727377753486,10.124085750006252,2.1969002416226977,2866,84,940,1450,215.5361051965257,124.26753530444073,0.002468941215775904,False
0.29000000000000004,0.9132245314656644,2.4000000000000004,5729.0,75.4845,0.3,68900.0,0.33,276.0,2700.0,38.53008492784927,5.535782112385882,14946.611703441882,24.251191262280727,9.478278878484367,14.278893665568546,3.9424967660984853,3756,102,1232,1902,247.91874446099757,142.83656893339227,0.0030562507810350807,False
0.3,0.9101389537400393,2.4000000000000004,5730.0,75.4845,0.3,68900.0,0.33,276.0,2700.0,38.01271752163552,5.645358960480716,15242.469193297933,24.133961814734985,9.403630864718998,13.878755706900538,3.758271904238282,3617,100,1194,1820,240.82854525283787,138.97208675262772,0.0029470979949662974,False
0.31,0.9000660695189827,2.4000000000000004,5731.0,75.4845,0.3,68900.0,0.33,276.0,2700.0,37.02625134352538,5.67667483375099,15327.022051127673,23.75293127817888,9.162453440327676,13.2733200653465,3.4857786065766856,3457,98,1134,1750,232.2095952876369,133.9968191205681,0.00281816866356037,False
0.32,0.7822277087605913,2.4000000000000004,5732.0,75.4845,0.3,68900.0,0.33,276.0,2700.0,29.13991986771569,4.593758040119266,12403.14670832202,19.48482917015371,6.618347069472123,9.655090697561981,2.024589029352857,2892,86,958,1449,196.5842245745492,113.05306025644002,0.0022821122083085312,False
0.33,0.7813135409833745,2.4000000000000004,5733.0,75.4845,0.3,68900.0,0.33,276.0,2700.0,28.81829763383345,4.6797528327878055,12635.332648527075,19.45308224087272,6.600549179110115,9.365215392960728,1.9207963463223097,2915,86,962,1466,192.20782843730012,110.52034095294033,0.002221712388906609,False
0.34,0.9395198459043733,2.4000000000000004,5734.0,75.4845,0.3,68900.0,0.33,276.0,2700.0,38.81713199279422,6.516594333670556,17594.8047009105,25.259929938497613,10.129196048860512,13.55720205429661,3.6126017151899568,3686,100,1212,1862,221.52569190961552,127.53976383593255,0.0027489234034877995,False
0.3500000000000001,0.914672545949311,2.4000000000000004,5735.0,75.4845,0.3,68900.0,0.33,276.0,2700.0,36.828200290938895,6.355137860899094,17158.872224427556,24.30628774546778,9.51343483857192,12.521912545471114,3.1582969776728254,3350,96,1108,1682,212.01259591709368,121.90398374144804,0.002584572786652555,False
0.36000000000000004,0.7947521980207192,2.4000000000000004,5736.0,75.4845,0.3,68900.0,0.33,276.0,2700.0,28.85296253559205,5.09581715850931,13758.706327975136,19.921890744772938,6.865117474943067,8.93107179081911,1.7693003164337568,2860,86,948,1432,183.36785265921043,105.70707145335778,0.002107763722767571,False
0.37,1.0673118548042326,2.4000000000000004,5737.0,75.4845,0.3,68900.0,0.33,276.0,2700.0,47.03525755559057,8.59543525266273,23207.67518218937,30.4097224272007,13.681893515869374,16.62553512838987,5.086458263206644,4375,112,1442,2206,231.79637757073792,133.44973724486317,0.003032558595089237,False
0.38,0.7851538923977582,2.4000000000000004,5738.0,75.4845,0.3,68900.0,0.33,276.0,2700.0,27.758932397739812,5.159273507512047,13930.038470282527,19.586589965034293,6.675512090672915,8.17234243270552,1.5162385831608676,2770,84,920,1382,173.58596823298447,100.0318268276032,0.0019921788173186184,False
0.39,1.0216880023905348,2.4000000000000004,5739.0,75.4845,0.3,68900.0,0.33,276.0,2700.0,43.06403867521096,8.273250118587272,22337.775320185636,28.524052511354167,12.337699490738789,14.539986163856792,4.0644493721515165,4122,108,1362,2073,211.1348019655109,121.57180102824518,0.0027284482599857747,False
0.4,0.9988014626775498,2.4000000000000004,5740.0,75.4845,0.3,68900.0,0.33,276.0,2700.0,41.133388638614115,8.092636441169654,21850.118391158067,27.597837357672585,11.695506667353875,13.53555128094153,3.602870226184221,3812,104,1262,1911,202.24016195644987,116.38484141158509,0.0025877837079873642,False
0.4100000000000001,0.8168394868415562,2.4000000000000004,5741.0,75.4845,0.3,68900.0,0.33,276.0,2700.0,28.91722794193245,5.783683923244111,15615.9465927591,20.702267858840216,7.313733669409321,8.214960083092233,1.5300497461652096,2984,86,970,1507,165.1150593942751,95.06707979227761,0.0019680834137975963,False
0.42000000000000004,0.9626608769088283,2.4000000000000004,5742.0,75.4845,0.3,68900.0,0.33,276.0,2700.0,38.045728734814205,7.834433489964876,21152.970422905168,26.162040283214875,10.724148798320936,11.88368845159933,2.8897153083560596,3617,100,1206,1802,667.2257997503318,357.0661895130188,0.0023490763675817886,True
0.43,0.9677622322938151,2.4000000000000004,5743.0,75.4845,0.3,68900.0,0.33,276.0,2700.0,38.10602743881111,8.026276827938409,21670.947435433704,26.36271769197368,10.858122248746698,11.743309746837433,2.831845420808289,3599,100,1202,1790,184.58074803675763,105.9575760107126,0.0023334751274443942,False
0.44,1.111893729606849,2.4000000000000004,5744.0,75.4845,0.3,68900.0,0.33,276.0,2700.0,48.10775872251768,10.405297966551634,28094.304509689413,32.30286275158925,15.079630245326884,15.804895970928428,4.67433227877525,4535,114,1502,2274,203.2026289135698,116.4636883642079,0.0027494446985124104,False
0.45,0.9623202842718679,2.4000000000000004,5745.0,75.4845,0.3,68900.0,0.33,276.0,2700.0,37.17259455450259,8.172982021057502,22067.051456855253,26.1486653222685,10.715240477821968,11.023929232234089,2.5422584567644666,3483,98,1152,1741,176.7574198166649,101.25194883193043,0.0022201059380799826,False
0.46,1.1007137201806516,2.4000000000000004,5746.0,75.4845,0.3,68900.0,0.33,276.0,2700.0,46.64382546148188,10.524219814454291,28415.393499026584,31.823418221430927,14.721166959200815,14.820407240050955,4.196947144746524,4423,112,1448,2227,193.88181010479502,111.1623551222494,0.0026086038905444348,False
0.4700000000000001,1.1526850878050872,2.4000000000000004,5747.0,75.4845,0.3,68900.0,0.33,276.0,2700.0,50.23012133759644,11.586632131618451,31283.90675536982,34.07880351474282,16.433387253242326,16.151317822853613,4.846755121623875,4977,118,1596,2533,199.66112737695641,114.6266799273085,0.002728005635274927,False
0.4800000000000001,1.141438365455231,2.4000000000000004,5748.0,75.4845,0.3,68900.0,0.33,276.0,2700.0,49.05702901439511,11.542063620290937,31163.57177478553,33.58497736556303,16.05289235434357,15.472051648832085,4.510828734052632,4382,112,1432,2208,193.79326814413082,111.09022822919233,0.0026390295984319388,False
0.49,1.1581333847674125,2.4000000000000004,5749.0,75.4845,0.3,68900.0,0.33,276.0,2700.0,50.00404263784386,12.004586956870279,32412.38478354975,34.31917282087598,16.619713157870933,15.684869816967883,4.615126201000654,4916,116,1538,2533,191.2428062374968,109.58603214009841,0.0026565975305285067,False
0.5,1.0873190966402415,2.4000000000000004,5750.0,75.4845,0.2,68900.0,0.33,276.0,2700.0,44.44439239428867,10.849298710773024,29293.106519087163,31.253138426882945,14.298728627205158,13.191253967405725,3.449429916432134,12281,160,3012,6957,191.314201883287,110.04530511624392,0.0024238913793148175,False
0.01,0.4126130473411144,2.4000000000000004,5751.0,78.50388,0.05,68900.0,0.33,276.0,2700.0,16.469712858209483,0.08234646989594353,222.33546871904753,8.361476818992264,1.577901873747225,8.10823603921722,1.4955554038512815,52211,354,17296,26261,3510.719662692775,1993.7872766431303,0.026553539451888184,True
0.02,0.340972649590419,2.4000000000000004,5752.0,78.50388,0.08,68900.0,0.33,276.0,2700.0,12.737526449122608,0.1273585093304067,343.86797519209813,6.602742171493007,1.0426506477035493,6.134784277629602,0.9152921383731426,16343,194,5384,8261,1354.0049726156055,772.4033235490303,0.010769339038286058,True
0.03,0.3886907276435039,2.4000000000000004,5753.0,78.50388,0.08,68900.0,0.33,276.0,2700.0,14.785557310884275,0.22172681099550015,598.6623896878505,7.7598514118621384,1.3851007624958454,7.025705899022137,1.1633739515003452,19396,212,6362,9847,1100.9581197910775,629.0920330570159,0.008589343118705553,True
0.04,0.6037016855639195,2.4000000000000004,5754.0,78.50388,0.1,68900.0,0.33,276.0,2700.0,26.176998594520008,0.5234059306038484,1413.1960126303907,13.683492660365523,3.669559670780209,12.493505934154484,3.1461537401763606,21494,234,7074,10877,1327.7889054636541,757.1700239751956,0.011384701781282505,True
0.05,0.454255541473826,2.4000000000000004,5755.0,78.50388,0.1,68900.0,0.33,276.0,2700.0,17.592717035509395,0.4395561264999345,1186.801541549823,9.44305884730685,1.9484632690101347,8.149658188202546,1.5089071425102003,14851,188,4882,7522,765.1653799302197,438.18493895706087,0.006459106517839359,True
0.06000000000000001,0.7361467653229586,2.4000000000000004,5756.0,78.50388,0.2,68900.0,0.33,276.0,2700.0,33.851776046589336,1.015100892055566,2740.772408550028,17.910699483082354,5.756941387224294,15.941076563506982,4.741840495168728,7429,140,2432,3775,985.593425639455,562.5661591100597,0.010371026677981307,True
0.06999999999999999,0.5181034722950622,2.4000000000000004,5757.0,78.50388,0.1,68900.0,0.33,276.0,2700.0,20.466549536634258,0.7156108562620793,1932.1493119076142,11.186022343576264,2.606480214640521,9.280527193057994,1.8908693583784415,17455,206,5730,8854,616.8782890565595,353.86644456801764,0.005578330496751954,True
0.08,0.4794876400784347,2.4000000000000004,5758.0,78.50388,0.1,68900.0,0.33,276.0,2700.0,18.14922087487734,0.7248965047026563,1957.220562697172,10.119617392180349,2.195233312071934,8.029603482696992,1.4703368073692777,15236,192,5018,7703,483.22512364370647,277.6316393106822,0.004475222151487594,True
0.09,0.4382792107972679,2.4000000000000004,5759.0,78.50388,0.2,68900.0,0.33,276.0,2700.0,15.799159696576783,0.7094353723159103,1915.4755052529576,9.02295217006527,1.800962260491615,6.776207526511513,1.0915268881757045,3191,88,1046,1616,395.58895749405184,227.97803593034268,0.0035965764919796174,True
0.09999999999999999,0.4317888422636796,2.4000000000000004,5760.0,78.50388,0.2,68900.0,0.33,276.0,2700.0,15.24072878951225,0.7599420443732074,2051.84351980766,8.85411664044891,1.7429484506714732,6.386612149063341,0.9830064062982657,3204,88,1050,1623,353.88025918535396,204.31276633278557,0.0032048928013032017,True
0.11,0.7835913277285866,2.4000000000000004,5761.0,78.50388,0.3,68900.0,0.33,276.0,2700.0,35.391421435211896,1.9437405390553713,5248.099455449503,19.532223529724654,6.644949260729977,15.859197905487243,4.701208721674606,3605,98,1182,1826,570.328426060253,329.1412758570798,0.006325722466496539,True
0.12,0.6921908258612175,2.4000000000000004,5762.0,78.50388,0.3,68900.0,0.33,276.0,2700.0,29.201587051322107,1.7484761083423892,4720.8854925244505,16.458893515907295,5.001745386155823,12.742693535414812,3.253269277813434,2773,84,910,1402,465.47491076313776,268.4552842138007,0.004934510515173123,True
0.13,0.7605938837876547,2.4000000000000004,5763.0,78.50388,0.3,68900.0,0.33,276.0,2700.0,33.245301365078106,2.1563432026901186,5822.126647263321,18.739169360757494,6.20490262847017,14.506132004320612,4.048559425780051,3343,92,1088,1705,468.355595951712,269.97896665932444,0.005205488072438883,True
0.14,0.7134536286764275,2.4000000000000004,5764.0,78.50388,0.3,68900.0,0.33,276.0,2700.0,29.935028181461046,2.089704952540976,5642.203371860635,17.15511197029075,5.359089237857237,12.779916211170296,3.269384285316261,2847,86,934,1440,410.0080374088946,236.7180851395041,0.004454414026276028,True
0.15000000000000002,0.4741453455596062,2.4000000000000004,5765.0,78.50388,0.2,68900.0,0.33,276.0,2700.0,16.183384795824555,1.2066852762162632,3258.0502457839107,9.975037004399372,2.1415578503833754,6.208347791425183,0.9348725741671122,3328,90,1092,1684,263.74570094962803,152.17225065811854,0.0024914406084300834,False
0.16,0.8099243358220954,2.4000000000000004,5766.0,78.50388,0.3,68900.0,0.33,276.0,2700.0,35.56531042067024,2.8366461913142196,7658.9447165483925,20.456626745214468,7.171424375988681,15.108683675455769,4.3347781846744615,3466,96,1134,1759,407.7161947791842,235.32827951792794,0.004667521692966325,True
0.17,0.8422592386720837,2.4000000000000004,5767.0,78.50388,0.3,68900.0,0.33,276.0,2700.0,37.43214284210487,3.171442378440853,8562.894421790304,21.61556126524821,7.851553625463756,15.816581576856656,4.680111247022904,3748,100,1230,1897,393.0909015885792,226.74656700807458,0.004656752788294605,True
0.18000000000000002,0.7613219034714256,2.4000000000000004,5768.0,78.50388,0.3,68900.0,0.33,276.0,2700.0,31.776817174096152,2.8476990334314967,7688.787390265041,18.764070984699487,6.218554176250368,13.012746189396665,3.3708551428188716,3184,90,1038,1621,346.0322019447104,199.7417181226039,0.0038433493343399995,True
0.19,0.5161412492679411,2.4000000000000004,5769.0,78.50388,0.2,68900.0,0.33,276.0,2700.0,17.385685609703643,1.6372746769145294,4420.64162766923,11.130930288554847,2.584584811289094,6.254755321148796,0.9473101343745647,3765,96,1240,1899,225.12939140248903,129.8671574642308,0.00223846073526174,False
0.2,0.7755288525574244,2.4000000000000004,5770.0,78.50388,0.3,68900.0,0.33,276.0,2700.0,32.09385342104369,3.192630181285226,8620.10148947011,19.252680368630823,6.48859919603153,12.841173052412866,3.2959690147463045,3373,94,1104,1711,313.14067729760427,180.68642822216464,0.003572953056280133,True
0.21000000000000002,0.8466053231099206,2.4000000000000004,5771.0,78.50388,0.3,68900.0,0.33,276.0,2700.0,36.46584428506539,3.8095174568886025,10285.697133599228,21.77333518129593,7.945839357343812,14.692509103769456,4.13632190045521,3639,98,1188,1851,323.93304398660456,186.82482612324117,0.0038507098958291963,True
0.22,0.735137016826968,2.4000000000000004,5772.0,78.50388,0.3,68900.0,0.33,276.0,2700.0,28.979576445424282,3.1654522899463857,8546.72118285524,17.876803900212114,5.7388732005222725,11.102772545212169,2.5734209105758867,2801,84,920,1415,275.2167630839802,158.83428238104332,0.0030479743266886776,False
0.23,0.5470547173650894,2.4000000000000004,5773.0,78.50388,0.1,68900.0,0.33,276.0,2700.0,18.05440473742008,2.0507740395924907,5537.089906899725,12.010114245432746,2.942207909167391,6.044290491987333,0.8914338695749002,19751,186,4878,11164,615.2385877735499,342.928458856092,0.0019394041909586565,True
0.24000000000000005,0.9016578572595972,2.4000000000000004,5774.0,78.50388,0.3,68900.0,0.33,276.0,2700.0,39.29198563753044,4.686085358608172,12652.430468242064,23.81297474594093,9.200310844920653,15.479010891589507,4.514225486312481,3557,100,1164,1805,304.7386909703732,175.92787840901408,0.0037094896731229127,True
0.25,0.8027802519774975,2.4000000000000004,5775.0,78.50388,0.3,68900.0,0.33,276.0,2700.0,32.379701121812886,4.014737716751712,10839.791835229624,20.204115613421056,7.0261832633486705,12.17558550839183,3.011445546596958,3066,90,1010,1545,261.4041064388082,150.8059682307793,0.003050317885306808,False
0.26,0.6369449049385649,2.4000000000000004,5776.0,78.50388,0.08,68900.0,0.33,276.0,2700.0,22.17278346322061,2.845650761899018,7683.257057127349,14.703064512145296,4.141313001694465,7.469718951075315,1.2956622397954471,49523,264,9356,30387,217.73678012021523,123.4576983866273,0.0022303330780656157,False
0.27,0.8932955422887993,2.4000000000000004,5777.0,78.50388,0.3,68900.0,0.33,276.0,2700.0,37.77933002894387,5.058985575107017,13659.261052788946,23.49825321529485,9.00249637471097,14.281076813649019,3.9435107996039536,3665,100,1202,1856,272.2146407262516,157.12366635975192,0.0032875304897766306,False
0.28,0.846290024255846,2.4000000000000004,5778.0,78.50388,0.3,68900.0,0.33,276.0,2700.0,34.33116435929169,4.760386849012693,12853.04449233427,21.761873060544495,7.93897605677441,12.569291298747196,3.1785892077617177,3220,92,1068,1612,248.68430757922158,143.44543268587154,0.002957252682049712,False
0.29000000000000004,0.7232047168400142,2.4000000000000004,5779.0,78.50388,0.3,68900.0,0.33,276.0,2700.0,26.369054819197995,3.772432746631041,10185.56841590381,17.478196977703966,5.527943520471558,8.890857841494029,1.7555107738405171,2727,82,902,1368,211.9527523657334,121.84825876523584,0.0023393095860030928,False
0.3,0.6935494646858298,2.4000000000000004,5780.0,78.50388,0.3,68900.0,0.33,276.0,2700.0,24.383920708592772,3.601039438523831,9722.806484014343,16.50304027102419,5.024137062392285,7.880880437568582,1.4230976238684536,2487,78,820,1251,192.63190657757585,111.00740657898329,0.002163786800974267,False
0.31,0.6371163849680921,2.4000000000000004,5781.0,78.50388,0.1,68900.0,0.33,276.0,2700.0,20.985860806956815,3.1904143005829106,8614.118611573858,14.708395821306086,4.143834740727113,6.277464985650729,0.9534204401442028,29784,204,5762,18167,188.87855709443699,108.92228387416363,0.0019365817686428815,False
0.32,0.7024599448380917,2.4000000000000004,5782.0,78.50388,0.1,68900.0,0.33,276.0,2700.0,24.399235278515015,3.8352485058471846,10355.170965787398,16.79372166450416,5.172480648866791,7.605513614010853,1.3372321430196061,35290,224,6752,21578,197.64050706372686,114.10562926138525,0.002114478630452544,False
0.33,0.8322374296278727,2.4000000000000004,5783.0,78.50388,0.3,68900.0,0.33,276.0,2700.0,31.996887518969906,5.20422016383533,14051.39444235539,21.253553574525228,7.636742692182513,10.743333944444679,2.4325225283471834,3104,90,1028,1556,212.88696588761664,122.65013636642962,0.002497986902422581,False
0.34,0.8317730544464235,2.4000000000000004,5784.0,78.50388,0.3,68900.0,0.33,276.0,2700.0,31.691663895075582,5.305264757058386,14324.214844057642,21.236840610888947,7.626876950137391,10.454823284186634,2.3216121930790052,3133,90,1038,1570,207.78477452784367,119.67198197641056,0.002433056142905718,False
0.3500000000000001,0.724456736634417,2.4000000000000004,5785.0,78.50388,0.1,68900.0,0.33,276.0,2700.0,24.928557545876266,4.272700380513239,11536.291027385745,17.51985354814011,5.549852642372706,7.408703997736158,1.2771522618594666,36257,224,6712,22325,189.5769132188292,109.39664683070389,0.0020416801365252418,False
0.36000000000000004,0.6790776922956419,2.4000000000000004,5786.0,78.50388,0.3,68900.0,0.33,276.0,2700.0,22.126155973520767,3.8849919773357757,10489.478338806595,16.035188328289845,4.788700491065678,6.090967645230922,0.9037085137299026,2219,72,742,1100,160.01114893027292,92.19196062503848,0.0018163760825891755,False
0.37,0.87185783880189,2.4000000000000004,5787.0,78.50388,0.3,68900.0,0.33,276.0,2700.0,33.43227854425617,6.078884135565869,16412.987166027848,22.69945830836788,8.507330588475481,10.73282023588829,2.428446452909612,3086,92,1024,1544,198.81712576411292,114.66908295404413,0.0024038477376951313,False
0.38,0.9707791252509423,2.4000000000000004,5788.0,78.50388,0.3,68900.0,0.33,276.0,2700.0,39.77635785562607,7.442584344510435,20094.977730178176,26.481704173113155,10.937835173311486,13.294653682512912,3.4952508288010504,3846,104,1276,1926,214.02879490468615,123.23389737336197,0.0027111181958918104,False
0.39,1.0645571100170135,2.4000000000000004,5789.0,78.50388,0.3,68900.0,0.33,276.0,2700.0,46.18450583820124,8.88174121537038,23980.701281500023,30.29438263964237,13.598281401154248,15.890123198558868,4.7165401857838685,4394,112,1454,2207,229.39828948500892,132.014891384865,0.0030003063213128534,False
0.4,1.0382769651941304,2.4000000000000004,5790.0,78.50388,0.3,68900.0,0.33,276.0,2700.0,43.94813242082954,8.655585197612654,23370.080033554164,29.203634766704806,12.816511157949433,14.744497654124732,4.16092596033678,4189,108,1386,2104,216.76178234756495,124.63666893483041,0.0028362176312836302,False
0.4100000000000001,1.0643791177960251,2.4000000000000004,5791.0,78.50388,0.3,68900.0,0.33,276.0,2700.0,45.5358124419169,9.190493745740898,24814.333113500426,30.28693675400184,13.592889899371631,15.248875687915064,4.402396153630733,4192,110,1392,2098,217.5627609287903,125.24143758405376,0.0028695326560744575,False
0.42000000000000004,0.7978995430939753,2.4000000000000004,5792.0,78.50388,0.08,68900.0,0.33,276.0,2700.0,27.525512012542613,5.625187978287843,15188.007541377176,20.032342088952973,6.92799228857864,7.49316992358964,1.3028043102907967,81477,294,11242,53142,203.35387571139773,116.2134251498803,0.001983200348005924,False
0.43,1.0917077786039906,2.4000000000000004,5793.0,78.50388,0.3,68900.0,0.33,276.0,2700.0,46.920084971827684,9.921299197536984,26787.507833349857,31.43949109698311,14.436297456395117,15.480593874844573,4.514998258858133,4165,110,1386,2080,215.6320931885373,124.20977857253709,0.0028485978062646965,False
0.44,0.7574647499799886,2.4000000000000004,5794.0,78.50388,0.1,68900.0,0.33,276.0,2700.0,24.686033329921383,5.252518380180385,14181.79962648704,18.632290252928588,6.146432543780712,6.053743076992795,0.8939141636003267,40975,218,6542,26030,169.32496185753,97.72476290512708,0.001799383776244148,False
0.45,1.0087701443511692,2.4000000000000004,5795.0,78.50388,0.3,68900.0,0.33,276.0,2700.0,40.34922902697855,8.887724777364594,23996.856898884405,27.999650329040215,11.972621420875921,12.349578697938334,3.0848966435113265,3666,102,1222,1825,194.09696206775482,111.39331587541196,0.0024629741483648804,False
0.46,1.0997341884356138,2.4000000000000004,5796.0,78.50388,0.3,68900.0,0.33,276.0,2700.0,46.57143658017754,10.50757037175429,28370.440003736585,31.781561567667882,14.690015412746263,14.789875012509658,4.182445040991972,4434,112,1450,2235,201.5534224641229,115.56462249369356,0.0027095204615295108,False
0.4700000000000001,1.0636236703902844,2.4000000000000004,5797.0,78.50388,0.3,68900.0,0.33,276.0,2700.0,43.63522886240333,10.036832399949015,27099.44747986234,30.255343251169762,13.57002164609062,13.379885611233568,3.533189246141605,4304,108,1362,2205,205.6359077565617,118.4001994487898,0.0025494117696372204,False
0.4800000000000001,1.1496167504349275,2.4000000000000004,5798.0,78.50388,0.3,68900.0,0.33,276.0,2700.0,49.6759370408612,11.690601546642826,31564.62417593563,33.94376223480333,16.32902922349174,15.73217480605787,4.638427676848915,5250,118,1598,2741,215.07287262612007,123.57209515130516,0.002785618729483301,False
0.49,0.9177302691422926,2.4000000000000004,5799.0,78.50388,0.3,68900.0,0.33,276.0,2700.0,33.171884261965474,7.880708154780078,21277.912017906212,24.422806255518754,9.58793481914568,8.74907800644672,1.707226664365602,3368,90,1018,1757,179.79373902194678,103.27804588542024,0.0020462047451271464,False
0.5,1.167102346857479,2.4000000000000004,5800.0,78.50388,0.3,68900.0,0.33,276.0,2700.0,50.36851490520937,12.330329338503205,33291.88921395865,34.716492627867275,16.92930077993501,15.652022277342098,4.598971441431804,5093,116,1576,2635,196.70167713104632,112.65495705444476,0.002745910676147817,False
0.01,0.42870028797646553,2.4000000000000004,5801.0,81.52326,0.05,68900.0,0.33,276.0,2700.0,17.291006266914568,0.08645293693947173,233.42292973657368,8.774145105624672,1.7157255906810527,8.516861161289896,1.629272653741581,55218,366,18284,27786,3581.5701099839725,2034.8026104740507,0.028923566830496305,True
0.02,0.5706928916872959,2.4000000000000004,5802.0,81.52326,0.1,68900.0,0.33,276.0,2700.0,24.813756195893966,0.24812080679811718,669.9261783549164,12.698592038874875,3.2342145993077387,12.115164157019091,2.9860937925096214,19819,226,6564,9967,2255.2287230124684,1285.3246480818937,0.021435398433481474,True
0.03,0.5155416342116989,2.4000000000000004,5803.0,81.52326,0.1,68900.0,0.33,276.0,2700.0,21.3984403397834,0.3209200564286995,866.4841523574886,11.114114591452436,2.5779155798221964,10.284325748330962,2.256995523393497,17647,210,5800,8941,1505.9454557050697,858.2766580424866,0.012659303433937565,True
0.04,0.6979876547749083,2.4000000000000004,5804.0,81.52326,0.1,68900.0,0.33,276.0,2700.0,32.010377334536685,0.6400735054041775,1728.1984645912794,16.647575327687427,5.097701246095476,15.362802006849257,4.457627740691299,26153,264,8580,13277,1638.7353497833922,935.5782677235082,0.01483556207498051,True
0.05,0.6963369032984185,2.4000000000000004,5805.0,81.52326,0.1,68900.0,0.33,276.0,2700.0,31.58990848214299,0.7894859126657742,2131.61196419759,16.593758776199476,5.070264664840382,14.996149705943516,4.280778752174608,25716,262,8434,13059,1321.4338468353649,752.6689602766156,0.011786298735307026,True
0.06000000000000001,0.7358705658558493,2.4000000000000004,5806.0,81.52326,0.2,68900.0,0.33,276.0,2700.0,33.833644337176224,1.0145569407731643,2739.3037400875437,17.901425378883758,5.751995742366966,15.932218958292466,4.737438801593802,7435,140,2434,3778,1023.1067287754881,583.9797292437963,0.010763059963379373,True
0.06999999999999999,0.5147083796570053,2.4000000000000004,5807.0,81.52326,0.2,68900.0,0.33,276.0,2700.0,20.282001159979078,0.7091516630791465,1914.7094903136954,11.09076167578348,2.568664423890846,9.191239484195599,1.8595127608116995,4342,104,1424,2200,599.9790170617325,346.27111190210604,0.00575078638841684,True
0.08,0.5050919757030523,2.4000000000000004,5808.0,81.52326,0.2,68900.0,0.33,276.0,2700.0,19.50353288767158,0.7790689852142737,2103.486260078539,10.822513684240757,2.4633028324846857,8.681019203430822,1.684233847270412,4105,100,1340,2089,523.0112627077807,301.9175250598537,0.0049675268816656995,True
0.09,0.6116069160559439,2.4000000000000004,5809.0,81.52326,0.2,68900.0,0.33,276.0,2700.0,25.208056428645204,1.13283572525936,3058.656458200272,13.923429552481602,3.778678177743397,11.284626876163601,2.645842452484037,5419,118,1774,2752,550.6539423189213,316.09692091476757,0.005684474960372924,True
0.09999999999999999,0.5690417486580651,2.4000000000000004,5810.0,81.52326,0.2,68900.0,0.33,276.0,2700.0,22.487631684128015,1.1222871891038435,3030.1754105803775,12.65004517672159,3.2132874959161226,9.837586507406424,2.091000306812279,4642,108,1520,2356,462.8887834788507,267.1345386942265,0.004692552046099346,True
0.11,0.7330525734330122,2.4000000000000004,5811.0,81.52326,0.3,68900.0,0.33,276.0,2700.0,32.08052117418012,1.7616410246986216,4756.430766686279,17.80691364035348,5.701682874840984,14.273607533826642,3.9400418501423617,3309,92,1076,1689,553.0999674025861,319.11489340024804,0.006009858057204187,True
0.12,0.69252238488574,2.4000000000000004,5812.0,81.52326,0.3,68900.0,0.33,276.0,2700.0,29.22212547487363,1.7497084137554675,4724.212717139762,16.469662706912963,5.007204266069577,12.752462767960665,3.2574958523141095,2767,84,908,1399,483.6295055333674,278.80925622465065,0.005129090110744171,True
0.13,0.6704402638259181,2.4000000000000004,5813.0,81.52326,0.2,68900.0,0.33,276.0,2700.0,27.578439182229786,1.7879971608049616,4827.592334173396,15.758460775246895,4.651394155725679,11.81997840698289,2.8633969949207176,5881,124,1932,2977,421.25700602023807,242.4546449500127,0.004555541040950313,True
0.14,0.7965813220682545,2.4000000000000004,5814.0,81.52326,0.3,68900.0,0.33,276.0,2700.0,35.30441409537071,2.4655619665149797,6657.017309590446,19.986050803732827,6.901615749912884,15.318363291637883,4.436053783397904,3421,96,1126,1726,480.5449994930118,277.42397036814003,0.00536624645034479,True
0.15000000000000002,0.7924074583313904,2.4000000000000004,5815.0,81.52326,0.3,68900.0,0.33,276.0,2700.0,34.713025795741274,2.5964083512100156,7010.302548267042,19.83976745359761,6.818502132895988,14.873258342143664,4.222093781685972,3446,96,1134,1739,447.1963031564069,258.1581657448384,0.0049962606297648,True
0.16,0.7819145816943927,2.4000000000000004,5816.0,81.52326,0.3,68900.0,0.33,276.0,2700.0,33.712596089560016,2.688429044825333,7258.758421028399,19.473952627469572,6.612247545012942,14.238643462090444,3.9238185001876094,3450,96,1134,1743,411.4548255968588,237.46559505070573,0.004620782825072694,True
0.17,0.6096313289942934,2.4000000000000004,5817.0,81.52326,0.3,68900.0,0.33,276.0,2700.0,22.921578392419118,1.9380444002175665,5232.7198805874295,13.86331999060203,3.751230622451041,9.058258401817088,1.8131862222334745,2349,76,770,1188,314.8230757090095,181.7631813659174,0.003147548371931039,True
0.18000000000000002,0.558434436920688,2.4000000000000004,5818.0,81.52326,0.1,68900.0,0.33,276.0,2700.0,19.846123046070545,1.7739365619091922,4789.628717154819,12.33980328310339,3.080752439098054,7.506319762967156,1.3068158771888616,18786,198,5376,10086,269.70582855021513,155.50627436920104,0.002688754207247641,False
0.19,0.5768827086466534,2.4000000000000004,5819.0,81.52326,0.2,68900.0,0.33,276.0,2700.0,20.59616068086471,1.9422698086748338,5244.128483422051,12.8811947652753,3.3133812016988204,7.71496591558941,1.3711113930239867,4569,106,1502,2310,257.09667811186733,148.41202701221331,0.002660536626773258,False
0.2,0.8065003894805689,2.4000000000000004,5820.0,81.52326,0.3,68900.0,0.33,276.0,2700.0,34.103704009479245,3.3936152401287796,9162.761148347705,20.33544562514311,7.101589526580488,13.768258384336136,3.7079742864517087,3354,94,1096,1704,339.38501274553295,195.78175450739002,0.003909842020028533,True
0.21000000000000002,0.5524079961017785,2.4000000000000004,5821.0,81.52326,0.2,68900.0,0.33,276.0,2700.0,18.801514945495608,1.9547628762337763,5277.8597658311965,12.16480205607403,3.0069151205609215,6.636712889421577,1.0521522443271452,3973,98,1316,1993,228.0111587854148,131.5326107055902,0.0023126475660910054,False
0.22,0.873198505547071,2.4000000000000004,5822.0,81.52326,0.3,68900.0,0.33,276.0,2700.0,37.96074783938477,4.153381143282045,11214.129086861522,22.749074600854296,8.537796251772955,15.211673238530476,4.384415108490909,3591,100,1176,1821,332.20014385778404,191.794157511391,0.003994912634467553,True
0.23,0.6052517552477381,2.4000000000000004,5823.0,81.52326,0.2,68900.0,0.33,276.0,2700.0,21.15859862008004,2.407756336098388,6500.9421074656475,13.730416062501721,3.690806397393035,7.428182557578317,1.2830500612946474,4490,104,1488,2252,227.52630550078953,131.14616402349787,0.0023894915522650944,False
0.24000000000000005,0.580477404370213,2.4000000000000004,5824.0,81.52326,0.2,68900.0,0.33,276.0,2700.0,19.578715182727546,2.320492904031496,6265.33084088504,12.98768209331612,3.3598764749225967,6.591033089411425,1.0393835708911006,4146,100,1376,2076,211.7675121208763,121.8035624626848,0.002190394317918737,False
0.25,0.6392760511403569,2.4000000000000004,5825.0,81.52326,0.3,68900.0,0.33,276.0,2700.0,22.550003178396725,2.786025473824698,7522.268779326685,14.775603045531954,4.175672517118124,7.774400132864772,1.3896470432934258,2365,76,780,1189,224.08969443080977,129.34213603405206,0.0023786871447751936,False
0.26,0.8689447904054628,2.4000000000000004,5826.0,81.52326,0.3,68900.0,0.33,276.0,2700.0,36.43426018925202,4.699642736283105,12689.035387964383,22.59180597641015,8.441362817849821,13.842454212841872,3.741720081566717,3479,98,1144,1757,282.1299764556707,162.71751568172343,0.0034029524533153626,True
0.27,0.8794988784585824,2.4000000000000004,5827.0,81.52326,0.3,68900.0,0.33,276.0,2700.0,36.842141518155366,4.932465126150508,13317.655840606372,22.98284798234885,8.68185981110004,13.859293535806515,3.7493946849495314,3505,98,1154,1768,277.14549634726933,159.97433523035895,0.0033414769559222085,True
0.28,0.8918553626545531,2.4000000000000004,5828.0,81.52326,0.3,68900.0,0.33,276.0,2700.0,37.375224234894716,5.186555231597518,14003.6991253133,23.444228458602645,8.968693577923284,13.930995776292072,3.782138346325766,3510,98,1158,1767,270.2672966811102,155.99355472202456,0.003294698375941788,False
0.29000000000000004,0.6122609609970147,2.4000000000000004,5829.0,81.52326,0.2,68900.0,0.33,276.0,2700.0,20.107976373848818,2.864576372055813,7734.356204550695,13.94335125258084,3.787791240662066,6.164625121267978,0.9232148686062533,4309,102,1432,2155,184.56214865929996,106.3908641112436,0.001996565031759547,False
0.3,0.713797055789565,2.4000000000000004,5830.0,81.52326,0.3,68900.0,0.33,276.0,2700.0,25.55807736307111,3.7771629366960475,10198.339929079328,17.16645021842107,5.36498271528229,8.391627144650041,1.5878197785862422,2415,78,798,1212,208.35351032388039,120.24072820026811,0.0023244123534777563,False
0.31,0.644591454445375,2.4000000000000004,5831.0,81.52326,0.2,68900.0,0.33,276.0,2700.0,21.393857358458266,3.2536537660656344,8784.865168377213,14.941513790016895,4.254651433105996,6.452343568441371,1.000997667040362,4596,106,1512,2306,183.46427839657989,105.32650734002142,0.0020132014879442467,False
0.32,0.7000348148773056,2.4000000000000004,5832.0,81.52326,0.05,68900.0,0.33,276.0,2700.0,24.260116849150812,3.812989557148913,10295.071804302066,16.71441042362199,5.131849891210301,7.54570642552882,1.3188603340613878,218690,436,25318,146387,271.4174369751141,152.49432410948418,0.002191089854764834,False
0.33,0.7875186145893813,2.4000000000000004,5833.0,81.52326,0.3,68900.0,0.33,276.0,2700.0,29.198634750457877,4.742508457030846,12804.772833983285,19.66898263321035,6.721926324812036,9.529652117247526,1.9794178677811898,2881,86,954,1444,212.6867211900296,122.68408150536504,0.0024214283328805515,False
0.34,0.8991485454964878,2.4000000000000004,5834.0,81.52326,0.3,68900.0,0.33,276.0,2700.0,36.078951193280254,6.051103597753146,16337.979713933495,23.71835049288353,9.140675421243772,12.360600700396724,3.089571823490626,3170,94,1050,1589,229.41285752497637,132.11749671535375,0.0028020180254347046,False
0.3500000000000001,0.7527963017204515,2.4000000000000004,5835.0,81.52326,0.3,68900.0,0.33,276.0,2700.0,26.58614574693007,4.562778315697658,12319.501452383676,18.473291565939313,6.059820012446286,8.112854180990759,1.497041696748628,2610,80,862,1311,194.41107606501592,112.10799616821733,0.002180816942935168,False
0.36000000000000004,0.8368282231410915,2.4000000000000004,5836.0,81.52326,0.3,68900.0,0.33,276.0,2700.0,31.46662386127923,5.566276197133005,15028.945732259113,21.419068860847503,7.734693088678214,10.047555000431728,2.168416891545209,3023,88,1002,1514,204.71229267219238,118.12827513933017,0.0024319251644176493,False
0.37,1.0260710862853546,2.4000000000000004,5837.0,81.52326,0.3,68900.0,0.33,276.0,2700.0,44.005189954211716,8.03487274640764,21694.156415300626,28.70293731730846,12.463114663113167,15.302252636903255,4.428241916705527,4075,108,1348,2047,240.70835040911237,138.6869541340147,0.0031038109844340276,False
0.38,0.8697849140595251,2.4000000000000004,5838.0,81.52326,0.3,68900.0,0.33,276.0,2700.0,33.02315091767341,6.159475026299435,16630.582571008475,22.62283104279707,8.460355759642756,10.400319874876342,2.3008807333433205,3104,92,1032,1550,204.14483617650345,117.77719467367463,0.0024327898960463065,False
0.39,0.8138067195592646,2.4000000000000004,5839.0,81.52326,0.3,68900.0,0.33,276.0,2700.0,29.242316877861786,5.5780143681041885,15060.63879388131,20.59438944757958,7.25111215225779,8.647927430282206,1.6730977841536019,2896,86,962,1445,188.2475331146573,108.44256377861896,0.002186125517290306,False
0.4,0.7368428491736593,2.4000000000000004,5840.0,81.52326,0.3,68900.0,0.33,276.0,2700.0,24.439370711993973,4.753832855845631,12835.348710783202,17.93408078519708,5.769416872856239,6.505289926796895,1.0155840170106085,2408,76,798,1205,163.20214169505806,93.98529978031445,0.0018917001323112363,False
0.4100000000000001,0.8866887803761883,2.4000000000000004,5841.0,81.52326,0.3,68900.0,0.33,276.0,2700.0,33.29462733626302,6.681050799081877,18038.83715752107,23.250845920985512,8.848066894882562,10.043781415277508,2.167016095800685,3060,90,1020,1524,190.9045741815327,109.91604701787958,0.002334057160033352,False
0.42000000000000004,0.93928227950467,2.4000000000000004,5842.0,81.52326,0.3,68900.0,0.33,276.0,2700.0,36.469904117706925,7.503510320372356,20259.47786500536,25.250738644502928,10.123196230047657,11.219165473203997,2.619685909675302,3273,94,1090,1632,195.25441601262466,112.39698278358783,0.002470508840058056,False
0.43,1.0848040646742942,2.4000000000000004,5843.0,81.52326,0.3,68900.0,0.33,276.0,2700.0,46.40883789495343,9.811381076009013,26490.728905224336,31.14656306856787,14.220260038560628,15.26227482638556,4.408878962551615,4293,110,1426,2148,220.15592565477056,126.49604191785426,0.002932248822745725,False
0.44,0.8498504332643436,2.4000000000000004,5844.0,81.52326,0.3,68900.0,0.33,276.0,2700.0,30.182715406007368,6.461788436919356,17446.828779682262,21.891450494640857,8.016687805465029,8.291264911366511,1.554899368545673,3042,86,970,1549,173.59613596174884,99.87723294068985,0.0020960563654990796,False
0.45,0.7916179932810865,2.4000000000000004,5845.0,81.52326,0.2,68900.0,0.33,276.0,2700.0,26.43015722458554,5.755933621826166,15541.02077893065,19.81214794332032,6.802850233234774,6.61800928126522,1.0469166114086077,7147,116,1782,4016,174.48315982015401,100.50271163058733,0.00192055397218356,False
0.46,1.1316673583369297,2.4000000000000004,5846.0,81.52326,0.3,68900.0,0.33,276.0,2700.0,48.95618866125701,11.056063350402576,29851.371046086955,33.15852827022839,15.726818673793947,15.797660391028622,4.67075532339137,4679,114,1538,2354,231.3881927766177,133.1999803257421,0.0029533524737770465,False
0.4700000000000001,1.1275752748590495,2.4000000000000004,5847.0,81.52326,0.3,68900.0,0.33,276.0,2700.0,48.330410950798594,11.14020019072191,30078.540514949156,32.98064489004197,15.591495308442312,15.349766060756622,4.451295117720402,4534,112,1488,2280,501.5494342650882,268.2598262136563,0.002830013559276704,True
0.4800000000000001,1.0709284425040606,2.4000000000000004,5848.0,81.52326,0.3,68900.0,0.33,276.0,2700.0,43.86055936847529,10.294910905270214,27796.259444229578,30.56143670718186,13.792147188881136,13.299122661293435,3.4972362836109223,4399,108,1362,2282,197.37176188986209,113.27157647088593,0.002628741303046036,False
0.49,0.9861239055945646,2.4000000000000004,5849.0,81.52326,0.3,68900.0,0.33,276.0,2700.0,37.66488934727996,8.981494400682129,24250.034881841748,27.09044409200427,11.348854029848983,10.574445255275691,2.367359629166854,3851,98,1196,1987,201.0519051183485,115.61304919249437,0.0024001666591853574,False
0.5,0.8790139201719446,2.4000000000000004,5850.0,81.52326,0.08,68900.0,0.33,276.0,2700.0,30.485392219983883,7.3595486671968215,19870.781401431417,22.96481831553549,8.670718460577474,7.520573904448394,1.3111697933806523,105197,312,12492,70159,218.33018440102023,122.7645618129825,0.0020153093530939537,False
0.01,0.378683877027527,2.4000000000000004,5851.0,84.54263999999999,0.05,68900.0,0.33,276.0,2700.0,14.780195473886064,0.07389888297432756,199.52698403068442,7.512454461542571,1.3086890194799328,7.2677410123434925,1.2347901365056053,47632,334,15768,23974,3421.6171607161177,1947.4741919798532,0.025725231833677375,True
0.02,0.6710711362871526,2.4000000000000004,5852.0,84.54263999999999,0.1,68900.0,0.33,276.0,2700.0,30.923335131756296,0.3092165961567431,834.8848096232063,15.778609311271255,4.6613420897121625,15.144725820485041,4.35212549355542,25363,260,8396,12763,2838.2877038997913,1616.4596553697584,0.02893679215826108,True
0.03,0.6443530718770469,2.4000000000000004,5853.0,84.54263999999999,0.1,68900.0,0.33,276.0,2700.0,28.94120541813617,0.43406153260460417,1171.9661380324312,14.934057898581699,4.251090525380115,14.007147519554472,3.8170289927755108,23905,250,7864,12103,2069.9148940543205,1179.539761816279,0.018143516709362054,True
0.04,0.6182880012294667,2.4000000000000004,5854.0,84.54263999999999,0.1,68900.0,0.33,276.0,2700.0,27.05022195306075,0.5408703977749478,1460.350073992359,14.127436221578304,3.872382664861272,12.922785731482445,3.3315122670863238,22477,240,7382,11398,1470.024856157924,838.0553805396897,0.01264611497092988,True
0.05,0.3659834181810297,2.4000000000000004,5855.0,84.54263999999999,0.1,68900.0,0.33,276.0,2700.0,13.221701646750649,0.3302807417809673,891.7580028086116,7.202088142116791,1.2152525886768706,6.019613504633858,0.8849718468959034,10821,156,3548,5493,627.8239715680633,359.5229104544712,0.005355314170050532,True
0.06000000000000001,0.5745295256873216,2.4000000000000004,5856.0,84.54263999999999,0.2,68900.0,0.33,276.0,2700.0,23.89741258921579,0.7164699883343554,1934.4689685027595,12.811661226539712,3.28315123354185,11.085751362676078,2.5666812452074947,5306,116,1742,2687,794.0397805995877,458.4385730009154,0.007912422209450216,True
0.06999999999999999,0.4273766625473101,2.4000000000000004,5857.0,84.54263999999999,0.1,68900.0,0.33,276.0,2700.0,15.73401185553043,0.5499720374234437,1484.924501043298,8.739946032907936,1.7041345473381406,6.994065822622494,1.154162509914697,12814,174,4212,6490,510.54599284784325,293.22807253449946,0.0047318023482025,True
0.08,0.6074432099006901,2.4000000000000004,5858.0,84.54263999999999,0.2,68900.0,0.33,276.0,2700.0,25.246432911938392,1.0087849861851093,2723.719462699795,13.796858379715527,3.7209687621805214,11.449574532222865,2.7121837759954124,5465,118,1790,2774,639.1802512138634,368.93021200093585,0.006517262460209709,True
0.09,0.6218143697487833,2.4000000000000004,5859.0,84.54263999999999,0.2,68900.0,0.33,276.0,2700.0,25.809240753629364,1.1598890198836738,3131.7003536859193,14.235566073125684,3.922391772221035,11.57367468050368,2.762502752337361,5331,118,1750,2700,583.9173135063661,336.8751664229068,0.006024985247916733,True
0.09999999999999999,0.5267338370002712,2.4000000000000004,5860.0,84.54263999999999,0.2,68900.0,0.33,276.0,2700.0,20.152833211805145,1.0055472654878643,2714.977616817234,11.429480250779214,2.7040688860179025,8.723352961025931,1.6985216205300382,4304,104,1408,2186,448.46719259457046,258.6278066765563,0.0044109149333726285,True
0.11,0.49067596179659334,2.4000000000000004,5861.0,84.54263999999999,0.2,68900.0,0.33,276.0,2700.0,17.98623866630611,0.9864554867655487,2663.4298142669813,10.42473501010813,2.3101587908764154,7.561503656197981,1.3237033041108668,3738,94,1228,1890,391.7186362165858,226.0915923927464,0.0036984385062315975,True
0.12,0.5084798139393885,2.4000000000000004,5862.0,84.54263999999999,0.1,68900.0,0.33,276.0,2700.0,18.67136278159966,1.1166626521590461,3014.9891608294247,10.916751701636272,2.500127308298901,7.754611079963389,1.383464656139855,15284,192,5036,7724,356.86737560443675,206.02453137940932,0.0035659711524890455,True
0.13,0.6115371698183811,2.4000000000000004,5863.0,84.54263999999999,0.3,68900.0,0.33,276.0,2700.0,24.096580681670755,1.5616763582686408,4216.52616732533,13.921305770715286,3.7777071449816533,10.17527491095547,2.2160307867130125,2464,78,810,1243,419.887528865115,242.41730078075048,0.004185615753515893,True
0.14,0.49281585545972884,2.4000000000000004,5864.0,84.54263999999999,0.1,68900.0,0.33,276.0,2700.0,17.36803798248054,1.2100156386126493,3267.042224254153,10.483450626633298,2.332529417329906,6.884587355847243,1.1225137787172565,14239,184,4712,7165,303.33966876073623,174.77012916217564,0.0029851952480484324,True
0.15000000000000002,0.5139630721083484,2.4000000000000004,5865.0,84.54263999999999,0.2,68900.0,0.33,276.0,2700.0,18.222978215292446,1.359654782676339,3671.0679132261153,11.06988836045834,2.560406174880935,7.153089854834107,1.200751392204596,3910,98,1290,1969,300.26918714662963,173.3388542455414,0.002954062245354484,True
0.16,0.4975380543129426,2.4000000000000004,5866.0,84.54263999999999,0.1,68900.0,0.33,276.0,2700.0,17.135093104367304,1.362228806009984,3678.017776226957,10.613428200937326,2.382341025290492,6.521664903429977,1.020112219280508,14338,184,4686,7255,278.7415902334754,160.93153196645054,0.0026873943428788504,True
0.17,0.8349958760632135,2.4000000000000004,5867.0,84.54263999999999,0.3,68900.0,0.33,276.0,2700.0,36.937938259048046,3.1294349888810236,8449.474469978764,21.352942375623382,7.695506516661083,15.584995883424664,4.566071527780059,3593,98,1174,1826,422.26023998536994,243.64892429363422,0.004957534114829319,True
0.18000000000000002,0.7424511231576032,2.4000000000000004,5868.0,84.54263999999999,0.3,68900.0,0.33,276.0,2700.0,30.579856139214105,2.7399725402921136,7397.925858788707,18.122905767801445,5.870525233226527,12.45695037141266,3.130552692934413,2911,86,956,1471,364.99307053098823,210.6646453348182,0.003996383567732216,True
0.19,0.8869135088152139,2.4000000000000004,5869.0,84.54263999999999,0.3,68900.0,0.33,276.0,2700.0,39.87179248604984,3.7734548301674202,10188.328041452034,23.259243435856884,8.853292964748844,16.612549050192957,5.079838134581424,3781,102,1240,1915,402.8822330936192,232.3545936417679,0.004855759659429991,True
0.2,0.7950591715513589,2.4000000000000004,5870.0,84.54263999999999,0.3,68900.0,0.33,276.0,2700.0,33.355627718153514,3.318807610996206,8960.780549689756,19.932652562524623,6.871234619817887,13.42297515562889,3.552427008821681,3337,94,1096,1687,346.78403234845507,200.06504320143432,0.003980001197468931,True
0.21000000000000002,0.5253224044471784,2.4000000000000004,5871.0,84.54263999999999,0.08,68900.0,0.33,276.0,2700.0,17.39393814786553,1.8069673124826164,4878.811743703064,11.3895364648204,2.6879651403958835,6.0044016830451294,0.8809978279132671,31511,230,7468,18107,233.98926670081678,134.9212178544654,0.002286021496559392,False
0.22,0.6158848884753976,2.4000000000000004,5872.0,84.54263999999999,0.3,68900.0,0.33,276.0,2700.0,21.993194042436365,2.3969502256177178,6471.765609167838,14.053928081606427,3.838521195934135,7.939265960829937,1.4415709703164175,2229,74,734,1122,254.1286942566103,146.576887328564,0.002623070069824815,False
0.23,0.663832971832155,2.4000000000000004,5873.0,84.54263999999999,0.3,68900.0,0.33,276.0,2700.0,24.455217746064495,2.786867535586599,7524.542346083817,15.548040879581107,4.547969160985105,8.907176866483388,1.7611016253985063,2447,78,798,1244,257.4271222394527,148.49223566059686,0.0027673340614079154,False
0.24000000000000005,0.8679786054104957,2.4000000000000004,5874.0,84.54263999999999,0.3,68900.0,0.33,276.0,2700.0,36.98147960870604,4.408824635149246,11903.826514902965,22.556147500948697,8.419552182137204,14.425332107757342,4.010727546987958,3634,100,1188,1846,314.08317433337356,181.32606084434389,0.003787721793086337,True
0.25,0.8371023877416737,2.4000000000000004,5875.0,84.54263999999999,0.3,68900.0,0.33,276.0,2700.0,34.613758119276454,4.293994841434574,11593.78607187335,21.428970281725167,7.74056679640458,13.184787837551287,3.446571954970006,3477,96,1142,1758,296.11879924077476,170.9583813114927,0.0034782065740490073,True
0.26,0.8122186621769247,2.4000000000000004,5876.0,84.54263999999999,0.3,68900.0,0.33,276.0,2700.0,32.69731174817811,4.213839438943325,11377.366485146978,20.53799295265531,7.218451868883945,12.1593187955228,3.00461242994062,3181,92,1054,1594,275.8954448937855,159.2839442943115,0.003222163181458477,False
0.27,0.9458105321872083,2.4000000000000004,5877.0,84.54263999999999,0.3,68900.0,0.33,276.0,2700.0,41.434122640563004,5.552382577675599,14991.432959724116,25.503828684090056,10.288864967498649,15.930293956472948,4.73648238982305,3857,104,1268,1949,309.17347723989957,178.3950113763569,0.0038306440672681292,True
0.28,0.6502542821874897,2.4000000000000004,5878.0,84.54263999999999,0.1,68900.0,0.33,276.0,2700.0,22.42505457340319,3.0935314789887127,8352.534993269524,15.11904998682284,4.339764950027222,7.30600458658035,1.2462334710385092,27162,212,6036,15952,404.1255275757769,221.70362235304756,0.0023080285292412877,True
0.29000000000000004,0.6025765844519937,2.4000000000000004,5879.0,84.54263999999999,0.1,68900.0,0.33,276.0,2700.0,19.590801688919434,2.7895860427410515,7531.882315400839,13.649471645314362,3.6541834994967988,5.941330043605072,0.8645974567557473,25122,194,5272,14996,204.9551907158604,118.32011753256504,0.0020601770906189844,False
0.3,0.6284484759500404,2.4000000000000004,5880.0,84.54263999999999,0.1,68900.0,0.33,276.0,2700.0,20.748362551386055,3.0557057149432927,8250.405430346891,14.439836246876734,4.017508992885117,6.308526304509321,0.961803277941824,28477,202,5616,17291,206.3549303388419,119.03364157088586,0.0021060211928158328,False
0.31,0.8137533448153811,2.4000000000000004,5881.0,84.54263999999999,0.3,68900.0,0.33,276.0,2700.0,31.377850007788698,4.801172626711854,12963.166092122006,20.592492927228793,7.250012982609049,10.785357080559905,2.448840355897195,3089,90,1024,1547,238.77722773267092,137.59768973126967,0.0027594340791013377,False
0.32,0.9976781167543403,2.4000000000000004,5882.0,84.54263999999999,0.3,68900.0,0.33,276.0,2700.0,43.5429358017227,6.89824058956041,18625.249591813106,27.55271463343382,11.664530096451742,15.99022116828888,4.766289506891332,4074,108,1344,2052,278.10443945493864,160.31333562490502,0.003523742146446961,True
0.33,0.8010963095885703,2.4000000000000004,5883.0,84.54263999999999,0.3,68900.0,0.33,276.0,2700.0,30.037624050128393,4.88094169147648,13178.542566986494,20.14478265770363,6.99221066327697,9.892841392424764,2.1112689718004907,2893,86,958,1450,223.12433801297044,128.6967474279599,0.0025648054936516186,False
0.34,1.0028073417786127,2.4000000000000004,5884.0,84.54263999999999,0.3,68900.0,0.33,276.0,2700.0,43.274480709292554,7.27434361547527,19640.72776178323,27.75900430040632,11.806382940270083,15.515476408886233,4.532039324794813,3933,106,1296,1983,263.44369225632664,151.87792789711222,0.0033617185026203317,False
0.3500000000000001,0.7730005600396177,2.4000000000000004,5885.0,84.54263999999999,0.3,68900.0,0.33,276.0,2700.0,27.79254782471284,4.773898679309636,12889.526434136018,19.165355574140108,6.44003321346865,8.627192250572733,1.6661345341590144,2804,84,928,1406,204.4740559036532,117.93216680493018,0.0023278189085927624,False
0.36000000000000004,0.6882430031196359,2.4000000000000004,5886.0,84.54263999999999,0.2,68900.0,0.33,276.0,2700.0,22.634610938690745,3.9765138710670773,10736.587451881109,16.330878700215205,4.937021410796762,6.30373223847554,0.9605075397296843,5614,108,1558,3037,195.4801320552523,112.76146946239119,0.002013986560098403,False
0.37,0.8489942569135105,2.4000000000000004,5887.0,84.54263999999999,0.3,68900.0,0.33,276.0,2700.0,31.96649646692896,5.807714451260332,15680.829018402896,21.860261739579254,7.997958216117796,10.106234727349705,2.190243764857464,3143,90,1042,1574,210.97756769562363,121.53013154502867,0.002498354673546305,False
0.38,0.9011913660608153,2.4000000000000004,5888.0,84.54263999999999,0.3,68900.0,0.33,276.0,2700.0,35.06828682353332,6.54805084841281,17679.737290714587,23.79537173962853,9.189206407821226,11.272915083904792,2.641155559408416,3064,92,1014,1537,214.3305233867568,123.36652454731427,0.00264125960760865,False
0.39,0.7739121397411339,2.4000000000000004,5889.0,84.54263999999999,0.1,68900.0,0.33,276.0,2700.0,26.838219724348946,5.1092154231685365,13794.881642555049,19.196822141378107,6.457518303138396,7.641397582970839,1.348302879969859,42510,236,7408,26478,199.37962247786754,115.07447973636016,0.0021820519304156104,False
0.4,1.0279689326320476,2.4000000000000004,5890.0,84.54263999999999,0.3,68900.0,0.33,276.0,2700.0,43.20557663282156,8.507074040011146,22969.099908030094,28.780543049708857,12.517662055401376,14.425033583112704,4.01058801539023,4187,108,1386,2102,232.9313119945081,134.14513405521924,0.003013317326201627,False
0.4100000000000001,0.9195724340933484,2.4000000000000004,5891.0,84.54263999999999,0.3,68900.0,0.33,276.0,2700.0,35.4403239279577,7.120918600379289,19226.48022102408,24.493117770536127,9.632990406447187,10.947206157421572,2.5120718060678975,3213,94,1070,1602,205.64906348567874,118.02538259445798,0.0025452372691010558,False
0.42000000000000004,1.0966190291908144,2.4000000000000004,5892.0,84.54263999999999,0.3,68900.0,0.33,276.0,2700.0,47.6048334071176,9.841845471148586,26572.982772101182,31.648607090490458,14.591217937912887,15.956226316627145,4.749372466764301,4372,112,1448,2194,237.43249979302385,136.52070733022393,0.003151720872199857,False
0.43,0.9252612027752856,2.4000000000000004,5893.0,84.54263999999999,0.3,68900.0,0.33,276.0,2700.0,35.26147268170105,7.414697555159751,20019.683398931327,24.710784327397334,9.772944829510038,10.550688354303716,2.358247274350287,3220,94,1074,1603,196.58537263635236,113.0858848131311,0.0024620320051900214,False
0.44,0.8499738195476872,2.4000000000000004,5894.0,84.54263999999999,0.3,68900.0,0.33,276.0,2700.0,30.190343408413984,6.46346659744882,17451.359813111812,21.89594672366087,8.019389187561123,8.294396684753114,1.5559225901123028,3042,86,970,1549,180.04928639137174,103.59097008555509,0.002174063780243082,False
0.45,0.9250679572306874,2.4000000000000004,5895.0,84.54263999999999,0.3,68900.0,0.33,276.0,2700.0,34.70333164884998,7.617397867285666,20566.974241671298,24.703376922911144,9.768170296274311,9.999954725938839,2.1507724289886454,3146,92,1046,1567,191.78093714412083,110.06404932080137,0.002368908272912037,False
0.46,0.8224611784599618,2.4000000000000004,5896.0,84.54263999999999,0.1,68900.0,0.33,276.0,2700.0,28.01957992571813,6.24064334122863,16849.7370213173,20.90284815427022,7.430678863296172,7.11673177144791,1.190035522067542,48317,236,7414,30968,187.30298275093162,108.04587171443494,0.0020588504008463683,False
0.4700000000000001,1.0515768432867387,2.4000000000000004,5897.0,84.54263999999999,0.3,68900.0,0.33,276.0,2700.0,42.773788105432416,9.83439382206085,26552.863319564294,29.75347197245248,13.208567396895273,13.020316132979936,3.3741735748344226,4360,108,1360,2254,205.78564125278675,117.76838276633163,0.0027064446808600135,False
0.4800000000000001,0.9158277065685052,2.4000000000000004,5898.0,84.54263999999999,0.3,68900.0,0.33,276.0,2700.0,33.30933519501454,7.762617103639626,20959.06617982699,24.350279021894977,9.541537910240864,8.959056173119563,1.7789208066012376,3411,92,1046,1772,186.59299518704438,106.97056821675055,0.0022348355187294293,False
0.49,0.8033232191302386,2.4000000000000004,5899.0,84.54263999999999,0.2,68900.0,0.33,276.0,2700.0,26.181723539048257,6.168118777665363,16653.92069969648,20.223262012300115,7.037158632074536,5.958461526748142,0.8690398544091726,7283,116,1820,4089,172.4578202353871,99.54191547640687,0.0019037047114184179,False
0.5,1.0757853937413464,2.4000000000000004,5900.0,84.54263999999999,0.3,68900.0,0.33,276.0,2700.0,43.614454073328396,10.641814130532953,28732.898152438975,30.765700873811085,13.941078407291663,12.848753199517311,3.2992642767587093,4824,108,1396,2570,216.12079783304844,124.39699882123811,0.0026631563766909764,False
0.01,0.3807652092554738,2.4000000000000004,5901.0,87.56201999999999,0.05,68900.0,0.33,276.0,2700.0,14.8821703451957,0.07440875733087624,200.90364479336583,7.563703445118872,1.3243782472587924,7.318466900076828,1.2499694899279161,47722,334,15804,24010,3465.6326279157997,1973.1214461691354,0.026821166268038973,True
0.02,0.7038006461813351,2.4000000000000004,5902.0,87.56201999999999,0.1,68900.0,0.33,276.0,2700.0,33.024927445716365,0.33023251929634334,891.627802100127,16.837631291278424,5.195025443860995,16.18729615443794,4.864792924564652,26952,270,8924,13560,6886.974375231914,3833.0339912499944,0.12351729920047637,True
0.03,0.6498959097483654,2.4000000000000004,5903.0,87.56201999999999,0.1,68900.0,0.33,276.0,2700.0,29.28449183612191,0.43921082887387614,1185.8692379594656,15.107790708222385,4.334348716810196,14.176701127899523,3.89513788793632,23862,250,7858,12069,2054.999875817668,1170.659055512138,0.01887995916034484,True
0.04,0.6514982060364992,2.4000000000000004,5904.0,87.56201999999999,0.1,68900.0,0.33,276.0,2700.0,29.078275773139552,0.5814314741762373,1569.8649802758407,15.1581564012887,4.358596215549747,13.920119371850852,3.77716474137351,24123,250,7930,12222,1654.231536179824,943.1171325186526,0.014209129651551498,True
0.05,0.6969784609931455,2.4000000000000004,5905.0,87.56201999999999,0.1,68900.0,0.33,276.0,2700.0,31.630917162373855,0.7905111296714299,2134.3800501128608,16.614666218902922,5.08091722458012,15.016250943470933,4.290406094908691,25732,262,8438,13069,1421.007256771995,809.3756611817955,0.012679295743526137,True
0.06000000000000001,0.6386528940188887,2.4000000000000004,5906.0,87.56201999999999,0.1,68900.0,0.33,276.0,2700.0,27.68979201818682,0.8302413712034858,2241.6517022494118,14.756198821714959,4.166471041303258,12.933593196471863,3.3362296700997724,23509,246,7716,11929,1040.755925996727,594.6241671932922,0.009376212934841855,True
0.06999999999999999,0.5219637261573757,2.4000000000000004,5907.0,87.56201999999999,0.2,68900.0,0.33,276.0,2700.0,20.67708676838016,0.7229796593731923,1952.0450803076192,11.294686616098181,2.649870715957541,9.38240015228198,1.926891056584349,4548,106,1490,2307,650.8883305249243,373.3491962114378,0.0062834300389911675,True
0.08,0.41276788578376267,2.4000000000000004,5908.0,87.56201999999999,0.1,68900.0,0.33,276.0,2700.0,14.774969553356827,0.5899264518417991,1592.8014199728577,8.365417718638797,1.5791968568898513,6.40955183471803,0.9892704050480522,12151,168,3986,6166,442.3961943623678,255.15882825957854,0.004152813080587912,True
0.09,0.6015656302943189,2.4000000000000004,5909.0,87.56201999999999,0.2,68900.0,0.33,276.0,2700.0,24.62176890383954,1.1064527866431346,2987.4225239364637,13.618929363429519,3.640399949974311,11.002839540410022,2.5339471633311765,5226,116,1708,2658,584.4153977214975,337.1035585899123,0.005979933878380678,True
0.09999999999999999,0.46222920552708036,2.4000000000000004,5910.0,87.56201999999999,0.1,68900.0,0.33,276.0,2700.0,16.766251843948055,0.8362181970950088,2257.789132156524,9.65513065630719,2.0246034807989335,7.111121187640865,1.1883852837039246,14046,182,4630,7095,399.46976256882357,230.46239523923583,0.003881931202812309,True
0.11,0.6116538918368188,2.4000000000000004,5911.0,87.56201999999999,0.1,68900.0,0.33,276.0,2700.0,24.652032954701454,1.3530741726272928,3653.3002660936904,13.924860039860587,3.7793322753179037,10.727172914840867,2.426258102690611,20261,226,6678,10238,486.81386520095634,280.39727008105586,0.005067931029416679,True
0.12,0.5208409869325765,2.4000000000000004,5912.0,87.56201999999999,0.1,68900.0,0.33,276.0,2700.0,19.326665816771403,1.1559808342693498,3121.1482525272445,11.263043428949382,2.6372074947496253,8.06362238782202,1.4812266604802755,16142,198,5330,8141,378.4838066507907,218.17734271824762,0.003806440735993164,True
0.13,0.7082704482371496,2.4000000000000004,5913.0,87.56201999999999,0.3,68900.0,0.33,276.0,2700.0,29.906615134730274,1.9393285977175119,5236.187213837282,16.98434920680084,5.270614035806754,12.922265927929434,3.3312854380892425,2979,88,976,1509,493.5424195350754,284.94475774200674,0.005269163739899569,True
0.14,0.6802468903655222,2.4000000000000004,5914.0,87.56201999999999,0.2,68900.0,0.33,276.0,2700.0,27.887227731249038,1.9463589210264636,5255.1690867714515,16.072791399913758,4.807470781680792,11.81443633133528,2.861111860654328,5859,124,1920,2973,423.40098922032223,244.440297637173,0.0046588796686338465,True
0.15000000000000002,0.5635183708345928,2.4000000000000004,5915.0,87.56201999999999,0.2,68900.0,0.33,276.0,2700.0,20.872672315680653,1.558381840205403,4207.630968554588,12.488144948107228,3.1438639879049104,8.384527367573424,1.5854821476995073,4490,104,1476,2270,337.2209022923762,194.4974013406745,0.003426573525396539,True
0.16,0.6607543594859565,2.4000000000000004,5916.0,87.56201999999999,0.3,68900.0,0.33,276.0,2700.0,26.152649417725335,2.0836333110786223,5625.80993991228,15.450372210593994,4.500253173470715,10.702277207131342,2.4166198623920927,2531,80,830,1280,383.6477674430109,221.49089475288326,0.003962139338394931,True
0.17,0.8330284278703413,2.4000000000000004,5917.0,87.56201999999999,0.3,68900.0,0.33,276.0,2700.0,36.80452806297177,3.11809512221454,8418.856829979259,21.28203425144869,7.6535654787523315,15.52249381152308,4.535470356537791,3575,98,1172,1811,437.82921554057606,252.60184095469458,0.005117805403761671,True
0.18000000000000002,0.6331754901751447,2.4000000000000004,5918.0,87.56201999999999,0.3,68900.0,0.33,276.0,2700.0,24.000516296519898,2.147831954449634,5799.1462770140115,14.586060187882612,4.086111684339445,9.414456108637285,1.9382797298898113,2547,78,828,1299,331.13283243382017,191.09977625543206,0.0033643401672908716,True
0.19,0.7732146758490879,2.4000000000000004,5919.0,87.56201999999999,0.3,68900.0,0.33,276.0,2700.0,32.24173205390856,3.0485990891139982,8231.217540607795,19.172744701826474,6.444137610135159,13.068987352082083,3.3955385210211606,3370,94,1102,1711,366.17195940372693,211.31621323686034,0.004161067603401853,True
0.2,0.6899387093169655,2.4000000000000004,5920.0,87.56201999999999,0.3,68900.0,0.33,276.0,2700.0,26.79034935950305,2.66227977513116,7188.155392854132,16.385816845681365,4.964760352281432,10.404532513821685,2.3024805771502717,2677,82,884,1345,320.62010284195134,185.0850307664026,0.0034181214957767054,True
0.21000000000000002,0.7501901049243713,2.4000000000000004,5921.0,87.56201999999999,0.3,68900.0,0.33,276.0,2700.0,30.1975766271441,3.151349352806867,8508.64325257854,18.384767585772664,6.011790371685742,11.812809041371438,2.860441018878875,2932,86,964,1480,324.9979624257923,187.53168294459613,0.0036435756036911986,True
0.22,0.8536795563985478,2.4000000000000004,5922.0,87.56201999999999,0.3,68900.0,0.33,276.0,2700.0,36.63284902038641,4.007312273192224,10819.743137619005,22.031163074574426,8.100780235745056,14.601685945811983,4.093467962552832,3599,98,1178,1826,349.6371091404222,201.86197287668776,0.0041614042019049976,True
0.23,0.8587839376998039,2.4000000000000004,5923.0,87.56201999999999,0.3,68900.0,0.33,276.0,2700.0,36.668173614377345,4.191357460442576,11316.665143194954,22.217978814143166,8.213712203431522,14.45019480023418,4.022354742988946,3577,98,1170,1816,338.6208935319571,195.49918728211534,0.004026721787214964,True
0.24000000000000005,0.9069389720489885,2.4000000000000004,5924.0,87.56201999999999,0.3,68900.0,0.33,276.0,2700.0,39.659458425422685,4.730182093154594,12771.491651517405,24.012638606854676,9.326596813429575,15.646819818568009,4.59641472027498,3552,100,1162,1803,340.3082782760206,196.45222192965755,0.0041711648118315835,True
0.25,0.8312275756777652,2.4000000000000004,5925.0,87.56201999999999,0.3,68900.0,0.33,276.0,2700.0,34.22716135620577,4.245670246050826,11463.309664337232,21.217215633768554,7.615298057314883,13.009945722437216,3.3696278112640563,3492,96,1146,1767,304.2694813761125,175.667865069222,0.0035684016077879004,True
0.26,0.8602315503168219,2.4000000000000004,5926.0,87.56201999999999,0.3,68900.0,0.33,276.0,2700.0,35.849743645971074,4.623655585656508,12483.870081272571,22.271079315676236,8.245913658012718,13.578664330294838,3.6222580723562103,3489,98,1148,1761,303.29223941386493,175.0797107316887,0.00360491620143933,True
0.27,0.6437609718289858,2.4000000000000004,5927.0,87.56201999999999,0.1,68900.0,0.33,276.0,2700.0,22.307215230850225,2.970250077364376,8019.675208883815,14.915544965004937,4.242253550169355,7.391670265845288,1.2720034728049794,26088,212,6086,15071,233.80869630362477,134.94689958363725,0.0024377602841925724,False
0.28,0.731713637786551,2.4000000000000004,5928.0,87.56201999999999,0.3,68900.0,0.33,276.0,2700.0,27.13786637121272,3.753325130682042,10133.977852841514,17.762077452417717,5.67787058482693,9.375788918795003,1.9245454541448885,2742,82,904,1380,245.16465798456454,141.41076508916666,0.0027283502483542686,False
0.29000000000000004,0.9177654053224777,2.4000000000000004,5929.0,87.56201999999999,0.3,68900.0,0.33,276.0,2700.0,38.84289932880856,5.581140200524971,15069.078541417422,24.42414653086172,9.588792966812887,14.418752797946844,4.007652766287916,3748,102,1232,1894,289.833696674809,167.24811695563457,0.0035699105440835433,True
0.3,0.7045678669860076,2.4000000000000004,5930.0,87.56201999999999,0.3,68900.0,0.33,276.0,2700.0,25.02032145873865,3.696499551046184,9980.548787824697,16.86277904416222,5.207953270882828,8.15754241457643,1.511453719836644,2442,78,806,1227,219.40825763665313,126.51132613743897,0.0024587598424956024,False
0.31,0.797512056633949,2.4000000000000004,5931.0,87.56201999999999,0.3,68900.0,0.33,276.0,2700.0,30.356863253271676,4.6429196797617145,12535.88313535663,20.018730395542107,6.920232664551851,10.338132857729569,2.2773129847901368,3008,88,992,1514,237.66677497930561,137.0747012596965,0.002781305918958172,False
0.32,0.9877419528602975,2.4000000000000004,5932.0,87.56201999999999,0.3,68900.0,0.33,276.0,2700.0,42.827374402651806,6.78375076570907,18316.127067414487,27.154978248145557,11.392739849624764,15.672396154506249,4.608989083915694,4051,106,1336,2041,282.4997269597142,162.8764782883608,0.003603895687131391,True
0.33,0.9710937953530447,2.4000000000000004,5933.0,87.56201999999999,0.3,68900.0,0.33,276.0,2700.0,41.326388722489256,6.743587862416021,18207.687228523257,26.494127959060524,10.946170128499226,14.832260763428732,4.202582266083205,3979,106,1314,2002,272.3974403960966,157.11213778072892,0.00342252434960164,False
0.34,0.8198647850408056,2.4000000000000004,5934.0,87.56201999999999,0.3,68900.0,0.33,276.0,2700.0,30.939962202098613,5.177475469252301,13979.183766981214,20.810110897313407,7.376527273766753,10.129851304785205,2.1990518045144514,3139,90,1042,1570,227.14190751891132,131.0417625971113,0.0026612501109787717,False
0.3500000000000001,0.7690864345296538,2.4000000000000004,5935.0,87.56201999999999,0.2,68900.0,0.33,276.0,2700.0,27.557231759861732,4.732718367960692,12778.339593493869,19.030482318588295,6.365281687325717,8.526749441273438,1.6325633193650244,6957,124,1984,3733,227.37497273031767,131.16912503345532,0.0024323821445236047,False
0.36000000000000004,0.8673521387025624,2.4000000000000004,5936.0,87.56201999999999,0.3,68900.0,0.33,276.0,2700.0,33.41839098907066,5.917594280135459,15977.504556365739,22.53303936554008,8.405428745422325,10.885351623530578,2.4878344652868662,3082,92,1022,1543,229.824860923632,132.64299841114843,0.002727346883488054,False
0.37,0.7492449464337765,2.4000000000000004,5937.0,87.56201999999999,0.08,68900.0,0.33,276.0,2700.0,25.87896487015322,4.681521105856761,12640.106985813254,18.35270582370574,5.9944290059961745,7.526259046447478,1.3129079001394137,70403,284,10556,45341,247.87489872205697,138.62566168587722,0.002269054747700201,False
0.38,0.8344597000481093,2.4000000000000004,5938.0,87.56201999999999,0.3,68900.0,0.33,276.0,2700.0,30.782077420910465,5.733671061914468,15480.911867169065,21.333608596521973,7.684062764584525,9.448468824388492,1.950391702670057,3040,88,1008,1522,208.86009932285367,120.25421054831808,0.0024871221838769983,False
0.39,1.0290802495459643,2.4000000000000004,5939.0,87.56201999999999,0.3,68900.0,0.33,276.0,2700.0,43.59553347045612,8.376891603660079,22617.607329882212,28.8260284587737,12.549671631161873,14.76950501168242,4.172780027501794,4174,108,1380,2098,244.8557643314978,140.95924360910357,0.003196634427982343,False
0.4,0.9307575479193919,2.4000000000000004,5940.0,87.56201999999999,0.3,68900.0,0.33,276.0,2700.0,36.46548760993696,7.159056235434226,19329.45183567241,24.921860822972842,9.909343555829949,11.543626786964115,2.7502873203957225,3381,96,1122,1692,221.53439691191684,127.53087771830037,0.0027333885504875156,False
0.4100000000000001,0.9670240800259047,2.4000000000000004,5941.0,87.56201999999999,0.3,68900.0,0.33,276.0,2700.0,38.63240599904905,7.775295424953017,20993.297647373143,26.333639743392247,10.838673281713286,12.298766255656801,3.063377856760269,3536,100,1180,1760,222.90522369112202,128.0695145887016,0.002817056938543249,False
0.42000000000000004,0.9950772103880854,2.4000000000000004,5942.0,87.56201999999999,0.3,68900.0,0.33,276.0,2700.0,40.276194948244544,8.302831394785157,22417.644765919922,27.44836276732283,11.593003807120477,12.827832180921714,3.2901724123353198,3804,104,1262,1903,223.90659571769552,128.91185181326594,0.0028631116432437037,False
0.43,0.9242153219912823,2.4000000000000004,5943.0,87.56201999999999,0.3,68900.0,0.33,276.0,2700.0,35.19261751180993,7.3998936936331585,19979.712972809528,24.67070528446518,9.747121256370889,10.52191222734475,2.3472275627377304,3232,94,1078,1609,205.23809169523258,118.17137979426896,0.0025462804150016547,False
0.44,0.8954628906131301,2.4000000000000004,5944.0,87.56201999999999,0.3,68900.0,0.33,276.0,2700.0,33.05472163869548,7.093629808110361,19152.800481897975,23.579654150202284,9.053513465209198,9.475067488493199,1.9598836570988372,3096,90,1022,1551,197.71264037248076,113.50021096901341,0.002400915758459845,False
0.45,0.7883953344320505,2.4000000000000004,5945.0,87.56201999999999,0.05,68900.0,0.33,276.0,2700.0,26.24143954047085,5.71347214290036,15426.374785830973,19.699565394805692,6.739183917017283,6.541874145665158,1.0257117741169228,315759,454,27926,218078,264.39079044967343,150.79336951167784,0.002070260201414449,False
0.46,0.8243226990116758,2.4000000000000004,5946.0,87.56201999999999,0.1,68900.0,0.33,276.0,2700.0,28.131245882278403,6.26632651123749,16919.081580341222,20.969441708843533,7.469651913849715,7.16180417343487,1.2033254026122249,48570,236,7458,31125,193.048426854881,111.36512985133345,0.0021394276858965485,False
0.4700000000000001,0.816623010486075,2.4000000000000004,5947.0,87.56201999999999,0.2,68900.0,0.33,276.0,2700.0,27.43132994065971,6.228916153339261,16818.073614016004,20.694559928154586,7.309252952226666,6.736770012505126,1.080336798887405,7394,118,1840,4156,185.0426119030514,106.74561823460698,0.002068343247117407,False
0.4800000000000001,1.176235984841318,2.4000000000000004,5948.0,87.56201999999999,0.3,68900.0,0.33,276.0,2700.0,51.713656167959904,12.179654137146501,32885.066170295555,35.12318523756286,17.24824435135801,16.590470930397046,5.068590214211509,5078,118,1634,2579,233.80280858871026,134.1030142758748,0.003193860889446189,False
0.49,0.8549158981489795,2.4000000000000004,5949.0,87.56201999999999,0.2,68900.0,0.33,276.0,2700.0,29.252537382307043,6.920468169263768,18685.264057012173,22.076351969442733,8.128046212965454,7.17618541286431,1.2075780437016865,7867,122,1952,4431,185.7111044641272,107.07182225583271,0.0021129358677620226,False
0.5,0.9792619883025067,2.4000000000000004,5950.0,87.56201999999999,0.3,68900.0,0.33,276.0,2700.0,36.93099076910195,8.97094830447634,24221.560422086117,26.817494778845607,11.163898797588685,10.113495990256347,2.1929504931123454,4033,98,1176,2145,205.64986390862978,118.57783280659872,0.0024392333877905677,False
0.01,0.6538902872316432,2.4000000000000004,5951.0,90.5814,0.08,68900.0,0.33,276.0,2700.0,30.153055286477876,0.1507631820372763,407.06059150064596,15.233467825299192,4.394945803283644,14.919587461178685,4.244182621246368,37741,318,12564,18889,5842.783385281017,3369.643171763573,0.05958298411258033,True
0.02,0.6091114359344311,2.4000000000000004,5952.0,90.5814,0.1,68900.0,0.33,276.0,2700.0,27.092296722856513,0.27090621206766263,731.4467725826892,13.847517935665529,3.744027286584942,13.244778787190985,3.4731210745172794,22698,242,7506,11433,2769.555733208653,1575.0068597827094,0.026409986262207714,True
0.03,0.5907476027653592,2.4000000000000004,5953.0,90.5814,0.1,68900.0,0.33,276.0,2700.0,25.700927801357487,0.38545736835260513,1040.734894552034,13.29371030443757,3.494831763140902,12.407217496919918,3.109374394788297,21515,234,7072,10901,1959.4946428717453,1116.5094023462302,0.016763802577878923,True
0.04,0.6394234220459867,2.4000000000000004,5954.0,90.5814,0.1,68900.0,0.33,276.0,2700.0,28.334488651941474,0.5665557317515652,1529.700475729226,14.780193392260369,4.177850349355369,13.554295259681105,3.6112946176038037,23833,248,7828,12085,1678.019069488919,955.3012988535825,0.014256577643712392,True
0.05,0.42911575242208205,2.4000000000000004,5955.0,90.5814,0.1,68900.0,0.33,276.0,2700.0,16.30796836482817,0.4074374097329046,1100.0810062788423,8.784888716646682,1.7193731676571222,7.523079648181488,1.3119357579242177,13259,176,4350,6728,822.4939758312914,470.0986027115539,0.006950730223173178,True
0.06000000000000001,0.6699946408528609,2.4000000000000004,5956.0,90.5814,0.2,68900.0,0.33,276.0,2700.0,29.61860150742192,0.8881056558805409,2397.8852708774602,15.744234686717538,4.644374993505034,13.874366820704383,3.756269337624493,6504,130,2134,3297,999.020976899304,570.7949233027948,0.010330448597236875,True
0.06999999999999999,0.6709378442758338,2.4000000000000004,5957.0,90.5814,0.2,68900.0,0.33,276.0,2700.0,29.374327487606973,1.027383084546129,2773.934328274548,15.77435145432725,4.659239210915376,13.599976033279722,3.6318561263692475,6204,128,2040,3138,900.0438936649479,515.0513571140864,0.00898562865288937,True
0.08,0.4470169325587078,2.4000000000000004,5958.0,90.5814,0.1,68900.0,0.33,276.0,2700.0,16.47911374216912,0.6580922193943388,1776.8489923647148,9.251920710241988,1.8808012405355694,7.227193031927131,1.2227090211412306,14206,182,4666,7201,496.51014708792206,285.8870926649836,0.004732698001745135,True
0.09,0.7707509891640378,2.4000000000000004,5959.0,90.5814,0.3,68900.0,0.33,276.0,2700.0,35.17680715606248,1.581429507993165,4269.859671581546,19.087792622528212,6.397006653270241,16.089014533534268,4.815577145277076,3607,98,1184,1825,773.9747811668883,443.59736075256285,0.008589329281499873,True
0.09999999999999999,0.6410949368162933,2.4000000000000004,5960.0,90.5814,0.1,68900.0,0.33,276.0,2700.0,26.671044653553082,1.3314578375752593,3594.9361614532,14.832296368068565,4.202599196584078,11.838748285484517,2.871141359008819,22084,238,7266,11179,596.4154264305795,342.48009358564593,0.006089644957013525,True
0.11,0.6617849039134531,2.4000000000000004,5961.0,90.5814,0.3,68900.0,0.33,276.0,2700.0,27.629799815358282,1.5168513499634435,4095.4986449012977,15.483039606662139,4.516192298764675,12.146760208696143,2.999340948801232,2607,82,858,1314,578.1093810405998,333.7700260895491,0.005818727249802873,True
0.12,0.6608049881199969,2.4000000000000004,5962.0,90.5814,0.3,68900.0,0.33,276.0,2700.0,27.282410421072154,1.6333255105273912,4409.978878423956,15.45197647249052,4.501035445321688,11.830433948581634,2.8677099347942967,2671,82,880,1345,540.6885887166577,311.7901424797471,0.005489384225266072,True
0.13,0.45718930751453146,2.4000000000000004,5963.0,90.5814,0.2,68900.0,0.33,276.0,2700.0,15.800065263023026,1.022402856056539,2760.4877113526554,9.52090104402967,1.9762811268880769,6.279164218993355,0.9538782708315379,3379,90,1108,1711,333.125876432504,192.3218224274265,0.0031272662214803927,True
0.14,0.44280013283839403,2.4000000000000004,5964.0,90.5814,0.2,68900.0,0.33,276.0,2700.0,14.859484398395834,1.034416887726741,2792.9255968622006,9.141181579610231,1.8420213832788066,5.718302818785602,0.8076044955520656,3119,86,1018,1586,302.01049987168494,174.11707805410347,0.002814902085690506,True
0.15000000000000002,0.4684464520185247,2.4000000000000004,5965.0,90.5814,0.05,68900.0,0.33,276.0,2700.0,15.897988230574963,1.185280533822545,3200.2574413208713,9.821596560525228,2.085148784445704,6.076391670049736,0.8998682506231592,86475,346,16890,52700,3775.4140413597024,2118.895231896076,0.002850710276882293,True
0.16,0.8500402108453822,2.4000000000000004,5966.0,90.5814,0.3,68900.0,0.33,276.0,2700.0,38.2874738223782,3.05441926345086,8246.932011317322,21.898366198558364,8.020842968193795,16.38910762381984,4.966423704742935,3715,100,1222,1876,488.9490839423703,282.12978883529604,0.005756671257195097,True
0.17,0.49204240203646776,2.4000000000000004,5967.0,90.5814,0.08,68900.0,0.33,276.0,2700.0,16.621774646798446,1.4025610818398104,3786.9149209674883,10.46221489162123,2.324429169949839,6.1595597551772165,0.9218680881100285,28830,224,7114,16311,282.4537143416148,163.04526686766363,0.002709486563114622,True
0.18000000000000002,0.7006385870431889,2.4000000000000004,5968.0,90.5814,0.3,68900.0,0.33,276.0,2700.0,27.991484695385363,2.507019110347527,6768.951597938322,16.734142317361872,5.141947543316369,11.257342378023491,2.634928432968842,2609,82,860,1313,375.07494119444647,216.53195417738976,0.003974591335198106,True
0.19,0.6698473548141215,2.4000000000000004,5969.0,90.5814,0.3,68900.0,0.33,276.0,2700.0,25.868912070658848,2.4431811907052756,6596.589214904244,15.73953381774924,4.6420564337379195,10.129378252909607,2.198875243032644,2739,82,902,1380,341.92389095501443,197.39926947097084,0.0035681076254966237,True
0.2,0.8305260008892199,2.4000000000000004,5970.0,90.5814,0.3,68900.0,0.33,276.0,2700.0,35.69601826874295,3.552846666055153,9592.685998348914,21.191985702214502,7.600421444808286,14.504032566528444,4.047574778753133,3628,98,1188,1840,385.5419898447458,222.5915136774136,0.004529940928983019,True
0.21000000000000002,0.7159823018739215,2.4000000000000004,5971.0,90.5814,0.3,68900.0,0.33,276.0,2700.0,28.085917125593216,2.9296251051439834,7909.987783888755,17.238665569479842,5.402574515705549,10.847251556113374,2.4729494105615655,2609,82,856,1319,326.3467055114143,188.38894640623465,0.003549976898255879,True
0.22,0.6731639693471504,2.4000000000000004,5972.0,90.5814,0.3,68900.0,0.33,276.0,2700.0,25.259672117306106,2.7562628138531986,7441.909597403636,15.845520953951649,4.694434083170334,9.414151163354457,1.9381712693171353,2645,80,872,1331,294.6482480281625,169.91106072482884,0.00313846103110297,True
0.23,0.7975980497483224,2.4000000000000004,5973.0,90.5814,0.3,68900.0,0.33,276.0,2700.0,32.629404578872,3.7268990213594595,10062.62735767054,20.02175085118609,6.9219542673922305,12.607653727685907,3.195055246032771,3069,90,1014,1542,327.0453778065216,188.64300968947828,0.0037650905305621437,True
0.24000000000000005,0.5691857386670216,2.4000000000000004,5974.0,90.5814,0.3,68900.0,0.33,276.0,2700.0,18.980012798879144,2.248648617970015,6071.35126851904,12.654276039933169,3.2151092806291333,6.325736758945975,0.9664606626591183,1741,64,568,883,230.39675330709161,133.01097310252413,0.0023733108008180733,False
0.25,0.8446242499567218,2.4000000000000004,5975.0,90.5814,0.3,68900.0,0.33,276.0,2700.0,35.11127292520723,4.35618419217601,11761.697318875227,21.701358311766594,7.90277609956645,13.409914613440638,3.5465919073904404,3508,96,1152,1774,316.72305877197635,182.69856274202536,0.0037752336661827247,True
0.26,0.7363698127454312,2.4000000000000004,5976.0,90.5814,0.3,68900.0,0.33,276.0,2700.0,27.953341655527502,3.5971233268989145,9712.232982627069,17.918190270646633,5.760937157955866,10.03515138488087,2.163813831056952,2732,82,898,1379,271.04688764331684,156.36304389456802,0.0030353173002130567,False
0.27,0.7283823883880904,2.4000000000000004,5977.0,90.5814,0.3,68900.0,0.33,276.0,2700.0,27.20334044013699,3.6312269806180804,9804.312847668816,17.650721271894632,5.618886230027646,9.552619168242359,1.9876592494095653,2748,82,904,1386,259.24673942130886,148.9701773732941,0.002896331901562722,False
0.28,0.68211967370447,2.4000000000000004,5978.0,90.5814,0.3,68900.0,0.33,276.0,2700.0,24.228901228815104,3.346070010746378,9034.389029015221,16.133094364009526,4.837628091061236,8.095806864805578,1.4915580803148583,2505,78,828,1257,233.04680841593031,134.4875117996802,0.002592435750327672,False
0.29000000000000004,0.7442612758037673,2.4000000000000004,5979.0,90.5814,0.3,68900.0,0.33,276.0,2700.0,27.627231332872302,3.954868341114215,10678.14452100838,18.18402054644396,5.903385760175068,9.443210786428342,1.948517419060853,2752,82,908,1384,249.45625707049925,143.97435639813,0.0027967407284207554,False
0.3,0.9503123634659318,2.4000000000000004,5980.0,90.5814,0.3,68900.0,0.33,276.0,2700.0,40.799856636264586,6.063429827675072,16371.260534722695,25.678981558686928,10.40407296445575,15.120875077577658,4.340643136780678,3662,102,1208,1844,300.7724571725616,173.52834838479785,0.0037560543005760666,True
0.31,0.9270095213308933,2.4000000000000004,5981.0,90.5814,0.3,68900.0,0.33,276.0,2700.0,38.866153864407046,5.961859724487633,16097.02125611661,24.77784277296027,9.816205760843328,14.088311091446776,3.854346036355695,3608,100,1188,1820,281.7078114797498,162.52706107801873,0.0035195470501913546,True
0.32,0.9714939525369152,2.4000000000000004,5982.0,90.5814,0.3,68900.0,0.33,276.0,2700.0,41.66795314905261,6.598243365133124,17815.257085859434,26.50993053532806,10.956775105755616,15.158022613724548,4.358531740622492,3962,106,1308,1994,288.35539845506923,166.34677182593467,0.003639852075560226,True
0.33,0.7593626411783262,2.4000000000000004,5983.0,90.5814,0.3,68900.0,0.33,276.0,2700.0,27.48836064767286,4.460313230071319,12042.84572119256,18.6970855108437,6.181856076313585,8.79127513682916,1.721542846242266,2625,80,868,1317,228.4945720605369,131.81533456016598,0.0025734945126945756,False
0.34,0.878695298794135,2.4000000000000004,5984.0,90.5814,0.3,68900.0,0.33,276.0,2700.0,34.7229777032648,5.82058810445021,15715.587882015567,22.952975901244056,8.663403265217047,11.770001802020747,2.842815160766837,3255,94,1076,1635,251.1513686889236,144.78926789436588,0.0030166974324570602,False
0.3500000000000001,0.7424194570167272,2.4000000000000004,5985.0,90.5814,0.3,68900.0,0.33,276.0,2700.0,25.974516871260377,4.45574326245546,12030.506808629741,18.12183738138034,5.869951367655304,7.852679489880035,1.4142081051998439,2613,80,864,1311,213.14695720761182,122.92209303400804,0.0023741982607872686,False
0.36000000000000004,0.7479859046730103,2.4000000000000004,5986.0,90.5814,0.3,68900.0,0.33,276.0,2700.0,26.05237521064759,4.591711440019306,12397.620888052128,18.310031355492498,5.971349051589848,7.742343855155092,1.3796376115705415,2615,80,862,1314,209.81971260606448,121.0034377468502,0.002343976898633295,False
0.37,0.9399330682357061,2.4000000000000004,5987.0,90.5814,0.3,68900.0,0.33,276.0,2700.0,37.952163848953596,6.9150629169348985,18670.669875724227,25.275920628924055,10.139637319706408,12.67624322002954,3.224574402771509,3378,96,1120,1692,245.4514636801708,141.45013765528122,0.0030679680462587936,False
0.38,0.8894406002511437,2.4000000000000004,5988.0,90.5814,0.3,68900.0,0.33,276.0,2700.0,34.29729160955088,6.401561757756146,17284.216745941594,23.353761630933903,8.912190593902091,10.94352997861698,2.510628836145945,3146,92,1044,1574,228.64946607778572,131.82577344568182,0.0027828646634633527,False
0.39,0.7932585103192273,2.4000000000000004,5989.0,90.5814,0.3,68900.0,0.33,276.0,2700.0,27.994065051672898,5.334605261997352,14403.43420739285,19.86955913350417,6.835399482268797,8.12450591816873,1.5007942202714455,2768,84,920,1380,205.42064105813463,118.35657012596229,0.0023684650027276403,False
0.4,0.9731870507800665,2.4000000000000004,5990.0,90.5814,0.3,68900.0,0.33,276.0,2700.0,39.348892243354626,7.735737162117763,20886.49033771796,26.576837082853782,11.001715652084949,12.772055160500845,3.2659784899671855,3567,100,1194,1770,238.0405503742309,137.00575849874537,0.0030008823928533174,False
0.4100000000000001,0.7257354820318631,2.4000000000000004,5991.0,90.5814,0.2,68900.0,0.33,276.0,2700.0,23.576346482523093,4.688803224065193,12659.76870497602,17.562439986690244,5.5722832986881015,6.013906495832849,0.8834800746229083,6333,108,1582,3560,194.8815514460071,112.5073089497088,0.0020736638633243386,False
0.42000000000000004,1.1028254730094782,2.4000000000000004,5992.0,90.5814,0.3,68900.0,0.33,276.0,2700.0,48.06958189822933,9.93944265428205,26836.495166561537,31.91373817479978,14.788465499637692,16.15584372342955,4.849022845355641,4509,114,1496,2259,252.561919263712,145.03483979576492,0.00340062581401615,False
0.43,1.0712161219882883,2.4000000000000004,5993.0,90.5814,0.3,68900.0,0.33,276.0,2700.0,45.40959542539431,9.596543945053725,25910.668651645057,30.57351885060635,13.800940825073285,14.836076574787956,4.20439688001956,4214,110,1400,2108,241.60009947031017,138.8367850355371,0.0032031814958021886,False
0.44,0.9104516203180298,2.4000000000000004,5994.0,90.5814,0.3,68900.0,0.33,276.0,2700.0,34.021321815932005,7.306281847102776,19726.960987177496,24.145829969125334,9.411178603296559,9.875491846806671,2.1048967561937832,3168,92,1056,1574,203.62890123777677,117.14086927447339,0.0025351027396238127,False
0.45,0.8330723258530632,2.4000000000000004,5995.0,90.5814,0.2,68900.0,0.33,276.0,2700.0,28.904254486849037,6.312605505835454,17044.034865755726,21.283615302453732,7.654499751826485,7.620639184395305,1.341894245991031,7945,124,1994,4456,201.54688704448148,116.09565472537686,0.002270184163780395,False
0.46,0.9469334036707928,2.4000000000000004,5996.0,90.5814,0.3,68900.0,0.33,276.0,2700.0,35.86978982813988,8.046191618785693,21724.717370721373,25.547468597550115,10.317526987492517,10.322321230589765,2.271335368706824,3264,94,1070,1643,210.6522621942283,120.61768828046677,0.002565604220345375,False
0.4700000000000001,1.0481613100777725,2.4000000000000004,5997.0,90.5814,0.3,68900.0,0.33,276.0,2700.0,42.53087853698969,9.777310073476809,26398.73719838738,29.61184438584084,13.107185375605502,12.91903415114885,3.329875302128693,4143,106,1304,2129,219.48840162939476,126.15484137856203,0.0028872908807918555,False
0.4800000000000001,0.88102457033322,2.4000000000000004,5998.0,90.5814,0.3,68900.0,0.33,276.0,2700.0,31.107848996083938,7.234260415896283,19532.503122919963,23.039608350361856,8.716967847500806,8.068240645722081,1.4827074316045232,3211,88,978,1676,184.94864943361756,106.6448499412025,0.0022824561475783055,False
0.49,0.9185250493696384,2.4000000000000004,5999.0,90.5814,0.3,68900.0,0.33,276.0,2700.0,33.2227457266894,7.893169213637444,21311.556876821098,24.453130864298682,9.607357632302117,8.769614862390721,1.7141884186646728,3368,90,1018,1757,207.57239621402218,119.2337968528843,0.0023635528256926034,False
0.5,0.8301170342090431,2.4000000000000004,6000.0,90.5814,0.2,68900.0,0.33,276.0,2700.0,27.52478039712529,6.6193957114821735,17872.36842100187,21.177284208657255,7.591757635123065,6.347496188468035,0.9723619236408911,7828,120,1930,4419,186.49611847408693,107.3219044439053,0.0020806608990442226,False
0.01,0.4204668955546969,2.800000000000001,6001.0,3.01938,0.05,68900.0,0.33,276.0,2700.0,18.957410443557325,0.09478495782268347,255.91938612124537,9.618878925954563,1.8665224750277005,9.338531517602762,1.7717375172050172,61235,376,20286,30800,695.841262907274,385.704136512635,0.013516924027306509,True
0.02,0.5981439614721034,2.800000000000001,6002.0,3.01938,0.1,68900.0,0.33,276.0,2700.0,29.390601203051002,0.2938892568696934,793.5009935481722,15.019046490015652,4.0435719271650585,14.37155471303535,3.749682670295365,24445,246,8094,12298,91.55044878416076,52.18758991392079,0.0009290642004206093,False
0.03,0.501532434343151,2.800000000000001,6003.0,3.01938,0.1,68900.0,0.33,276.0,2700.0,23.07397307083793,0.3460530473948051,934.3432279659737,11.984298724896378,2.74104334154801,11.089674345941551,2.3949902941532053,18963,212,6236,9603,54.526086234871094,31.13170649230709,0.0005042830900457869,False
0.04,0.5897617995581381,2.800000000000001,6004.0,3.01938,0.1,68900.0,0.33,276.0,2700.0,28.21640360786991,0.5641940308708451,1523.3238833512817,14.746453698543082,3.9188235396145,13.469949909326829,3.354629508743655,23731,240,7784,12049,50.142768916839636,28.59950310640233,0.00047033343865675314,False
0.05,0.5905210315661455,2.800000000000001,6005.0,3.01938,0.1,68900.0,0.33,276.0,2700.0,27.951842644160443,0.6985342667162187,1886.0425201337903,14.771071637226544,3.930028863713945,13.180771006933899,3.2314945969977265,23221,238,7616,11791,39.69952670517602,22.660673371632043,0.0003824161989606847,False
0.06000000000000001,0.6824536060255048,2.800000000000001,6006.0,3.01938,0.2,68900.0,0.33,276.0,2700.0,33.67864624041652,1.0099069978703776,2726.7488942500195,17.859049115330837,5.428287069353938,15.819597125085682,4.41838007148356,7040,134,2312,3566,33.520842709395986,19.13751472897695,0.00038869517354431156,False
0.06999999999999999,0.5657783592344964,2.800000000000001,6007.0,3.01938,0.2,68900.0,0.33,276.0,2700.0,25.787207098369656,0.9018338709228171,2434.9514514916063,13.976252739623998,3.5744177747458883,11.810954358745658,2.672583903823071,5407,114,1772,2743,25.542330222053803,14.624923072335225,0.00026599106139658875,False
0.08,0.41256609985954895,2.800000000000001,6008.0,3.01938,0.1,68900.0,0.33,276.0,2700.0,16.637825397246743,0.6644406855974441,1793.989851113099,9.397173748162,1.7914025344048143,7.240651649084743,1.1269618488073703,13738,176,4504,6976,15.280143912695047,8.819637837857826,0.0001601061340777105,False
0.09,0.5816095514314811,2.800000000000001,6009.0,3.01938,0.2,68900.0,0.33,276.0,2700.0,26.168918475635866,1.1760745173739715,3175.4011969097232,14.483031691386937,3.799681665583312,11.685886784248929,2.6236071482093406,5687,116,1864,2885,19.8842450271428,11.424538932405397,0.00021820977212406203,False
0.09999999999999999,0.42685585776698887,2.800000000000001,6010.0,3.01938,0.1,68900.0,0.33,276.0,2700.0,16.89218130080947,0.8425146699380811,2274.789608832819,9.799307631099099,1.9285529589022699,7.09287366971037,1.0860382889641889,13986,178,4594,7089,12.83882815405174,7.4024062234998835,0.00013595061656635944,False
0.11,0.5970389939720183,2.800000000000001,6011.0,3.01938,0.2,68900.0,0.33,276.0,2700.0,26.532279602210664,1.4564877382403005,3932.5168932488114,14.983011255836535,4.0269962806182145,11.549268346374129,2.570508542377914,5640,116,1848,2862,16.475393970730618,9.497765606308596,0.00018732467953871666,False
0.12,0.752927764797896,2.800000000000001,6012.0,3.01938,0.3,68900.0,0.33,276.0,2700.0,36.53917948638059,2.188731654445898,5909.575467003925,20.370075326968045,6.77463668735029,16.169104159412544,4.5859050329043916,3615,96,1190,1824,19.18281003203356,11.074895267795624,0.00023305243465210067,False
0.13,0.6867544128448428,2.800000000000001,6013.0,3.01938,0.3,68900.0,0.33,276.0,2700.0,31.698914362881457,2.0558280475473345,5550.735728377803,18.008712437127215,5.505417059480717,13.690201925754241,3.4495890119333823,3082,88,1010,1561,16.23117852303719,9.370033448805113,0.00019178023528293044,False
0.14,0.6668532504466598,2.800000000000001,6014.0,3.01938,0.3,68900.0,0.33,276.0,2700.0,30.077064021897133,2.0996474613717586,5669.048145703749,17.320075411805355,5.153891595304906,12.756988610091778,3.054244133933147,2978,86,974,1511,14.802646700243228,8.544956463860185,0.00017230809948415093,False
0.15000000000000002,0.8281840514545131,2.800000000000001,6015.0,3.01938,0.3,68900.0,0.33,276.0,2700.0,40.900241130735566,3.0604495013345834,8263.213653603376,23.18930796958579,8.412802743486232,17.710933161149775,5.352353242151649,4181,104,1372,2117,33.80597116111886,18.911715404451208,0.0002147954854166935,False
0.16,0.7102355091792356,2.800000000000001,6016.0,3.01938,0.3,68900.0,0.33,276.0,2700.0,32.31885821199984,2.5769300146204257,6957.71103947515,18.83402629203621,5.937943892885701,13.484831919963629,3.3610138782652754,3104,88,1020,1568,13.861278412874563,7.998047671909653,0.00016522499389253598,False
0.17,0.8315630216324449,2.800000000000001,6017.0,3.01938,0.3,68900.0,0.33,276.0,2700.0,40.45792218027224,3.428633622185081,9257.310779899719,23.319229088102414,8.491378142554751,17.138693092169827,5.06274452036967,4019,102,1320,2033,14.897931658824533,8.60086140018554,0.0001922614749590531,False
0.18000000000000002,0.6747792466153681,2.800000000000001,6018.0,3.01938,0.3,68900.0,0.33,276.0,2700.0,29.37408514817458,2.631453151098553,7104.923507966093,17.593144764796346,5.2922515771373275,11.780940383378233,2.6607984260387747,3004,86,984,1522,11.896060758052757,6.838288263110483,0.00013898103476601493,False
0.19,0.8472599601766901,2.800000000000001,6019.0,3.01938,0.3,68900.0,0.33,276.0,2700.0,40.918213667855824,3.8728648424389935,10456.735074585282,23.926537842643125,8.862176992204109,16.9916758252127,4.989312149765116,4042,102,1320,2056,13.699554069761307,7.909002171480296,0.00017772236539982135,False
0.2,0.7446949213078042,2.800000000000001,6020.0,3.01938,0.3,68900.0,0.33,276.0,2700.0,33.38141827298705,3.3213866664795564,8967.743999494802,20.070296085373602,6.608168231804647,13.311122187613446,3.2867815653250902,3349,90,1094,1702,11.626536345825844,6.710630039652411,0.0001430720248561304,False
0.21000000000000002,0.7308608366659506,2.800000000000001,6021.0,3.01938,0.3,68900.0,0.33,276.0,2700.0,32.143065954692595,3.355625732199459,9060.18947693854,19.57039729523412,6.333977423166698,12.572668659458476,2.978351690967239,3091,88,1012,1567,10.947829622697412,6.303088217054214,0.00013359905486216167,False
0.22,0.7568214830129736,2.800000000000001,6022.0,3.01938,0.3,68900.0,0.33,276.0,2700.0,33.57804869017358,3.67128423686876,9912.467439545653,20.512449084609678,6.854229078702819,13.065599605563904,3.1829448418340585,3311,90,1084,1679,10.830117510853569,6.249939516514057,0.0001339430996405349,False
0.23,0.7152837393422633,2.800000000000001,6023.0,3.01938,0.3,68900.0,0.33,276.0,2700.0,30.51021298400954,3.48319198795019,9404.618367465513,19.01327138765661,6.033474558304119,11.496941596352933,2.5502825703539296,3052,86,998,1549,10.028251444857355,5.7820144402516735,0.00011989239218035568,False
0.24000000000000005,0.6178586750400248,2.800000000000001,6024.0,3.01938,0.1,68900.0,0.33,276.0,2700.0,24.108969202791727,2.8641233864395237,7733.1331433867135,15.667141254398627,4.34604057976461,8.4418279483931,1.4819171933250863,26496,214,6522,15005,8.506801557944687,4.910102926088803,9.773412064067902e-05,False
0.25,0.7897870740729933,2.800000000000001,6025.0,3.01938,0.3,68900.0,0.33,276.0,2700.0,34.89099943958744,4.328650006473534,11687.355017478543,21.733104765415746,7.5504788737812,13.157894674171693,3.221828867307666,3531,94,1162,1782,9.97241802686139,5.7575578637396525,0.00012597122552942817,False
0.26,0.7800289611858622,2.800000000000001,6026.0,3.01938,0.3,68900.0,0.33,276.0,2700.0,33.91608629488567,4.372280130015398,11805.156351041576,21.36893385670153,7.340183540570714,12.547152438184142,2.9679034105553157,3302,92,1088,1664,9.518499775173572,5.487004800010808,0.00011971835718269654,False
0.27,0.6667065681748481,2.800000000000001,6027.0,3.01938,0.1,68900.0,0.33,276.0,2700.0,26.27190961908101,3.505483819775521,9464.806313393907,17.315036739973408,5.151351416844021,8.956872879107603,1.6458675970684995,30213,226,7036,17471,8.293652776596838,4.784293594366557,9.687241078518319e-05,False
0.28,0.6102040593398087,2.800000000000001,6028.0,3.01938,0.08,68900.0,0.33,276.0,2700.0,22.59376989569972,3.1171516241102264,8416.309385097611,15.414345960995506,4.227083099105018,7.179423934704213,1.1099314749947915,50953,256,9350,31456,7.560332167336942,4.361505689898734,8.530196000895291e-05,False
0.29000000000000004,0.9775847626347769,2.800000000000001,6029.0,3.01938,0.3,68900.0,0.33,276.0,2700.0,47.24555877789819,6.799525820642975,18358.71971573603,29.207897545253704,12.319908428326915,18.037661232644485,5.52038260768394,4551,112,1504,2289,10.487214752963434,6.0538279797337555,0.0001457811264590338,False
0.3,0.8676945487305925,2.800000000000001,6030.0,3.01938,0.3,68900.0,0.33,276.0,2700.0,38.76368031145319,5.758003378953356,15546.609123174061,24.726422690918188,9.359260736113752,14.037257620535005,3.601257357160396,3684,98,1218,1851,9.39953622031366,5.414578042507457,0.00012072265766505349,False
0.31,0.7247974497152704,2.800000000000001,6031.0,3.01938,0.3,68900.0,0.33,276.0,2700.0,28.812440029373693,4.403534080057529,11889.542016155328,19.352811075756804,6.215974653188194,9.459628953616889,1.8124405731306652,2964,84,978,1491,7.683426116515526,4.426816227896878,9.392661126015779e-05,False
0.32,0.9338580597522799,2.800000000000001,6032.0,3.01938,0.3,68900.0,0.33,276.0,2700.0,42.9231426211034,6.799073680661328,18357.498937785585,27.388306226330098,11.082700840133509,15.534836394773304,4.28362715947218,4009,104,1324,2017,9.321581725353534,5.381269973748494,0.0001256086648516846,False
0.33,0.7212341084635799,2.800000000000001,6033.0,3.01938,0.1,68900.0,0.33,276.0,2700.0,28.03178119634747,4.549977620602626,12284.939575627091,19.22537071534003,6.14724113465375,8.80641048100744,1.5972635140511233,40618,236,7660,24908,25.431068183094474,13.152006315887734,9.026317827371767e-05,False
0.34,0.7510588397024367,2.800000000000001,6034.0,3.01938,0.3,68900.0,0.33,276.0,2700.0,29.65692997919443,4.959359991358592,13390.271976668198,20.30187344348781,6.736630288153191,9.35505653570662,1.7772702967945992,2955,84,974,1488,7.320598791269988,4.212865085679524,9.068552834195762e-05,False
0.3500000000000001,1.0127142548926689,2.800000000000001,6035.0,3.01938,0.3,68900.0,0.33,276.0,2700.0,47.88265052126136,8.289666651205632,22382.099958255207,30.70454578971824,13.372164487899251,17.178104731543122,5.082497836693619,4546,112,1502,2287,9.261717942272174,5.342983230353185,0.0001289098532163544,False
0.36000000000000004,0.8241170067672232,2.800000000000001,6036.0,3.01938,0.2,68900.0,0.33,276.0,2700.0,33.90533782169604,6.005244710008026,16214.16071702167,23.03331099504403,8.318808155934825,10.872026826652007,2.313563445926799,7988,132,2282,4281,8.02194965654746,4.625847090679139,9.777446933402657e-05,False
0.37,0.8876606909727986,2.800000000000001,6037.0,3.01938,0.2,68900.0,0.33,276.0,2700.0,37.99271287797704,6.922564487304236,18690.924115721435,25.518107451902733,9.860838783764978,12.474605426074309,2.938274296460742,9703,142,2560,5367,8.216967222175967,4.74317565123651,0.00010507117673209303,False
0.38,0.7699382210301688,2.800000000000001,6038.0,3.01938,0.2,68900.0,0.33,276.0,2700.0,29.76575723369275,5.5405702263431,14959.539611126369,20.994866275446892,7.126444642927912,8.770890958245857,1.5858744165848124,8273,126,2124,4607,7.253028689983414,4.176752409536048,8.670811214146979e-05,False
0.39,0.7805150290001148,2.800000000000001,6039.0,3.01938,0.2,68900.0,0.33,276.0,2700.0,30.173712897927143,5.759636592016746,15551.018798445215,21.387017180013626,7.350574686163663,8.786695717913517,1.5909380941469164,8331,126,2112,4663,7.236784401806198,4.167136076858736,8.623481746035658e-05,False
0.4,0.9376090085943154,2.800000000000001,6040.0,3.01938,0.3,68900.0,0.33,276.0,2700.0,40.63259689416102,7.9924780922790415,21579.690849153412,27.54250948729557,11.18572206939958,13.09008740686545,3.193243977120538,3786,100,1256,1896,7.7700764266702995,4.4765053381383275,0.00010421627316090132,False
0.4100000000000001,0.875468295810698,2.800000000000001,6041.0,3.01938,0.2,68900.0,0.33,276.0,2700.0,35.94505635923562,7.224388748791261,19505.849621736405,25.033471312976253,9.552670167575869,10.911585046259368,2.3282814187846075,9631,136,2388,5433,7.441677997141463,4.293720017481337,9.493771890168227e-05,False
0.42000000000000004,0.7640647037633445,2.800000000000001,6042.0,3.01938,0.2,68900.0,0.33,276.0,2700.0,28.3190269641691,5.791826118129401,15637.930518949383,20.778311055672773,7.003767328134089,7.540715908496328,1.2119412100046878,7443,116,1856,4189,6.7110997236707535,3.8745547077862796,7.959713501443441e-05,False
0.43,1.0696794760743444,2.800000000000001,6043.0,3.01938,0.3,68900.0,0.33,276.0,2700.0,49.59326389724386,10.496032666501451,28339.288199553917,33.19740369626375,15.191871673335752,16.39586020098011,4.695839006834301,4644,114,1544,2322,8.047124261549113,4.636905400136559,0.00011577900046270555,False
0.44,1.0897289684894493,2.800000000000001,6044.0,3.01938,0.3,68900.0,0.33,276.0,2700.0,50.82968823273558,11.004122458799564,29711.130638758823,34.094194348506825,15.86643598577834,16.735493884228752,4.862313526978776,4598,114,1530,2297,8.045197931034533,4.637256400598912,0.00011631700734006323,False
0.45,0.8551275023579427,2.800000000000001,6045.0,3.01938,0.3,68900.0,0.33,276.0,2700.0,33.42313211751447,7.329352972735179,19789.253026384984,24.23325988029905,9.05162559227414,9.189872237215418,1.7222726195389617,3545,90,1108,1827,6.90164076287504,3.9820850366156155,8.48079341070418e-05,False
0.46,1.1201597007397888,2.800000000000001,6046.0,3.01938,0.3,68900.0,0.33,276.0,2700.0,52.56532617147124,11.886164977751834,32092.64543992995,35.474629708072364,16.924892095156427,17.090696463398878,5.0387271174045924,4840,116,1590,2433,7.904522259935107,4.5342314806563735,0.00011602976562379088,False
0.4700000000000001,0.864102362999392,2.800000000000001,6047.0,3.01938,0.2,68900.0,0.33,276.0,2700.0,33.47022883383844,7.6480573932362645,20649.754961737915,24.585051069518546,9.270692846981559,8.885177764319895,1.6226354537452945,9079,132,2248,5119,6.73132761138051,3.8830314335923273,8.36330903324067e-05,False
0.4800000000000001,0.9687803667150414,2.800000000000001,6048.0,3.01938,0.3,68900.0,0.33,276.0,2700.0,40.43891581504524,9.473716452446995,25579.034421606888,28.837658042560015,12.064381831350461,11.601257772485226,2.5906653789034664,4160,102,1320,2124,7.107698231038879,4.082005095552388,9.35755295801055e-05,False
0.49,1.0120006449909382,2.800000000000001,6049.0,3.01938,0.2,68900.0,0.33,276.0,2700.0,43.28149308964902,10.357562317562518,27965.418257418798,30.67383470508994,13.350264378623775,12.607658384559077,2.992702061061257,11731,152,2874,6654,7.335704228827602,4.230058742087456,9.787136076229959e-05,False
0.5,1.1251507004024224,2.800000000000001,6050.0,3.01938,0.3,68900.0,0.33,276.0,2700.0,51.61259057577652,12.64134825614496,34131.64029159139,35.7032590252504,17.10251624409585,15.909331550526126,4.461167987950889,5077,116,1572,2629,7.357660532863829,4.2413231400189515,0.00010922942972591137,False
0.01,0.5664163074857603,2.800000000000001,6051.0,6.03876,0.05,68900.0,0.33,276.0,2700.0,27.67607664325412,0.13837828882116557,373.62137981714704,13.996552569815682,3.5833403753170234,13.679524073438438,3.444962086495858,88688,468,29370,44627,385.3564009655471,218.5891422386858,0.0033998144947555257,True
0.02,0.3402125745172356,2.800000000000001,6052.0,6.03876,0.08,68900.0,0.33,276.0,2700.0,14.361802092781629,0.1436012657669962,387.72341757088975,7.439821706849946,1.1830878461879017,6.921980385931683,1.0394865804209055,18557,204,6116,9377,103.73478537488185,59.18236958811565,0.0009307671111404717,False
0.03,0.549926966018816,2.800000000000001,6053.0,6.03876,0.1,68900.0,0.33,276.0,2700.0,26.01916324528301,0.39023090001148014,1053.6234300309964,13.47513812074126,3.3568547211455075,12.54402512454175,2.9666238211340272,21469,228,7050,10888,120.34968095469802,68.6349447909243,0.0011305602443551432,False
0.04,0.47623539172962104,2.800000000000001,6054.0,6.03876,0.1,68900.0,0.33,276.0,2700.0,21.29447605278422,0.4257554797691347,1149.5397953766637,11.22842532438864,2.44747061214437,10.06605072839558,2.021715132375235,17373,202,5712,8799,78.4995728429794,44.89207185986163,0.0007219157754460613,False
0.05,0.35818317024523705,2.800000000000001,6055.0,6.03876,0.08,68900.0,0.33,276.0,2700.0,14.5290482858383,0.36296440775815797,980.0039009470265,7.913692274410159,1.3210315878184609,6.615356011428141,0.9580671800603029,19350,208,6354,9813,45.8110910079281,26.27042758645073,0.00041882624734518634,False
0.06000000000000001,0.6311630221394022,2.800000000000001,6056.0,6.03876,0.2,68900.0,0.33,276.0,2700.0,30.25794076625825,0.9072858336456282,2449.671750843196,16.110024189083322,4.557422867027324,14.147916577174929,3.6501370333816956,6256,124,2042,3187,66.5608877321377,38.057172608724116,0.0007043001645461555,False
0.06999999999999999,0.69350977823812,2.800000000000001,6057.0,6.03876,0.2,68900.0,0.33,276.0,2700.0,34.09944526285158,1.1927622066796884,3220.4579580351588,18.24473024638577,5.627869039864516,15.85471501646581,4.435106833184827,6990,134,2292,3546,58.75427560614265,33.50223807628854,0.0006883102174649004,False
0.08,0.5504495046446991,2.800000000000001,6058.0,6.03876,0.2,68900.0,0.33,276.0,2700.0,24.5493601221196,0.980902074592359,2648.4356013993693,13.491556627886421,3.3639002906559634,11.05780349423318,2.3829982160636045,5207,112,1714,2630,41.89451774818215,24.186168999040007,0.0004542597426474358,False
0.09,0.7438292192661015,2.800000000000001,6059.0,6.03876,0.2,68900.0,0.33,276.0,2700.0,36.91366805552654,1.6595882484690556,4480.8882708664505,20.038872603357607,6.590806938551054,16.874795452168936,4.931218690081999,7700,142,2532,3896,50.14650988724126,28.703305741355866,0.000597702233615014,False
0.09999999999999999,0.7852929824677024,2.800000000000001,6060.0,6.03876,0.3,68900.0,0.33,276.0,2700.0,39.522892973875024,1.9740502535913376,5329.935684696611,21.565088842725302,7.453186039672909,17.95780413114972,5.479135786081572,3968,102,1304,2006,47.00157157078231,27.136366672024263,0.0005829144515649005,False
0.11,0.6397993037850517,2.800000000000001,6061.0,6.03876,0.3,68900.0,0.33,276.0,2700.0,29.247831789544065,1.6058431085436398,4335.7763930678275,16.39989495857973,4.697803926961536,12.847936830964336,3.0919608184178964,2982,86,980,1506,35.81208738781607,20.53280635811443,0.0004091228451409851,False
0.12,0.4567599221936125,2.800000000000001,6062.0,6.03876,0.2,68900.0,0.33,276.0,2700.0,18.007164917685163,1.0768107803241747,2907.3891068752714,10.657457457713862,2.2343671615924814,7.349707459971301,1.1575563812683067,3866,94,1264,1964,23.835572071740202,13.761184971019084,0.00024978525715654897,False
0.13,0.4868263182462965,2.800000000000001,6063.0,6.03876,0.1,68900.0,0.33,276.0,2700.0,19.420553915535667,1.2577346184698608,3395.883469868624,11.542924044171086,2.568052968010477,7.877629871364581,1.310318349540616,15946,192,5274,8029,22.86747171697129,13.196525718720036,0.00025036109068949427,False
0.14,0.516059031377044,2.800000000000001,6064.0,6.03876,0.2,68900.0,0.33,276.0,2700.0,20.81873895484609,1.4515647066782595,3919.224708031301,12.425621832213483,2.9183334611037535,8.393117122632606,1.466768754425494,4418,102,1454,2231,22.83640870640529,13.184218506045848,0.0002508963386454655,False
0.15000000000000002,0.5601238552435294,2.800000000000001,6065.0,6.03876,0.3,68900.0,0.33,276.0,2700.0,23.125729792407373,1.7273611509599764,4663.875107591936,13.796770734539937,3.4958968173614617,9.328959057867436,1.7685356664014853,2305,74,750,1174,24.270187277439373,13.975943640885612,0.00026085734793231634,False
0.16,0.5446650200140755,2.800000000000001,6066.0,6.03876,0.1,68900.0,0.33,276.0,2700.0,21.936977686967918,1.7463795726180318,4715.224846068686,13.31018680877627,3.2863835595352855,8.626790878191647,1.5400039869172537,18583,208,6078,9402,21.294146168872878,12.294167277922906,0.00023774720337636,False
0.17,0.8454498081071842,2.800000000000001,6067.0,6.03876,0.3,68900.0,0.33,276.0,2700.0,41.47250748090253,3.5148733727386547,9490.158106394369,23.856187844349847,8.818930004731989,17.61631963655268,5.304056631993334,4149,104,1364,2097,30.086079873739255,17.34272496649799,0.00039288106678454527,False
0.18000000000000002,0.7689017472572899,2.800000000000001,6068.0,6.03876,0.3,68900.0,0.33,276.0,2700.0,35.67517291045397,3.1985510497037044,8636.087834200001,20.956588726655045,7.104703853837954,14.718584183798928,3.9061528041342495,3738,98,1228,1890,26.44096592034748,15.265259975465545,0.00032867706657606534,False
0.19,0.6788673846357003,2.800000000000001,6069.0,6.03876,0.3,68900.0,0.33,276.0,2700.0,29.3384657404526,2.7727887893356815,7486.52973120634,17.734608011480145,5.364463798687563,11.603857728972457,2.5916750093518814,3034,86,992,1540,22.63875421624169,13.063840691665442,0.00026672914177707516,False
0.2,0.7813243886484889,2.800000000000001,6070.0,6.03876,0.3,68900.0,0.33,276.0,2700.0,35.89098871658843,3.5723437108396903,9645.328019267165,21.417141199576218,7.367896664340657,14.473847517012214,3.795552953500967,3766,98,1238,1903,24.330063496183097,14.046340231222729,0.0003044903445697891,False
0.21000000000000002,0.5163872230529125,2.800000000000001,6071.0,6.03876,0.1,68900.0,0.33,276.0,2700.0,19.005543777013177,1.9761859035431202,5335.701939566425,12.435653674105325,2.9224130928660412,6.569890102907852,0.946227189322921,21122,190,5230,11945,16.477144607871555,9.51305599915428,0.00017848622926534388,False
0.22,0.64882285112686,2.800000000000001,6072.0,6.03876,0.3,68900.0,0.33,276.0,2700.0,26.559829960515938,2.8992801766064673,7828.056476837462,16.704766536273354,4.847163128248662,9.855063424242584,1.9478829516421943,2674,80,878,1351,18.984903521624798,10.960380789137648,0.00022125496964792114,False
0.23,0.7258057361012171,2.800000000000001,6073.0,6.03876,0.2,68900.0,0.33,276.0,2700.0,31.200706774882992,3.5625987739007274,9619.016689531963,19.388929644594924,6.23550603590941,11.811777130288068,2.6729072620086822,6391,126,2102,3228,19.856463972508728,11.46005527403053,0.00024403829564813176,False
0.24000000000000005,0.6190346835759006,2.800000000000001,6074.0,6.03876,0.1,68900.0,0.33,276.0,2700.0,24.17981254562625,2.872624587579667,7756.086386465102,15.706109684001682,4.364488181809122,8.473702861624567,1.491863594229455,26413,214,6498,14956,22.88113975235945,12.590282476061994,0.00022188350754999794,False
0.25,0.9027538225142795,2.800000000000001,6075.0,6.03876,0.3,68900.0,0.33,276.0,2700.0,42.96143938095786,5.337454999144841,14411.12849769107,26.12322024310403,10.25054625863947,16.838219137853834,4.91309125949463,4039,104,1336,2029,22.192400008979885,12.809950200765073,0.00030000463382924943,False
0.26,0.7076063512094041,2.800000000000001,6076.0,6.03876,0.3,68900.0,0.33,276.0,2700.0,29.13332042678192,3.7505205671619875,10126.405531337366,18.740927689615653,5.888548686084946,10.392392737166269,2.138028118922959,3040,84,996,1540,17.598445939240424,10.151259053027143,0.0002124022805171077,False
0.27,0.761813641707977,2.800000000000001,6077.0,6.03876,0.3,68900.0,0.33,276.0,2700.0,32.38754423300114,4.331094492654742,11693.955130167804,20.695544745130864,6.957087240482869,11.691999487870273,2.6259927478281266,3138,88,1030,1587,18.304114030672174,10.558735203245892,0.0002249955706231934,False
0.28,0.6690028406384583,2.800000000000001,6078.0,6.03876,0.2,68900.0,0.33,276.0,2700.0,26.139256804531186,3.6135197913466324,9756.503436635907,17.39397785310325,5.191202068709764,8.745278951427935,1.5776822773631314,5632,118,1868,2824,15.61074092702313,9.009222067081344,0.00053254447701577,False
0.29000000000000004,0.9813958992681744,2.800000000000001,6079.0,6.03876,0.3,68900.0,0.33,276.0,2700.0,47.539518975441936,6.842150049286621,18473.805133073878,29.368766369090707,12.431530147243546,18.17075260635123,5.589380097956925,4554,112,1506,2289,21.109094063967344,12.18440310240721,0.0002931469595489751,False
0.3,0.8746917999195112,2.800000000000001,6080.0,6.03876,0.3,68900.0,0.33,276.0,2700.0,39.263542668753,5.832982732548335,15749.053377880506,25.002732885084605,9.533243715071247,14.260809783668392,3.700260982522912,3871,100,1276,1951,18.487207037115443,10.650868862224907,0.0002439372899089981,False
0.31,0.6469248209825627,2.800000000000001,6081.0,6.03876,0.08,68900.0,0.33,276.0,2700.0,23.99447382097506,3.6567493177557377,9873.223157940492,16.64046931441291,4.815518011162831,7.354004506562148,1.1587686934070929,58057,266,10064,36201,14.654714303454643,8.456032157003758,0.00016800630784441788,False
0.32,0.7810920773259302,2.800000000000001,6082.0,6.03876,0.3,68900.0,0.33,276.0,2700.0,32.192133072078455,5.082112152817329,13721.702812606789,21.408492987038038,7.362922224508263,10.783640085040417,2.280810071690934,3364,90,1110,1693,16.01480630043061,9.243910593012906,0.00020055890547869695,False
0.33,0.8422819945932121,2.800000000000001,6083.0,6.03876,0.3,68900.0,0.33,276.0,2700.0,36.04363558604889,5.871933594903369,15854.220706239095,23.733271667923354,8.743552804828209,12.310363918125539,2.87161920992484,3456,94,1142,1737,16.68833914612963,9.62914888903091,0.00021403964475026583,False
0.34,0.9867183891146809,2.800000000000001,6084.0,6.03876,0.3,68900.0,0.33,276.0,2700.0,46.22752234133525,7.776360692922534,20996.17387089084,29.59404060504545,12.588444302170187,16.633481736289802,4.812083609247653,4399,110,1448,2221,18.47215240795582,10.641831160688605,0.0002557484588492819,False
0.3500000000000001,0.65917856032608,2.800000000000001,6085.0,6.03876,0.1,68900.0,0.33,276.0,2700.0,23.697758785703773,4.057310597482534,10954.738613202842,17.057168724773856,5.02197519409402,6.640590060929917,0.9646645966114864,34700,212,6466,21333,13.703530115707503,7.908238987565575,0.00015632526838257232,False
0.36000000000000004,0.859340282916206,2.800000000000001,6086.0,6.03876,0.3,68900.0,0.33,276.0,2700.0,36.31629877159479,6.439217680989808,17385.88773867248,24.398137817235828,9.15406213905442,11.91816095435896,2.7148444580646114,3499,94,1162,1750,15.723191252475274,9.064521743271092,0.00020354053042638662,False
0.37,0.7512095125382622,2.800000000000001,6087.0,6.03876,0.1,68900.0,0.33,276.0,2700.0,28.840110331472793,5.229333016200945,14119.199143742551,20.307368629430062,6.739689642977954,8.532741702042731,1.5103566267770088,43253,236,7728,26807,14.380317063234592,8.300621716178288,0.00017290687293237248,False
0.38,0.978732601037529,2.800000000000001,6088.0,6.03876,0.3,68900.0,0.33,276.0,2700.0,44.294565362619004,8.301043770839092,22412.81818126555,29.25630961322977,12.353462156241012,15.038255749389233,4.05241838540192,4310,108,1426,2165,16.586124653917533,9.542749529422151,0.00022990132158489957,False
0.39,0.8659955155141799,2.800000000000001,6089.0,6.03876,0.2,68900.0,0.33,276.0,2700.0,35.880851095794654,6.872528540601096,18555.82705962296,24.659516273741808,9.317306571023627,11.221334822052846,2.4447780304225306,9428,136,2376,5288,15.386542439553459,8.882966049689538,0.00019521770327093725,False
0.4,0.8306782774758086,2.800000000000001,6090.0,6.03876,0.3,68900.0,0.33,276.0,2700.0,33.1929289154008,6.504544496526995,17562.270140622884,23.285183018995635,8.47076165336262,9.907745896405164,1.9662171568356257,3433,92,1134,1724,13.735021333161397,7.886319117970167,0.00017965938806838776,False
0.4100000000000001,0.7452472178487494,2.800000000000001,6091.0,6.03876,0.2,68900.0,0.33,276.0,2700.0,27.400673587676494,5.47279028062164,14776.53375767843,20.090353332933496,6.61925852532973,7.310320254742997,1.1464682447080898,7378,116,1838,4147,13.446432374600173,7.761798324357297,0.00015714095959401577,False
0.42000000000000004,0.8080847594482423,2.800000000000001,6092.0,6.03876,0.2,68900.0,0.33,276.0,2700.0,31.142583915759037,6.384773077963293,17238.88731050089,22.42242191183223,7.954438010537152,8.720162003926806,1.5696649325738594,8732,128,2182,4909,13.953264352285313,8.055720398724182,0.0001983644762960596,False
0.43,1.020831383674652,2.800000000000001,6093.0,6.03876,0.3,68900.0,0.33,276.0,2700.0,45.83591613630224,9.688202897899007,26158.14782432732,31.054777225646376,13.622817556977623,14.781138910655862,3.9346146590786155,4411,110,1464,2205,15.436372848106513,8.894952551624982,0.00021823594579478515,False
0.44,1.030552447597038,2.800000000000001,6094.0,6.03876,0.3,68900.0,0.33,276.0,2700.0,46.24848367741615,9.996257456629271,26989.895132899033,31.476393069838025,13.926750384792031,14.772090607578122,3.93049292816276,4425,110,1456,2225,15.216384355121033,8.764338252971847,0.00021662944062688803,False
0.45,0.874236077621803,2.800000000000001,6095.0,6.03876,0.2,68900.0,0.33,276.0,2700.0,34.709898827555705,7.618875482494452,20570.96380273502,24.98469968272479,9.521853521456306,9.725199144830913,1.9029780389618542,9270,134,2306,5215,13.771106912525399,7.948599748094799,0.00017570150883248838,False
0.46,0.9022068904954699,2.800000000000001,6096.0,6.03876,0.3,68900.0,0.33,276.0,2700.0,36.338217895963645,8.1539300743851,22015.61120083977,26.10119270693181,10.236264657179172,10.237025189031836,2.082334582794072,3532,94,1140,1792,13.099348159721515,7.5230189923467385,0.0001771623678399002,False
0.4700000000000001,0.7719602685317883,2.800000000000001,6097.0,6.03876,0.08,68900.0,0.33,276.0,2700.0,27.527783545970422,6.251582750587284,16879.273426585667,21.06961932270083,7.1689728196177365,6.458164223269591,0.9173900690304526,91327,284,11520,60363,13.305989237478736,7.538440440305908,0.00014891518127406895,False
0.4800000000000001,0.974640555854388,2.800000000000001,6098.0,6.03876,0.3,68900.0,0.33,276.0,2700.0,40.860647942639446,9.5749321630696,25852.316840287916,29.08387193448284,12.234096970307311,11.776776008156606,2.659164807237712,4121,102,1310,2102,13.595552260280675,7.844438282722782,0.0001884706076967242,False
0.49,0.875715331584115,2.800000000000001,6099.0,6.03876,0.2,68900.0,0.33,276.0,2700.0,33.69869053803332,8.009775692416703,21626.394369525096,25.04325366807563,9.558855538787238,8.65543686995769,1.5490798463705353,9240,132,2270,5229,81.06342403475628,46.43082973951465,0.00016518190785628554,False
0.5,0.853228892535093,2.800000000000001,6100.0,6.03876,0.1,68900.0,0.33,276.0,2700.0,31.94134022226203,7.72353566776636,20853.54630296917,24.159098740599436,9.005686502893838,7.782241481662595,1.282150835127478,59412,250,8602,38475,13.685234636450337,7.750089225258907,0.0001585670188870042,False
0.01,0.3693887510028152,2.800000000000001,6101.0,9.05814,0.05,68900.0,0.33,276.0,2700.0,16.15905609391215,0.08079318607445742,218.14160240103502,8.213283082184635,1.411384703310299,7.945773011727514,1.3305915172358416,52940,346,17530,26639,338.81744330252536,192.9346846020478,0.003007445021653347,True
0.02,0.7028296524671218,2.800000000000001,6102.0,9.05814,0.1,68900.0,0.33,276.0,2700.0,36.44434568279584,0.3644267016671369,983.9520945012697,18.572229113709337,5.79943205976493,17.872116569086504,5.4350053580977935,29769,278,9860,14973,310.8023789009664,176.70219642975292,0.0035325108083344913,True
0.03,0.7270743041753738,2.800000000000001,6103.0,9.05814,0.1,68900.0,0.33,276.0,2700.0,37.80413756031141,0.5670055147369855,1530.9148897898608,19.43440825139422,6.26013105512748,18.36972930891719,5.693125540390494,30729,282,10116,15549,238.68299022086137,135.829493804427,0.0024837505477853447,False
0.04,0.34319550462459136,2.800000000000001,6104.0,9.05814,0.08,68900.0,0.33,276.0,2700.0,14.007206558760116,0.28001008988864884,756.0272426993519,7.517917436262412,1.2053967358130135,6.489289122497704,0.9253866459243647,17940,198,5880,9114,82.33322153990734,47.06090009261942,0.0007350105970880823,False
0.05,0.7270766686717044,2.800000000000001,6105.0,9.05814,0.1,68900.0,0.33,276.0,2700.0,37.10708460951922,0.9274153158501881,2504.021352795508,19.434493057173356,6.260177007814564,17.672591552345864,5.332761691964375,30415,280,9994,15418,153.91196581283177,87.79599823427242,0.0014977402937772022,False
0.06000000000000001,0.7169015968666393,2.800000000000001,6106.0,9.05814,0.2,68900.0,0.33,276.0,2700.0,36.05030447751872,1.0810567449833681,2918.853211455094,19.070851407071657,6.064281891746393,16.979453070447065,4.983225146763026,7439,140,2440,3773,110.32716149188066,63.03649600147156,0.0012419447764919947,False
0.06999999999999999,0.7014670472701031,2.800000000000001,6107.0,9.05814,0.2,68900.0,0.33,276.0,2700.0,34.644407883182346,1.211835898391266,3271.956925656418,18.524211135972536,5.774158163926067,16.12019674720981,4.562322265534801,7263,136,2380,3687,91.65559715603794,52.35131568018695,0.0010472127863857643,False
0.08,0.5451484998810369,2.800000000000001,6108.0,9.05814,0.2,68900.0,0.33,276.0,2700.0,24.22753294464538,0.9680289874933917,2613.6782662321575,13.32531388791022,3.292822423465216,10.90221905673516,2.324793435971824,5299,112,1732,2695,62.54998864077395,36.111603094424005,0.0006732139667550593,False
0.09,0.6424120959421329,2.800000000000001,6109.0,9.05814,0.2,68900.0,0.33,276.0,2700.0,30.041244675807416,1.3503291963816875,3645.8888302305563,16.48796084924823,4.740768455463389,13.553283826559188,3.3904392590817016,6602,128,2162,3353,63.846892460315125,36.542842344841056,0.0007427637907065527,False
0.09999999999999999,0.7160024754898104,2.800000000000001,6110.0,9.05814,0.3,68900.0,0.33,276.0,2700.0,34.64454791701625,1.73013300074842,4671.359102020734,19.038843295221827,6.04714927268306,15.60570462179442,4.317016271934641,3309,92,1088,1671,65.33190431795559,37.65807261700587,0.0007759226135307367,False
0.11,0.6935669650363339,2.800000000000001,6111.0,9.05814,0.3,68900.0,0.33,276.0,2700.0,32.7928619630305,1.8008197680851794,4862.213373829984,18.24673312474133,5.628912454840475,14.546128838289167,3.828092686755296,3430,92,1118,1747,57.713873781137536,33.317436901076356,0.0006809801670865719,False
0.12,0.7754927027231527,2.800000000000001,6112.0,9.05814,0.3,68900.0,0.33,276.0,2700.0,38.13188737936868,2.2842941280251834,6167.594145667995,21.200456398205144,7.243630857674959,16.931430981163533,4.959336729649776,3906,100,1282,1977,58.49578258554535,33.718354829381255,0.0007264124711501918,False
0.13,0.5310289016494039,2.800000000000001,6113.0,9.05814,0.3,68900.0,0.33,276.0,2700.0,21.962205697303645,1.4229419842847806,3841.9433575689077,12.885960520925298,3.1077819871370016,9.076245176378347,1.684840002852221,2367,74,772,1203,39.530296585735044,22.739870761633913,0.0004173796067041953,False
0.14,0.8398675934807043,2.800000000000001,6114.0,9.05814,0.3,68900.0,0.33,276.0,2700.0,42.10766463966833,2.941789504615823,7942.831662462721,23.639758450554236,8.686364085994995,18.467906189114093,5.744574581379172,4135,104,1360,2089,54.256009287090606,31.321606541032832,0.0006999769506548573,False
0.15000000000000002,0.6107252507686654,2.800000000000001,6115.0,9.05814,0.3,68900.0,0.33,276.0,2700.0,26.204448950988954,1.9582650878535963,5287.31573720471,15.431511697296626,4.235121397122116,10.772937253692328,2.2768563092685197,2750,80,900,1394,39.88226691238134,22.912856652672243,0.00043458127227611465,False
0.16,0.5298001686021416,2.800000000000001,6116.0,9.05814,0.2,68900.0,0.33,276.0,2700.0,21.072306305520197,1.6772058621022128,4528.455827675974,12.847963560937249,3.0919719295448,8.224342744582948,1.414766067442587,4389,102,1444,2217,31.098903321792253,17.95444826483123,0.000344647449058999,False
0.17,0.807203989537663,2.800000000000001,6117.0,9.05814,0.3,68900.0,0.33,276.0,2700.0,38.70163647930734,3.279349337603068,8854.243211528285,22.38904845135125,7.93470371459582,16.31258802795609,4.655354376992752,3803,100,1252,1919,43.38187679290649,25.016446668645003,0.0005543760041842479,False
0.18000000000000002,0.6831383239448825,2.800000000000001,6118.0,9.05814,0.3,68900.0,0.33,276.0,2700.0,29.915670898583453,2.6801958686353564,7236.528845315463,17.882845427469803,5.440523626514572,12.03282547111365,2.760327757879216,3030,86,992,1536,35.84695097102777,20.676755403257637,0.00042353312580777026,False
0.19,0.8061479553031283,2.800000000000001,6119.0,9.05814,0.3,68900.0,0.33,276.0,2700.0,37.959576307576526,3.591794293212455,9697.84459167363,22.34905971141477,7.9110812301582865,15.610516596161755,4.319286936945831,3684,98,1210,1863,39.07962463324299,22.524098079733296,0.0004988414063536639,False
0.2,0.6605488174020879,2.800000000000001,6120.0,9.05814,0.3,68900.0,0.33,276.0,2700.0,27.87179083500989,2.770423922681848,7480.144591240989,17.104000140898307,5.04537998038669,10.767790694111582,2.2749560577048418,2888,82,942,1469,31.789495080051992,18.34152068004878,0.00036895856041752414,False
0.21000000000000002,0.6466269296829561,2.800000000000001,6121.0,9.05814,0.3,68900.0,0.33,276.0,2700.0,26.707619929852846,2.7849038995912827,7519.240528896464,16.63038623919105,4.810562462018252,10.077233690661796,2.0256585624269694,2772,82,904,1410,29.498722658215137,17.021857623310076,0.0003440460147837084,False
0.22,0.707341239118219,2.800000000000001,6122.0,9.05814,0.3,68900.0,0.33,276.0,2700.0,30.289836238913978,3.3095808672302542,8935.868341521686,18.73154970074832,5.883581482702549,11.558286538165657,2.574000615472295,3053,86,998,1550,30.654848913603523,17.67367148917523,0.0003690834924809877,False
0.23,0.6109181034114238,2.800000000000001,6123.0,9.05814,0.2,68900.0,0.33,276.0,2700.0,23.962689227105237,2.730226755906285,7371.61224094697,15.437865139287199,4.238098017558714,8.524824087818038,1.5078712616524292,4970,108,1644,2498,25.933977651860722,14.950139828367039,0.00029756801740397107,False
0.24000000000000005,0.7735503729556854,2.800000000000001,6124.0,9.05814,0.3,68900.0,0.33,276.0,2700.0,34.092528595740546,4.062150513593379,10967.806386702125,21.128476049493923,7.202522500262959,12.964052546246624,3.14037198666958,3526,94,1162,1777,30.408048721022798,17.54464038799633,0.0003819450962516084,False
0.25,0.8149869827958545,2.800000000000001,6125.0,9.05814,0.3,68900.0,0.33,276.0,2700.0,36.63571571258769,4.546739540598518,12276.196759615998,22.684630750030717,8.110106797856627,13.951084962556973,3.5633672572581094,3645,96,1206,1830,30.60836324200244,17.642427836259138,0.00039410058856383714,False
0.26,0.868808243072364,2.800000000000001,6126.0,9.05814,0.3,68900.0,0.33,276.0,2700.0,40.13872593101536,5.181223282712332,13989.302863323295,24.77031834812268,9.386822853436353,15.36840758289268,4.205599570724021,3988,102,1314,2011,31.207654944640634,17.98354756121445,0.0004130561208381133,False
0.27,0.6300248341681535,2.800000000000001,6127.0,9.05814,0.1,68900.0,0.33,276.0,2700.0,24.034675535687366,3.203457218517391,8649.334489996956,16.071961506914118,4.539108295610449,7.962714028773249,1.3356510770930576,28015,214,6494,16232,23.850895707507476,13.755444489376146,0.00027241718610772597,False
0.28,0.7998471777371252,2.800000000000001,6128.0,9.05814,0.3,68900.0,0.33,276.0,2700.0,34.652630198322434,4.805392066477406,12974.558579488996,22.111051311175036,7.771015118992862,12.541578887147399,2.965623052515456,3288,92,1086,1653,27.26043641903972,15.705266345254564,0.0003470696112045056,False
0.29000000000000004,0.6359108637215694,2.800000000000001,6129.0,9.05814,0.1,68900.0,0.33,276.0,2700.0,23.858352543456636,3.408380916648944,9202.62847495215,16.269150183563948,4.6342882381142685,7.589202359892688,1.2259073214653244,31012,212,6432,18576,22.79402476070729,13.160042529979638,0.0002603060006447764,False
0.3,0.974319068992396,2.800000000000001,6130.0,9.05814,0.3,68900.0,0.33,276.0,2700.0,46.64758977726933,6.940589798825789,18739.59245682963,29.070342395282683,12.224749062438653,17.57724738198665,5.284159263612864,4560,112,1508,2292,30.266593867130986,17.450484709197333,0.0004224407777502665,False
0.31,0.7480517074779859,2.800000000000001,6131.0,9.05814,0.3,68900.0,0.33,276.0,2700.0,30.310279901652596,4.63569926026076,12516.388002704052,20.19231971453278,6.6757446485318255,10.117960187119817,2.040045388271065,3054,86,1006,1539,23.90549818537067,13.7997568558226,0.0002932091907738398,False
0.32,0.7187662485693127,2.800000000000001,6132.0,9.05814,0.1,68900.0,0.33,276.0,2700.0,28.150994163986862,4.435529927522606,11975.930804311036,19.137296504831557,6.099904322198816,9.013697659155305,1.6643743946762095,40585,238,7742,24844,23.125339010126094,13.340619649089284,0.000276376011704241,False
0.33,0.7714863569484741,2.800000000000001,6133.0,9.05814,0.3,68900.0,0.33,276.0,2700.0,31.268437579702194,5.084025923856156,13726.86999441162,21.05209007197719,7.1589918368450896,10.216347507725004,2.074965912988934,3225,90,1064,1623,23.108665260374885,13.338547427992955,0.00028900698981501263,False
0.34,0.7870944350614554,2.800000000000001,6134.0,9.05814,0.3,68900.0,0.33,276.0,2700.0,32.01000801173892,5.359383256891147,14470.334793606096,21.632376919600826,7.492095120799331,10.377631092138092,2.1327118639081846,3382,90,1110,1711,23.235668682890743,13.40975432477668,0.0002885604962692862,False
0.3500000000000001,0.774305164139048,2.800000000000001,6135.0,9.05814,0.3,68900.0,0.33,276.0,2700.0,30.883587670887078,5.314830652390132,14350.042761453356,21.15643641724626,7.218480638921922,9.72715125364082,1.9036499865317902,3199,88,1060,1603,21.569754428127744,12.43619071795851,0.00027599448135016703,False
0.36000000000000004,0.9054370196568242,2.800000000000001,6136.0,9.05814,0.3,68900.0,0.33,276.0,2700.0,39.565738051859384,7.024116751437433,18965.11522888107,26.231394181446376,10.320785094091843,13.334343870413008,3.2966683426544092,3688,98,1220,1852,24.575323131859925,14.169316447045388,0.0003269607436893457,False
0.37,0.7707485263637897,2.800000000000001,6137.0,9.05814,0.2,68900.0,0.33,276.0,2700.0,30.09329775840637,5.461172690183659,14745.16626349588,21.024810103889994,7.143469025757112,9.068487654516375,1.6822963355734526,7901,126,2126,4330,22.434411453350684,12.939794514196283,0.00026606072807502517,False
0.38,0.7665059758413446,2.800000000000001,6138.0,9.05814,0.2,68900.0,0.33,276.0,2700.0,29.545233934202,5.498670799439864,14846.411158487634,20.868214896970294,7.054602548138598,8.677019037231705,1.5559317486987334,8182,126,2128,4536,22.04224929760519,12.72588981539609,0.00025875630976849413,False
0.39,0.7267294497765918,2.800000000000001,6139.0,9.05814,0.08,68900.0,0.33,276.0,2700.0,26.770954561729642,5.096098716458408,13759.4665344377,19.422041098245028,6.253431146473583,7.348913463484614,1.1573324300151748,77119,284,11408,49763,20.390556281763583,11.770253140639687,0.00024019407173456487,False
0.4,1.0391308246944062,2.800000000000001,6140.0,9.05814,0.3,68900.0,0.33,276.0,2700.0,48.22781267727337,9.511521248901296,25681.1073720335,31.850421685474217,14.198369711335722,16.377390991799153,4.686848462434426,4498,112,1488,2260,25.191523425422613,14.5224535803921,0.00035614939740169607,False
0.4100000000000001,0.8408320360784383,2.800000000000001,6141.0,9.05814,0.3,68900.0,0.33,276.0,2700.0,33.58921068111075,6.741440384775663,18201.88903889429,23.677095122552604,8.70918127870449,9.912115558558146,1.967740893928827,3431,92,1132,1723,20.50466728733956,11.829096040199998,0.0002678755277986744,False
0.42000000000000004,0.9325979416479824,2.800000000000001,6142.0,9.05814,0.3,68900.0,0.33,276.0,2700.0,39.6565729704044,8.172710779438816,22066.319104484803,27.336581532590884,11.048220933413933,12.319991437813513,2.8755101539751173,3553,98,1186,1768,22.028414298639113,12.692178290877031,0.0002975881830613911,False
0.43,0.9373699313512411,2.800000000000001,6143.0,9.05814,0.3,68900.0,0.33,276.0,2700.0,39.69367688945027,8.367621459825829,22592.577941529737,27.532670359199663,11.17913845834844,12.16100653025061,2.8115169985226114,3637,98,1210,1816,21.440668121358883,12.327108041955444,0.00029345925352821983,False
0.44,0.8543211914211253,2.800000000000001,6144.0,9.05814,0.2,68900.0,0.33,276.0,2700.0,33.64804173508998,7.224160229317534,19505.23261915734,24.201753695941097,9.032098752786341,9.446288039148886,1.807938523468807,9075,132,2260,5107,20.731696070439057,11.944062147909415,0.0002612686161428946,False
0.45,0.9874368691081109,2.800000000000001,6145.0,9.05814,0.3,68900.0,0.33,276.0,2700.0,42.70923825835654,9.41872685442465,25430.562506946553,29.624504792970296,12.609717971447644,13.084733465386247,3.1909911170229943,4042,104,1344,2014,21.714602867263697,12.43580272637876,0.0003016512809334993,False
0.46,1.0699158872538999,2.800000000000001,6146.0,9.05814,0.3,68900.0,0.33,276.0,2700.0,48.612777014412785,10.977078671628394,29638.112413396666,33.20791923412562,15.199721153669447,15.404857780287166,4.222642482041053,4674,112,1516,2364,22.801879530286943,13.100122990123236,0.00032818282916216216,False
0.4700000000000001,0.8151099308694394,2.800000000000001,6147.0,9.05814,0.08,68900.0,0.33,276.0,2700.0,30.257468897222534,6.893058808131525,18611.25878195512,22.689312283271992,8.112896117296097,7.568156613950542,1.2198373091645722,100776,302,12606,66691,22.193008862745494,12.527129643179116,0.000236743092071921,False
0.4800000000000001,0.8949063738605477,2.800000000000001,6148.0,9.05814,0.1,68900.0,0.33,276.0,2700.0,35.27056727650961,8.233312803198439,22229.944568635787,25.80788634626559,10.046783924541787,9.46268093024402,1.8134711213433476,64361,268,9622,41442,20.73018469142762,11.824679721905271,0.00025930443631888773,False
0.49,0.9609227929993629,2.800000000000001,6149.0,9.05814,0.1,68900.0,0.33,276.0,2700.0,39.58060805754048,9.450845484695952,25517.28280867907,28.508879212063032,11.839080525512792,11.071728845477448,2.3882350408168396,72494,286,10568,46914,21.778660622835783,12.401740124005451,0.0002770839390499669,False
0.5,0.906231764875201,2.800000000000001,6150.0,9.05814,0.3,68900.0,0.33,276.0,2700.0,35.48402764320801,8.609207523002848,23244.86031210769,26.2634693197981,10.341645113918986,9.220558323409907,1.7324375909161382,3889,92,1124,2075,20.55089976422937,11.854363927023542,0.0002516938629351935,False
0.01,0.634704594834128,2.800000000000001,6151.0,12.07752,0.05,68900.0,0.33,276.0,2700.0,32.123144520494115,0.1606136282073715,433.656796159903,16.22866786771008,4.61468768837791,15.894476652784036,4.454074060170539,102694,510,34036,51634,831.3222092479544,473.4672756617379,0.00801199197110806,True
0.02,0.49949646466870085,2.800000000000001,6152.0,12.07752,0.1,68900.0,0.33,276.0,2700.0,23.24783186722001,0.23246156351138045,627.6462214807273,11.922869001999944,2.716706224976566,11.324962865220067,2.4842446614651856,19221,214,6352,9687,287.12375856283893,165.67358811018988,0.002958751301463729,True
0.03,0.35310391222883586,2.800000000000001,6153.0,12.07752,0.1,68900.0,0.33,276.0,2700.0,14.775154856368433,0.22157077417776072,598.2410902799539,7.778933383102727,1.2811784149314087,6.996221473265706,1.059607640753648,12597,168,4130,6396,300.8649319332529,172.43474940781113,0.0013244968304509577,True
0.04,0.4586780197145513,2.800000000000001,6154.0,12.07752,0.1,68900.0,0.33,276.0,2700.0,20.281811344437507,0.4055021856017767,1094.8559011247971,10.71326767246444,2.254862714259188,9.568543671973067,1.8493605286574113,16836,198,5520,8550,146.07663096210817,83.4820684047254,0.001379440810399886,False
0.05,0.7407990564019421,2.800000000000001,6155.0,12.07752,0.1,68900.0,0.33,276.0,2700.0,38.07891702700835,0.9517111262874115,2569.620040976011,19.929031296414514,6.530252367744907,18.149885730593837,5.578541241457496,31188,284,10248,15810,209.070510906509,119.22765973680606,0.002048009685407762,False
0.06000000000000001,0.4817388863349683,2.800000000000001,6156.0,12.07752,0.1,68900.0,0.33,276.0,2700.0,21.046219389179782,0.6309341923332756,1703.5223192998442,11.391500356389164,2.509714582503514,9.654719032790618,1.8787803901702385,17353,202,5700,8797,103.12180924993413,59.00806268540635,0.0010054023150831012,False
0.06999999999999999,0.5344354212820432,2.800000000000001,6157.0,12.07752,0.2,68900.0,0.33,276.0,2700.0,23.872845200355027,0.8348312044923044,2254.044252129222,12.991501102404925,3.151857944875815,10.881344097950102,2.3170267403835108,5034,110,1660,2538,92.80891630145626,53.58319505018237,0.0009906469562633552,False
0.08,0.6946644099923003,2.800000000000001,6158.0,12.07752,0.2,68900.0,0.33,276.0,2700.0,33.84665628442845,1.3527939210847089,3652.543586928714,18.28518534493785,5.648958336900194,15.561470939490597,4.296164415815485,7055,134,2308,3587,104.2964126293358,59.52227203391914,0.0012198152143333158,False
0.09,0.4032133565058115,2.800000000000001,6159.0,12.07752,0.05,68900.0,0.33,276.0,2700.0,15.879883982553382,0.7130679651852571,1925.2835060001942,9.136753101699224,1.7047327172896531,6.743130880854158,0.9916647521043961,59478,340,17076,31912,54.23103153748968,31.29987109224397,0.000560493109673118,False
0.09999999999999999,0.5395999329451788,2.800000000000001,6160.0,12.07752,0.1,68900.0,0.33,276.0,2700.0,23.31433714697895,1.1636224622465554,3141.7806480656996,13.152063937510073,3.2193670296577204,10.162273209468877,2.055744567411165,18775,212,6186,9490,64.95531130631582,37.4165592374852,0.0007203971255776605,False
0.11,0.5864411613962668,2.800000000000001,6161.0,12.07752,0.2,68900.0,0.33,276.0,2700.0,25.873461772068847,1.4202527575825,3834.68244547275,14.638952948661485,3.8700344649443617,11.234508823407362,2.4497817073618617,5422,114,1782,2743,64.96276428250584,37.47057933597392,0.0007321580611629978,False
0.12,0.7649902458487923,2.800000000000001,6162.0,12.07752,0.3,68900.0,0.33,276.0,2700.0,37.38740530531477,2.2396252035819573,6046.988049671285,20.812378029324858,7.023014293029025,16.575027275989914,4.783389089447068,3812,98,1246,1937,76.84148238364997,44.32868663153927,0.0009521354829111874,False
0.13,0.4877907610886106,2.800000000000001,6163.0,12.07752,0.2,68900.0,0.33,276.0,2700.0,19.474961396292347,1.261271104719043,3405.431982741416,11.571703325554495,2.5791993345913884,7.903258070737852,1.3179282298723454,4171,98,1372,2107,47.529993001883106,27.439875275603555,0.000501934225365767,False
0.14,0.46410383867384675,2.800000000000001,6164.0,12.07752,0.2,68900.0,0.33,276.0,2700.0,17.893587116292395,1.2468040779795022,3366.3710105446557,10.871641563977802,2.3134202845989433,7.021945552314593,1.0666162066194411,3765,94,1238,1902,41.90570978788817,24.1940500019685,0.0004437380217729931,False
0.15000000000000002,0.8157431501121197,2.800000000000001,6165.0,12.07752,0.3,68900.0,0.33,276.0,2700.0,39.995385469771975,2.9925853267623244,8079.980382258276,22.71342959254722,8.127271061677437,17.281955877224753,5.134685734915113,4009,102,1314,2032,65.76837873790716,37.97002382152585,0.0008421667804434827,False
0.16,0.5431925259146867,2.800000000000001,6166.0,12.07752,0.2,68900.0,0.33,276.0,2700.0,21.850828769843286,1.73948765924806,4696.616679969762,13.264151725161089,3.266818287878896,8.586677044682197,1.5273306286308361,4799,106,1580,2423,42.03113164776647,24.25701433321603,0.0004734191543811531,False
0.17,0.5224333344764507,2.800000000000001,6167.0,12.07752,0.08,68900.0,0.33,276.0,2700.0,20.38214018674887,1.7221921527353914,4649.9188123855565,12.620949594500917,2.9981601375950078,7.761190592247953,1.2759679848596164,35167,246,8676,19901,39.26254488492162,22.647758656241535,0.0004314635006180353,False
0.18000000000000002,0.8165801089233578,2.800000000000001,6168.0,12.07752,0.3,68900.0,0.33,276.0,2700.0,39.03694794522219,3.501110802832838,9452.999167648662,22.745322157375778,8.146294611862007,16.29162578784641,4.645183809029169,4033,102,1326,2038,55.2584040392996,31.88292814518629,0.0007116794054836603,False
0.19,0.722186548341081,2.800000000000001,6169.0,12.07752,0.3,68900.0,0.33,276.0,2700.0,32.18119674380926,3.042848234654568,8215.690233567333,19.2594027996654,6.16556834933034,12.921793944143861,3.122720114675772,3271,90,1078,1648,47.31304693045074,27.247684083344502,0.0005768532503179048,False
0.2,0.5062959475900286,2.800000000000001,6170.0,12.07752,0.08,68900.0,0.33,276.0,2700.0,18.696013060043015,1.8528461451851566,5002.684591999922,12.1284315073375,2.7984737701064244,6.567581552705514,0.9456276249212678,32989,234,7988,18815,33.709943546627855,19.455464030449654,0.00036355635849543246,False
0.21000000000000002,0.6844391657104467,2.800000000000001,6171.0,12.07752,0.1,68900.0,0.33,276.0,2700.0,29.10345242837292,3.0364663119358943,8198.459042226914,17.928086628503696,5.463815799945338,11.175365799869223,2.4273494880094435,31512,240,7738,17863,41.14732687692,23.749392752077323,0.0004948124712623045,False
0.22,0.5603033059949946,2.800000000000001,6172.0,12.07752,0.2,68900.0,0.33,276.0,2700.0,21.24464824934638,2.3146101883778196,6249.447508620113,13.802454410325444,3.49837316819541,7.442193839020936,1.1837629798175904,4392,102,1456,2202,32.38424490144838,18.693923952705266,0.0003725635679576999,False
0.23,0.8234325788478418,2.800000000000001,6173.0,12.07752,0.3,68900.0,0.33,276.0,2700.0,37.87271195943693,4.32987937012443,11690.67429933596,23.00709970708058,8.30305248535416,14.865612252356346,3.97317311522973,3907,100,1286,1972,44.9694966493051,25.960660983446644,0.0005742385075276437,False
0.24000000000000005,0.8435161132653501,2.800000000000001,6174.0,12.07752,0.3,68900.0,0.33,276.0,2700.0,38.975807966722705,4.64814403811125,12549.988902900377,23.781127436514446,8.772872004456719,15.19468053020826,4.124727966345469,3912,100,1284,1980,44.240434701560524,25.53801945613349,0.0005699791794900693,False
0.25,0.8477682032216098,2.800000000000001,6175.0,12.07752,0.3,68900.0,0.33,276.0,2700.0,38.95309388420431,4.836411812050648,13058.311892536749,23.946305077104316,8.874342511656398,15.00678880709999,4.03793069960575,3914,100,1288,1976,42.752908943637024,24.651475833676226,0.0005524169745330139,False
0.26,0.8139362755504143,2.800000000000001,6176.0,12.07752,0.3,68900.0,0.33,276.0,2700.0,36.24592706371049,4.675159429962125,12622.930460897738,22.6446381296126,8.08629290466534,13.60128893409789,3.411133474703215,3680,96,1214,1853,39.573744707618836,22.842798323103974,0.0005069080340062112,False
0.27,0.8890648818124127,2.800000000000001,6177.0,12.07752,0.3,68900.0,0.33,276.0,2700.0,41.281273421002254,5.531747933034903,14935.719419194238,25.574162625089496,9.896710426774792,15.707110795912758,4.364962493739889,3900,102,1288,1962,41.30327629666068,23.845370373273674,0.0005487934180921716,False
0.28,0.755408992132492,2.800000000000001,6178.0,12.07752,0.1,68900.0,0.33,276.0,2700.0,31.664761197031947,4.3870904062967355,11845.144097001186,20.460757331803286,6.825291944400675,11.20400386522866,2.4382015381039395,38535,252,8522,22668,35.4760933303175,20.47952657853288,0.00043588719636074405,False
0.29000000000000004,0.9188139987997248,2.800000000000001,6179.0,12.07752,0.3,68900.0,0.33,276.0,2700.0,42.80489615894978,6.155629740895453,16620.200300417724,26.773391027883825,10.675302033796719,16.031505131065956,4.519672292901266,4184,106,1376,2114,39.92405623764646,23.03936595482599,0.0005375080139470144,False
0.3,0.8821481191081402,2.800000000000001,6180.0,12.07752,0.3,68900.0,0.33,276.0,2700.0,39.79890801508189,5.913287534497666,15965.876343143698,25.298525219352037,9.720773964854793,14.500382795729855,3.8074864303571267,3961,102,1306,1996,37.229401500068505,21.430974481826336,0.0004938983935896026,False
0.31,0.9076810613693878,2.800000000000001,6181.0,12.07752,0.3,68900.0,0.33,276.0,2700.0,41.32594901842077,6.343127973359789,17126.445528071432,26.32200237571521,10.37975107743032,15.00394664270556,4.036623104070531,4078,104,1342,2059,36.963141504083076,21.305963417849078,0.0004979320001964881,False
0.32,0.6357241843126085,2.800000000000001,6182.0,12.07752,0.05,68900.0,0.33,276.0,2700.0,23.070030744757744,3.62257578044602,9780.954607204254,16.26288284128683,4.6312517077792075,6.807147903470913,1.0086759273331873,210055,412,24462,140488,36.58402448843894,20.5810819527059,0.000322128844512732,False
0.33,0.8091210652499599,2.800000000000001,6183.0,12.07752,0.3,68900.0,0.33,276.0,2700.0,33.77555008826168,5.497699487768472,14843.788616974874,22.461713784775263,7.977694853319995,11.313836303486418,2.479995365551523,3366,92,1112,1692,31.68740596079632,18.280293873290272,0.00040669468702613816,False
0.34,0.6497630388939237,2.800000000000001,6184.0,12.07752,0.05,68900.0,0.33,276.0,2700.0,23.392068379624764,3.8943335194317488,10514.700502465721,16.736649648326033,4.862883731713073,6.655418731298731,0.9685502122813245,222948,416,24994,149847,33.37234181097125,18.55204069254191,0.0003150060807162095,False
0.3500000000000001,0.8868150112825322,2.800000000000001,6185.0,12.07752,0.3,68900.0,0.33,276.0,2700.0,38.549770337879124,6.656412619113739,17972.314071607096,25.484371903681755,9.839272904559557,13.06539843419737,3.182860285445818,3723,98,1226,1878,33.12134264542136,19.107043488607,0.00043483962116088273,False
0.36000000000000004,0.9567605289297878,2.800000000000001,6186.0,12.07752,0.3,68900.0,0.33,276.0,2700.0,43.30928405560127,7.697955032110969,20784.478586699617,28.3353492692686,11.720780331652042,14.973934786332666,4.022825299541073,4208,106,1384,2122,34.145941874659655,19.69756318075588,0.00046691556026107856,False
0.37,0.8495015384095806,2.800000000000001,6187.0,12.07752,0.3,68900.0,0.33,276.0,2700.0,35.338882249110995,6.4316058209640135,17365.335716602836,24.013768977697172,8.91590794273781,11.325113271413823,2.484302121773797,3541,94,1174,1774,29.93617347358602,17.23004643760883,0.00039203793891373986,False
0.38,1.0199085401813694,2.800000000000001,6188.0,12.07752,0.3,68900.0,0.33,276.0,2700.0,47.41844908280368,8.894581677674186,24015.3705297203,31.01487567575892,13.594177270968482,16.403573407044764,4.699595593294296,4549,112,1508,2281,34.36961550031596,19.798954888337402,0.00048453466125146516,False
0.39,0.845793379554117,2.800000000000001,6189.0,12.07752,0.2,68900.0,0.33,276.0,2700.0,34.49890346050165,6.603048751718962,17828.2316296412,23.86953412030174,8.827128602322706,10.629369340199911,2.2240798506037436,9413,134,2342,5300,30.592947804888944,17.65528631015375,0.00037910564005001296,False
0.4,0.8941698118194761,2.800000000000001,6190.0,12.07752,0.2,68900.0,0.33,276.0,2700.0,37.541013434348535,7.37416140031587,19910.23578085285,25.778368539043978,10.02778568678536,11.762644895304557,2.6536242864694906,10577,142,2632,5959,31.019221938403312,17.902601924638304,0.0003975807201698952,False
0.4100000000000001,1.072109167688039,2.800000000000001,6191.0,12.07752,0.3,68900.0,0.33,276.0,2700.0,50.46292887786894,10.200552615111096,27541.49206079996,33.30554302260889,15.272662469259322,17.157385855260053,5.072109854148225,4647,114,1542,2328,33.480755931405426,19.296527889395648,0.0004842134909623046,False
0.42000000000000004,0.8001907800649117,2.800000000000001,6192.0,12.07752,0.2,68900.0,0.33,276.0,2700.0,30.629076930669708,6.2769366110945315,16947.728849955234,22.124004977655286,7.778614753063202,8.505071953014422,1.5016781419686707,8435,124,2124,4725,27.798977756149405,16.04855750267878,0.00033483175632614365,False
0.43,0.9881834605329285,2.800000000000001,6193.0,12.07752,0.3,68900.0,0.33,276.0,2700.0,43.391539712113236,9.162661966698375,24739.18731008561,29.656174675697027,12.6318471940504,13.735365036416209,3.4691852273520247,3986,104,1330,1985,30.37950187590948,17.522014787928782,0.0004184306379019761,False
0.44,0.9786170358012818,2.800000000000001,6194.0,12.07752,0.3,68900.0,0.33,276.0,2700.0,42.37288831566487,9.143626477043995,24687.791488018785,29.251433950603065,12.35008142564063,13.121454365061808,3.206454948596635,4100,104,1362,2047,29.39886062800605,16.92415464755943,0.000405451931450968,False
0.45,1.0084532367642303,2.800000000000001,6195.0,12.07752,0.3,68900.0,0.33,276.0,2700.0,44.265254259791334,9.768830454747295,26375.8422278177,30.521357552908157,13.241722307894616,13.743896706883177,3.4728918531473205,4186,106,1394,2087,29.74437222345533,17.108601849615162,0.0004129917056888479,False
0.46,1.0736764372830676,2.800000000000001,6196.0,12.07752,0.3,68900.0,0.33,276.0,2700.0,48.904216362276046,11.044109721636941,29819.09624841974,33.37537688213222,15.324915950364073,15.528839480143823,4.280806228727132,4626,112,1510,2333,30.375580925284936,17.480507725367374,0.00043962319029506393,False
0.4700000000000001,0.8551681799111428,2.800000000000001,6197.0,12.07752,0.1,68900.0,0.33,276.0,2700.0,32.87536027064209,7.5082632808851235,20272.310858389832,24.234849767683333,9.052611374328361,8.640510502958758,1.5443480934432374,58922,256,8832,37936,28.579572145074177,16.13964955573192,0.000333186338698,False
0.4800000000000001,0.926844092426695,2.800000000000001,6198.0,12.07752,0.3,68900.0,0.33,276.0,2700.0,37.47132216529307,8.761493976506468,23656.033736567464,27.10090757053538,10.89160878023581,10.370414594757687,2.1301148037293416,4013,96,1220,2097,28.94908936272882,16.69670315918476,0.00035455476011709316,False
0.49,0.9346665758233966,2.800000000000001,6199.0,12.07752,0.3,68900.0,0.33,276.0,2700.0,37.72922569156873,8.997256805032881,24292.59337358878,27.421514804654652,11.10485814960586,10.307710886914077,2.107601344572979,3808,96,1168,1980,27.599094608351155,15.841357446591738,0.00035319351825949827,False
0.5,1.0633852088403333,2.800000000000001,6200.0,12.07752,0.3,68900.0,0.33,276.0,2700.0,46.81814473738606,11.442736796547363,30895.38935067788,32.91795207698152,14.983798336850366,13.900192660404542,3.5410615403030032,4556,108,1436,2334,30.65826869467385,17.66160405260454,0.00040515706404995583,False
0.01,0.47984506504452185,2.800000000000001,6201.0,15.0969,0.05,68900.0,0.33,276.0,2700.0,22.37532581932865,0.1118745347015418,302.06124369416284,11.335298294682326,2.488194349154733,11.040027524646325,2.376319814453191,72904,416,24162,36655,767.8797849317756,436.1077194319189,0.006896428842559998,True
0.02,0.6146214623424894,2.800000000000001,6202.0,15.0969,0.1,68900.0,0.33,276.0,2700.0,30.464329576110575,0.3046265406002877,822.4916596207768,15.560051924200149,4.295496117682881,14.904277651910427,3.9908695770825933,25268,250,8368,12710,436.9403478191152,252.10117958995457,0.004810271420434785,True
0.03,0.44275685546767757,2.800000000000001,6203.0,15.0969,0.1,68900.0,0.33,276.0,2700.0,19.655324801386435,0.29477332335303286,795.8879730531887,10.252816718953952,2.0879689301134188,9.402508082432483,1.7931956067603858,15941,192,5242,8072,230.43925364654902,131.39432678275185,0.0021648607526902953,False
0.04,0.35665888109449073,2.800000000000001,6204.0,15.0969,0.1,68900.0,0.33,276.0,2700.0,14.70420269420773,0.293950012597602,793.6650340135254,7.873182935123877,1.3089997139329752,6.831019759083853,1.0150497013353732,12196,164,3998,6193,136.8684802962382,78.18884915895912,0.001280937451922997,False
0.05,0.7329289658519682,2.800000000000001,6205.0,15.0969,0.1,68900.0,0.33,276.0,2700.0,37.520392238725655,0.9377480065803354,2531.9196177669055,19.644823978542185,6.37452847646649,17.87556826018347,5.436780469886155,30834,282,10126,15639,264.1037637340153,150.64814090821818,0.002522410709237242,False
0.06000000000000001,0.6980878582945317,2.800000000000001,6206.0,15.0969,0.2,68900.0,0.33,276.0,2700.0,34.74763299597004,1.0419766005369835,2813.3368214498555,18.405330441605056,5.711762294855897,16.34230255436498,4.6697856943189135,7347,138,2404,3735,171.3501139361251,97.8598444497918,0.002000054330607967,False
0.06999999999999999,0.6651629385257057,2.800000000000001,6207.0,15.0969,0.1,68900.0,0.33,276.0,2700.0,32.18394397685661,1.1257196616698624,3039.4430865086283,17.262044420838244,5.124664320717195,14.921899556018367,3.998944659047333,26690,258,8782,13511,158.99107471619985,91.00340068141763,0.001629281747633179,False
0.08,0.5263048565825181,2.800000000000001,6208.0,15.0969,0.2,68900.0,0.33,276.0,2700.0,23.09495878417522,0.9227260210745852,2491.36025690138,12.740083111242024,3.0472529154356667,10.354875672933195,2.1245268943610816,4979,110,1632,2525,99.29821034390409,57.32656210484331,0.0010735205226552141,False
0.09,0.7443491916343732,2.800000000000001,6209.0,15.0969,0.2,68900.0,0.33,276.0,2700.0,36.950235577135295,1.6612337869414455,4485.331224741903,20.05774443905598,6.6012315047182275,16.892491138079315,4.939997717776782,7663,142,2518,3880,125.5916738395247,71.91093923128362,0.0014953217047175775,False
0.09999999999999999,0.6395835654896649,2.800000000000001,6210.0,15.0969,0.3,68900.0,0.33,276.0,2700.0,29.544185044941862,1.4751148571447015,3982.810114290694,16.392631024683922,4.694266625154041,13.15155402025794,3.2191517680093398,3049,86,1000,1543,97.92632987586313,56.537784472107305,0.0011160913042417189,False
0.11,0.6894183831499126,2.800000000000001,6211.0,15.0969,0.3,68900.0,0.33,276.0,2700.0,32.514162517502264,1.785491298581337,4820.826506169609,18.101648814051458,5.553515484924372,14.412513703450806,3.768024186343035,3368,92,1102,1709,95.56342281964433,55.169892789787504,0.001126259576831872,False
0.12,0.6825955866869771,2.800000000000001,6212.0,15.0969,0.3,68900.0,0.33,276.0,2700.0,31.739110614860405,1.9007275221546849,5131.964309817649,17.863982465257124,5.430823059174748,13.875128149603281,3.5300955370200633,3093,88,1016,1563,87.37582712791166,50.44453763208684,0.0010247495022929782,False
0.13,0.60750735771879,2.800000000000001,6213.0,15.0969,0.2,68900.0,0.33,276.0,2700.0,26.59168514481932,1.7238581483732975,4654.417000607903,15.325637605670781,4.185634858420942,11.266047539148538,2.461776710047644,5459,116,1798,2756,71.7089489947729,41.40111250783683,0.0008197375320552807,False
0.14,0.44593008025047387,2.800000000000001,6214.0,15.0969,0.08,68900.0,0.33,276.0,2700.0,16.90241030589865,1.1774217012519386,3179.038593380234,10.344080213048377,2.120648155089284,6.558330092850271,0.9432264538373456,24567,222,7274,13024,51.154873992783834,29.50682592106432,0.0005310209845720677,False
0.15000000000000002,0.5825277114645434,2.800000000000001,6215.0,15.0969,0.3,68900.0,0.33,276.0,2700.0,24.472960877942946,1.8284034823751456,4936.689402412893,14.512616551377338,3.8129929866368166,9.960344326565608,1.984589504261671,2707,80,882,1378,62.293596540669895,35.96466571942713,0.0006828327324740437,False
0.16,0.49872623931066434,2.800000000000001,6216.0,15.0969,0.1,68900.0,0.33,276.0,2700.0,19.300648377066672,1.5354732278259295,4145.77771513001,11.899656754803107,2.7075318692183825,7.4009916222635646,1.172058641392453,16048,192,5262,8109,49.294179298714404,28.45969805823103,0.0005356904562112947,False
0.17,0.6767032534722758,2.800000000000001,6217.0,15.0969,0.3,68900.0,0.33,276.0,2700.0,29.800451610132683,2.522748623723226,6811.42128405271,17.65966951224039,5.326164890417585,12.140782097892291,2.8034162666943594,3004,86,984,1522,62.379044385953044,36.00718577608247,0.0007351013883074526,False
0.18000000000000002,0.6065605180573006,2.800000000000001,6218.0,15.0969,0.3,68900.0,0.33,276.0,2700.0,25.085478960450203,2.245478594203363,6062.79220434908,15.294534542271975,4.1711386634831085,9.790944418178228,1.9256600692797456,2596,78,846,1321,53.64694638813318,30.97023809368478,0.0006080612678655741,False
0.19,0.6678848088986808,2.800000000000001,6219.0,15.0969,0.3,68900.0,0.33,276.0,2700.0,28.63274528814923,2.7057453463668635,7305.5124351905315,17.355525673096245,5.171776547694853,11.277219615052985,2.46603120132799,2803,82,914,1426,56.04177893150801,32.32598439215691,0.0006525399471296534,False
0.2,0.6490450125872111,2.800000000000001,6220.0,15.0969,0.2,68900.0,0.33,276.0,2700.0,27.146211672366263,2.697866006417488,7284.238217327218,16.71229834462072,4.850875120193079,10.433913327745543,2.1530091137755907,5849,120,1924,2957,50.62838695096283,29.18344951150375,0.0006010636251377289,False
0.21000000000000002,0.709351423633457,2.800000000000001,6221.0,15.0969,0.3,68900.0,0.33,276.0,2700.0,30.721198162945974,3.20632961406606,8657.089957978362,18.802701395629438,5.921306850862616,11.918496767316537,2.7149772367965563,3001,86,986,1516,53.58147253241425,30.935277537919568,0.0006441574687311124,False
0.22,0.7770019023689019,2.800000000000001,6222.0,15.0969,0.3,68900.0,0.33,276.0,2700.0,34.95447075815066,3.822690664346289,10321.26479373498,21.256450936929696,7.275668825230412,13.698019821220967,3.452978160884123,3479,94,1144,1757,55.092133491537915,31.807080110178184,0.000692296079482972,False
0.23,0.6122447427951591,2.800000000000001,6223.0,15.0969,0.2,68900.0,0.33,276.0,2700.0,24.042482264551438,2.739402955212597,7396.387979074012,15.481595997708851,4.258607500102726,8.560886266842587,1.5192045448901288,4939,108,1636,2479,42.613739133948556,24.497243923704946,0.0004971453435392713,False
0.24000000000000005,0.5818965318399179,2.800000000000001,6224.0,15.0969,0.2,68900.0,0.33,276.0,2700.0,21.97615816925656,2.608186062415303,7042.102368521319,14.492276468941634,3.8038393384190274,7.483881700314926,1.1956532760037244,4641,104,1534,2334,38.924353844250184,22.379573610002012,0.00045233078853045147,False
0.25,0.8949232247135103,2.800000000000001,6225.0,15.0969,0.3,68900.0,0.33,276.0,2700.0,42.38132360308793,5.264940526911095,14215.339422659958,25.808561805644942,10.047218815130904,16.572761797442986,4.782278288219809,4011,104,1322,2022,55.35955235075504,31.96150606299927,0.0007417064971680989,False
0.26,0.6469972407555574,2.800000000000001,6226.0,15.0969,0.05,68900.0,0.33,276.0,2700.0,25.333357907071374,3.256525439599617,8792.618686918966,16.642920928172263,4.816723198944967,8.690436978899111,1.5601977593453498,197331,442,27274,128758,48.18862446709985,27.121642241897998,0.00048390201070408424,False
0.27,0.8191059410938055,2.800000000000001,6227.0,15.0969,0.3,68900.0,0.33,276.0,2700.0,36.291031321281054,4.8580652495725385,13116.776173845854,22.841676481477236,8.203867131970227,13.449354839803817,3.345801882397689,3679,96,1214,1852,47.833354099921685,27.61052390267907,0.0006164766743948547,False
0.28,0.7842498411346888,2.800000000000001,6228.0,15.0969,0.3,68900.0,0.33,276.0,2700.0,33.59261382460199,4.656989774156539,12573.872390222656,21.526162588858735,7.430710909320423,12.066451235743255,2.7737211351638837,3421,92,1128,1723,44.586565011561305,25.692864719999527,0.0005638860730734857,False
0.29000000000000004,0.8709663449840758,2.800000000000001,6229.0,15.0969,0.3,68900.0,0.33,276.0,2700.0,39.31778646985443,5.649998835976636,15254.996857136919,24.855467491582402,9.440371584030702,14.46231897827203,3.7903727480540654,3975,102,1308,2007,47.43895083302597,27.382658848656362,0.0006260640980633,False
0.3,0.9823443407758462,2.800000000000001,6230.0,15.0969,0.3,68900.0,0.33,276.0,2700.0,47.26410985857806,7.0330678110220335,18989.28308975949,29.408856997790544,12.459403714317872,17.855252860787516,5.426335903295839,4554,112,1506,2289,51.11199057071675,29.503591976349252,0.0007117499449297485,False
0.31,0.7019225829485218,2.800000000000001,6231.0,15.0969,0.2,68900.0,0.33,276.0,2700.0,27.36555727931924,4.179267253799084,11284.021585257527,18.540258944130613,5.782600257989672,8.825298335188627,1.6033330041905876,5996,120,1930,3047,36.66345894907182,21.129687251626475,0.0004553594458815064,False
0.32,0.9114783222129125,2.800000000000001,6232.0,15.0969,0.3,68900.0,0.33,276.0,2700.0,41.27774577270161,6.535810184917036,17646.687499276,26.47561353775422,10.479994122524515,14.802132234947386,3.9441839376074785,4026,104,1330,2025,45.14422469905095,25.998277139805243,0.0006060766417860294,False
0.33,0.9713983622154247,2.800000000000001,6233.0,15.0969,0.3,68900.0,0.33,276.0,2700.0,45.40131749831412,7.41595111042713,20023.067998153252,28.947545586269754,12.14002249531423,16.453771912044367,4.7240713848871,4437,110,1466,2232,46.80629371578942,26.98945124256003,0.000643109582296518,False
0.34,0.6787638451841415,2.800000000000001,6234.0,15.0969,0.08,68900.0,0.33,276.0,2700.0,25.132993396176204,4.190290772245494,11313.785085062835,17.73102001578751,5.362627752852322,7.401973380388693,1.1723369806068273,65203,274,10618,41238,39.60719594781989,22.348030302227887,0.00041220317093179436,False
0.3500000000000001,0.763456752539251,2.800000000000001,6235.0,15.0969,0.3,68900.0,0.33,276.0,2700.0,30.178033552390207,5.19135868165318,14016.668440463587,20.75594555173877,6.991141927531557,9.422088000651438,1.799783245878377,2928,84,966,1473,36.165518067742234,20.7856232253875,0.0004518859926829719,False
0.36000000000000004,0.8067807849495421,2.800000000000001,6236.0,15.0969,0.3,68900.0,0.33,276.0,2700.0,32.74160955363271,5.795773621756496,15648.588778742538,22.373019641183376,7.925231958459585,10.368589912449337,2.129458336703089,3348,90,1104,1686,37.62504200115752,21.70936356109847,0.0004720549431751639,False
0.37,0.807970696784194,2.800000000000001,6237.0,15.0969,0.3,68900.0,0.33,276.0,2700.0,32.5337420101927,5.912654876764126,15964.16816726314,22.418098837555405,7.951880695913267,10.115643172637292,2.0392258191491406,3229,90,1064,1627,36.346642582908466,20.97334931777059,0.0004625238046886089,False
0.38,0.9766874992833315,2.800000000000001,6238.0,15.0969,0.3,68900.0,0.33,276.0,2700.0,44.14163170568252,8.271986376021157,22334.363215257126,29.170076972258347,12.293718221306756,14.971554733424174,4.021731845285599,4310,108,1422,2167,41.27661684734323,23.751004054065945,0.0005731122090959937,False
0.39,0.8401895150346101,2.800000000000001,6239.0,15.0969,0.2,68900.0,0.33,276.0,2700.0,34.11919994404952,6.529006566010795,17628.317728229147,23.65221846909001,8.69397623927375,10.46698147495951,2.164969673262955,9409,134,2350,5292,37.70881941159348,21.74210264517337,0.0004702852833304589,False
0.4,0.73839664257241,2.800000000000001,6240.0,15.0969,0.08,68900.0,0.33,276.0,2700.0,27.234497987509855,5.312858310948809,14344.717439561786,19.842109465012125,6.482479027494516,7.392388522497729,1.1696207165457064,78904,284,11386,51141,33.813481463602834,19.5171567730775,0.00039980606087772794,False
0.4100000000000001,0.9679494395892696,2.800000000000001,6241.0,15.0969,0.3,68900.0,0.33,276.0,2700.0,42.53078239153308,8.574462585412244,23151.048980613057,28.802816783425147,12.040434315514386,13.727965608107933,3.465971730102142,4055,104,1348,2023,38.93083036269808,22.329279040279765,0.000530492601199192,False
0.42000000000000004,0.743242297911188,2.800000000000001,6242.0,15.0969,0.08,68900.0,0.33,276.0,2700.0,27.017359171472926,5.51847588166321,14899.884880490667,20.017579090335957,6.5790519455239584,6.999780081136969,1.0605760638607489,82028,284,11384,53466,35.41050027287245,19.999802538764413,0.0003877327825015473,False
0.43,0.8139465621293862,2.800000000000001,6243.0,15.0969,0.2,68900.0,0.33,276.0,2700.0,31.252241296703357,6.552712807385253,17692.324579940185,22.64502952877689,8.086525842536282,8.607211767926465,1.533813035151029,8655,128,2142,4882,34.12668546839562,19.70115816071548,0.00041932655456859637,False
0.44,0.9112139807732803,2.800000000000001,6244.0,15.0969,0.2,68900.0,0.33,276.0,2700.0,37.54520748844049,8.081536695054645,21820.14907664754,26.46490835818124,10.472996935676772,11.080299130259249,2.391460240622127,10206,140,2538,5749,36.334613740488045,20.95381746175851,0.0004702463299195918,False
0.45,1.1232168804673166,2.800000000000001,6245.0,15.0969,0.3,68900.0,0.33,276.0,2700.0,53.153792296341926,11.768751512971349,31775.629085022643,35.61459968710574,17.033558310788553,17.53919260923619,5.264806797817204,4909,118,1630,2456,40.19966073961754,23.149090039462667,0.0005936085676250242,False
0.46,0.9703586860878884,2.800000000000001,6246.0,15.0969,0.3,68900.0,0.33,276.0,2700.0,41.155696776400454,9.261950216885555,25007.265585590998,28.903885679016465,12.109949121652775,12.251811097383989,2.84799890476722,3925,102,1300,1959,34.80477887881487,19.897707965724546,0.00048157318897633827,False
0.4700000000000001,0.8208678545921808,2.800000000000001,6247.0,15.0969,0.1,68900.0,0.33,276.0,2700.0,30.628797718707045,6.980321081180383,18846.866919187036,22.908984109644766,8.244171473742313,7.719813609062278,1.2638503925619293,54711,244,8238,35198,34.48199083940779,19.79980961197176,0.0003974376115732333,False
0.4800000000000001,0.8041112429504031,2.800000000000001,6248.0,15.0969,0.08,68900.0,0.33,276.0,2700.0,29.29415101812118,6.798972901185203,18357.22683320005,22.272014889873198,7.865641100937014,7.022136128247983,1.0666681997518115,98841,296,12216,65527,34.226128613652754,19.592735053636613,0.00038284337701494656,False
0.49,0.901363174191697,2.800000000000001,6249.0,15.0969,0.2,68900.0,0.33,276.0,2700.0,35.43078293180992,8.434138328891974,22772.17348800833,26.067227009840085,10.214256985308522,9.363555921969837,1.7801186564165477,9939,136,2462,5606,33.63689486440101,19.417912052385873,0.00042551750208462213,False
0.5,0.8274211637742251,2.800000000000001,6250.0,15.0969,0.1,68900.0,0.33,276.0,2700.0,30.267481644297686,7.30507102327527,19723.691762843227,23.1600147094553,8.395123080785375,7.107466934842385,1.0900520575101051,55577,240,7992,36029,34.76097172401111,19.628541403736047,0.00038293884313867193,False
0.01,0.4046129473910239,2.800000000000001,6251.0,18.11628,0.05,68900.0,0.33,276.0,2700.0,18.074804843597658,0.09037192982288522,244.0042105217901,9.175583860091463,1.7175476014969995,8.899220983506195,1.6271756716741144,58983,366,19514,29706,745.7323217502376,423.86038368115766,0.006712257008236714,True
0.02,0.7064368460787985,2.800000000000001,6252.0,18.11628,0.1,68900.0,0.33,276.0,2700.0,36.697216855989865,0.3669554133990803,990.7796161775168,18.69957128694239,5.866655261612345,17.997645569047474,5.499699848213265,30138,280,9990,15147,677.251611601255,385.34119732221734,0.007131838246380872,True
0.03,0.6478068676404303,2.800000000000001,6253.0,18.11628,0.1,68900.0,0.33,276.0,2700.0,32.33576341230314,0.48497990251645673,1309.445736794433,16.670338057835224,4.830208852882374,15.665425354467914,4.345228950365918,26739,258,8806,13524,437.6747283714828,249.41048836309633,0.004179263152955384,True
0.04,0.6205853581697038,2.800000000000001,6254.0,18.11628,0.1,68900.0,0.33,276.0,2700.0,30.207601486594925,0.6040179884453449,1630.8485688024314,15.757546248352245,4.3888831199409,14.45005523824268,3.784865131495555,24972,248,8196,12672,320.15550060334346,182.7883071803307,0.003009851269555482,True
0.05,0.6738712274773822,2.800000000000001,6255.0,18.11628,0.2,68900.0,0.33,276.0,2700.0,33.42852097401357,0.8354512249625402,2255.7183073988585,17.561781274783105,5.276290905886108,15.866739699230468,4.440839680923568,6949,134,2290,3508,234.8703730404548,135.32420770762465,0.002718681299686032,False
0.06000000000000001,0.44242312863087074,2.800000000000001,6256.0,18.11628,0.1,68900.0,0.33,276.0,2700.0,18.80897200109658,0.5638167706907814,1522.3052808651098,10.243233279409923,2.08454888922477,8.565738721686659,1.5207321185339886,15460,188,5078,7837,143.7428307508604,82.45072713677119,0.0013610008728648238,False
0.06999999999999999,0.6134275542549745,2.800000000000001,6257.0,18.11628,0.2,68900.0,0.33,276.0,2700.0,28.792118905584747,1.0070057841753475,2718.9156172734383,15.52062306431875,4.2769423866300516,13.271495841265997,3.2699366024547043,6345,124,2080,3219,163.63094434940444,93.79297851961111,0.001766736540315044,False
0.08,0.5666078288643756,2.800000000000001,6258.0,18.11628,0.2,68900.0,0.33,276.0,2700.0,25.539056370865907,1.0204899245415378,2755.3227962621518,14.002648871510884,3.586021598132565,11.536407499355024,2.5655316735910274,5450,114,1792,2756,127.66345408192707,73.62662375476815,0.0014130621059894395,False
0.09,0.39056524889832467,2.800000000000001,6259.0,18.11628,0.05,68900.0,0.33,276.0,2700.0,15.211131440745959,0.6829741008039237,1844.0300721705942,8.788072158096574,1.5913793956733862,6.423059282649385,0.9084052948694624,57546,334,16482,30885,79.13215357506621,45.64530632444136,0.0008109647562747514,False
0.09999999999999999,0.5635446985281196,2.800000000000001,6260.0,18.11628,0.2,68900.0,0.33,276.0,2700.0,24.760543811871695,1.2359327954911918,3337.018547826218,13.905257149815357,3.5432788815489995,10.855286662056338,2.307346086057808,5193,112,1704,2631,103.29796944011922,59.61833985564862,0.001140682832698528,False
0.11,0.5881346243225201,2.800000000000001,6261.0,18.11628,0.2,68900.0,0.33,276.0,2700.0,25.978357482901938,1.4260220216783213,3850.2594585314673,14.693741679180857,3.8948713702125257,11.284615803721081,2.4688493485342047,5682,116,1856,2892,97.76422709341969,56.35748619519467,0.0011026759963820314,False
0.12,0.4275539244751777,2.800000000000001,6262.0,18.11628,0.05,68900.0,0.33,276.0,2700.0,16.418500587447234,0.9814909205098973,2650.025485376723,9.819083685615858,1.9354004311130382,6.5994169018313755,0.9539095106031409,72196,346,17628,41058,66.47500518067352,38.356792644769115,0.0006967018611342259,False
0.13,0.6800069735775915,2.800000000000001,6263.0,18.11628,0.3,68900.0,0.33,276.0,2700.0,31.25176802934041,2.026763535867169,5472.261546841357,17.774116463427774,5.384696470464115,13.477651565912637,3.3579329345969455,3105,88,1018,1572,97.08374975649393,56.04547319570775,0.0011367016493979687,False
0.14,0.7537472896648445,2.800000000000001,6264.0,18.11628,0.3,68900.0,0.33,276.0,2700.0,35.93118841000939,2.5094361685396898,6775.477655057162,20.400009584000777,6.791342735403584,15.531178826008613,4.281906566863894,3552,94,1158,1809,98.37673945465029,56.75213625098585,0.0012132200353118633,False
0.15000000000000002,0.8419569505678184,2.800000000000001,6265.0,18.11628,0.3,68900.0,0.33,276.0,2700.0,41.91105001008671,3.1362601672859287,8467.902451672007,23.720673712465167,8.735840494186508,18.190376297621544,5.599580326900579,4161,104,1368,2103,101.5357774602476,58.562877011719465,0.0013173966688907743,False
0.16,0.7010143605228879,2.800000000000001,6266.0,18.11628,0.3,68900.0,0.33,276.0,2700.0,31.70442378228422,2.5277752602433363,6824.993202657008,18.50826885773752,5.765776107665526,13.1961549245467,3.2380008474221897,3153,88,1030,1602,82.07741266467,47.361018110551846,0.0009750045856133276,False
0.17,0.6347200389526355,2.800000000000001,6267.0,18.11628,0.3,68900.0,0.33,276.0,2700.0,27.1188605216428,2.294813381201583,6195.996129244275,16.22918594034534,4.614938329848258,10.889674581297463,2.3201249486466744,2891,82,936,1481,70.92298618634324,40.94723883557817,0.0008131023575963954,False
0.18000000000000002,0.8537536948104798,2.800000000000001,6268.0,18.11628,0.3,68900.0,0.33,276.0,2700.0,41.73731200073291,3.7441435678288086,10109.187633137783,24.17958885544915,9.018370629210926,17.557723145283763,5.274227061382117,4140,104,1364,2088,86.10896259569829,49.61520992647502,0.0011325260378032033,False
0.19,0.7518744369688521,2.800000000000001,6269.0,18.11628,0.3,68900.0,0.33,276.0,2700.0,34.1838766996814,3.2331028304624145,8729.377642248519,20.3316258897398,6.7532005725074455,13.852250809941598,3.520097742045031,3291,90,1080,1665,73.27190877715363,42.290816311893664,0.0009114491450108867,False
0.2,0.6187780133348241,2.800000000000001,6270.0,18.11628,0.2,68900.0,0.33,276.0,2700.0,25.268956810417283,2.5101405202225817,6777.379404600971,15.697601647648197,4.360457982765438,9.571355162769086,1.8503174625428565,5331,114,1756,2691,122.53932418786552,70.06090887479955,0.000674921653239226,False
0.21000000000000002,0.5842147602314993,2.800000000000001,6271.0,18.11628,0.2,68900.0,0.33,276.0,2700.0,22.910314515873882,2.3861868311234935,6442.704444033432,14.5670316972452,3.8375223689411166,8.343282818628682,1.4513355378176231,4753,106,1570,2392,52.821534592061326,30.490226930467347,0.0006097998957635613,False
0.22,0.8034071868436635,2.800000000000001,6272.0,18.11628,0.3,68900.0,0.33,276.0,2700.0,36.786380866661446,4.024200776282475,10865.342095962684,22.245406081180317,7.8499697206224655,14.54097478548113,3.8257689443399903,3770,98,1232,1916,68.67899514011094,39.650287657572505,0.0008676936911980436,False
0.23,0.8563235284507471,2.800000000000001,6273.0,18.11628,0.3,68900.0,0.33,276.0,2700.0,40.22843356468069,4.600787354727457,12422.125857764133,24.28002407809317,9.080637165421795,15.948409486587522,4.479849810694338,3998,102,1310,2027,68.60635480304744,39.57601694405897,0.0009067277543585892,False
0.24000000000000005,0.591221081092109,2.800000000000001,6274.0,18.11628,0.1,68900.0,0.33,276.0,2700.0,22.52292774286327,2.67379841124811,7219.255710369896,14.793783433756563,3.940377294384218,7.729144309106708,1.2665788831361082,25655,210,6326,14522,49.53219761795485,28.57831622236551,0.0005580408246819834,False
0.25,0.8486395182731648,2.800000000000001,6275.0,18.11628,0.3,68900.0,0.33,276.0,2700.0,39.01542604536549,4.84420333219579,13079.348996928633,23.980208474649835,8.895222056584062,15.035217570715652,4.051018724388272,3914,100,1288,1976,64.18287786634279,37.00779858171205,0.0008297359592799109,False
0.26,0.7164070611144095,2.800000000000001,6276.0,18.11628,0.2,68900.0,0.33,276.0,2700.0,29.70044420681749,3.8242466585666115,10325.46597812985,19.053243755040736,6.054855027960113,10.647200451776754,2.2306083693935017,6207,124,2056,3117,52.82749406803205,30.48326418020218,0.0006475876785460176,False
0.27,0.8029693183552891,2.800000000000001,6277.0,18.11628,0.3,68900.0,0.33,276.0,2700.0,35.174906384235435,4.7073883830713825,12709.948634292732,22.228863741869432,7.840232780148806,12.946042642366002,3.132844397077424,3452,94,1138,1739,56.90687744810868,32.85073174486466,0.0007212704307559961,False
0.28,0.6282220562666994,2.800000000000001,6278.0,18.11628,0.08,68900.0,0.33,276.0,2700.0,23.661763479254606,3.266670725807909,8820.010959681355,16.011740584364222,4.510188413318102,7.650022894890384,1.243517687510193,54513,266,10070,33590,46.13406872156885,26.62334558748312,0.0005287959390743701,False
0.29000000000000004,0.6905498608331875,2.800000000000001,6279.0,18.11628,0.1,68900.0,0.33,276.0,2700.0,27.20416808409372,3.8935241700413235,10512.515259111573,18.141175981315925,5.574019455607908,9.062992102777795,1.6804952855665842,35508,232,7380,21262,48.60125220863676,28.040434496778975,0.0005714009221988835,False
0.3,0.7906969333832263,2.800000000000001,6280.0,18.11628,0.3,68900.0,0.33,276.0,2700.0,33.425748301522,4.95731357746368,13384.746659151935,21.767182514689527,7.570268442893465,11.658565786832472,2.612954865429785,3400,92,1116,1720,50.95237467727009,29.389909964826128,0.000643490866285344,False
0.31,0.8755143607010232,2.800000000000001,6281.0,18.11628,0.3,68900.0,0.33,276.0,2700.0,39.00315048491543,5.9830942006665015,16154.354341799553,25.03529531753017,9.553823373697442,13.96785516738526,3.5707291730309407,3671,98,1218,1838,54.142233727204406,31.224707816008802,0.0007112819742554988,False
0.32,1.0082218871519957,2.800000000000001,6282.0,18.11628,0.3,68900.0,0.33,276.0,2700.0,48.571309801936046,7.702780429594541,20797.50715990526,30.511424509676672,13.234662352688057,18.059885292259374,5.531881923093516,4716,114,1558,2373,59.596387770161606,34.36303978995358,0.0008329481025237985,False
0.33,0.731733606465007,2.800000000000001,6283.0,18.11628,0.1,68900.0,0.33,276.0,2700.0,28.697544859503374,4.659828625023352,12581.537287563051,19.6017929393577,6.351071574074137,9.095751920145673,1.6912429490507845,41057,238,7706,25224,46.038950940869675,26.573448711852713,0.0005505910725594995,False
0.34,0.9676436093801715,2.800000000000001,6284.0,18.11628,0.3,68900.0,0.33,276.0,2700.0,44.78243266848316,7.530695448537673,20332.87771105172,28.789997513098832,12.031627504354871,15.992435155384328,4.500932055817198,4428,110,1464,2226,61.659319714585735,35.54670738286089,0.0007657769433203118,False
0.3500000000000001,1.0187927477173937,2.800000000000001,6285.0,18.11628,0.3,68900.0,0.33,276.0,2700.0,48.35340984147976,8.372049532242773,22604.533737055488,30.966660057591014,13.559598008640153,17.386749783888746,5.18754847639738,4517,112,1492,2273,55.63995251391639,32.12194947626604,0.0009034001873632748,False
0.36000000000000004,0.7380234488003816,2.800000000000001,6286.0,18.11628,0.2,68900.0,0.33,276.0,2700.0,28.27491187834546,4.991768040204926,13477.7737085533,19.82861994287749,6.475076593029952,8.446291935467968,1.4833085528250258,6626,118,1918,3533,44.53419519586457,25.71138199706828,0.0005168750437647865,False
0.37,0.821146046945128,2.800000000000001,6287.0,18.11628,0.3,68900.0,0.33,276.0,2700.0,33.41426242726093,6.075551153921753,16403.98811558873,22.919618589335133,8.250546057105774,10.494643837925796,2.1749949031840217,3566,92,1182,1787,44.02512527173349,25.285335160102502,0.0005667961220841669,False
0.38,0.9717629347164356,2.800000000000001,6288.0,18.11628,0.3,68900.0,0.33,276.0,2700.0,43.77423310550403,8.202180641987251,22145.887733365576,28.962861788853562,12.150578766238395,14.811371316650469,3.9483981242511437,4304,108,1422,2161,49.536175444971356,28.567129087926478,0.0006836774569136605,False
0.39,0.8947949209788897,2.800000000000001,6289.0,18.11628,0.3,68900.0,0.33,276.0,2700.0,37.88637139414265,7.263604998778954,19611.733496703175,25.803418983907477,10.043907810192097,12.082952410235173,2.7803028114131436,3544,96,1176,1774,45.3574306791356,26.107686309687338,0.0006007430673382756,False
0.4,1.0525317908048843,2.800000000000001,6290.0,18.11628,0.3,68900.0,0.33,276.0,2700.0,49.26909396280381,9.719777506007604,26243.39926622053,32.438422930933484,14.629130984906245,16.830671031870324,4.909353478898641,4730,114,1570,2369,50.65304784400577,29.203719404785726,0.000724387491084837,False
0.4100000000000001,0.924695027221385,2.800000000000001,6291.0,18.11628,0.3,68900.0,0.33,276.0,2700.0,39.397053961737306,7.932048257303952,21416.530294720673,27.013096668153484,10.833461539209054,12.383957293583823,2.9014132819051017,3551,98,1186,1766,44.438654604896634,25.60921824470219,0.0006010930920287555,False
0.42000000000000004,0.8864659777138628,2.800000000000001,6292.0,18.11628,0.3,68900.0,0.33,276.0,2700.0,36.41127469015584,7.491198140586624,20226.234979583885,25.470453622961553,9.830380432351369,10.940821067194289,2.339182291764745,3561,94,1174,1792,42.04630690992791,24.11157739722035,0.0005593054360224743,False
0.43,1.048626548590977,2.800000000000001,6293.0,18.11628,0.3,68900.0,0.33,276.0,2700.0,47.95918627400133,10.144705977504307,27390.706139261627,32.266604562255,14.502786707236105,15.692581711746335,4.358080729731798,4338,110,1444,2166,47.52512379361488,27.359986009357353,0.0006778356098212655,False
0.44,0.9825295843118215,2.800000000000001,6294.0,18.11628,0.3,68900.0,0.33,276.0,2700.0,42.66013362857961,9.206820445885251,24858.415203890178,29.416689882297685,12.464852240459393,13.243443746281923,3.2580317945741424,4063,104,1354,2024,43.90163362212718,25.307014387814235,0.0006110863416230986,False
0.45,0.986684946783938,2.800000000000001,6295.0,18.11628,0.3,68900.0,0.33,276.0,2700.0,42.653978586762165,9.40629342831591,25396.99225645296,29.59262293660366,12.587454632181398,13.061355650158504,3.1811612038654875,4030,104,1342,2007,43.41991092145897,24.869694232549357,0.0006030257365483251,False
0.46,1.0090646993617276,2.800000000000001,6296.0,18.11628,0.3,68900.0,0.33,276.0,2700.0,43.99567744213261,9.91514577000398,26770.893579010746,30.547617301472123,13.260393004410714,13.448060140660488,3.3452472344067345,4206,106,1396,2100,43.61904023492781,25.07922793789756,0.000608406284750848,False
0.4700000000000001,0.8295295368971458,2.800000000000001,6297.0,18.11628,0.2,68900.0,0.33,276.0,2700.0,31.19052912312181,7.112327961217859,19203.28549528822,23.24100738954652,8.44403839509104,7.949521733575288,1.331710433873181,8634,126,2160,4846,39.82650317816016,22.97299546235006,0.00047979763814601044,False
0.4800000000000001,1.1395783799981767,2.800000000000001,6298.0,18.11628,0.3,68900.0,0.33,276.0,2700.0,53.438516013414784,12.593620500055675,34002.775350150325,36.367687486598584,17.62241821635075,17.0708285268162,5.028797716295074,4904,116,1586,2487,47.83957399966775,27.56737515947254,0.0006859791403610292,False
0.49,0.8210296069799972,2.800000000000001,6299.0,18.11628,0.2,68900.0,0.33,276.0,2700.0,30.115974649876804,7.132010299818359,19256.42780950957,22.91516719347921,8.247877556679917,7.200807456397595,1.1158672568615584,8243,122,2026,4664,37.552248536145164,21.649520478024616,0.00045932656022548924,False
0.5,1.1924222139121512,2.800000000000001,6300.0,18.11628,0.3,68900.0,0.33,276.0,2700.0,57.052597541789844,14.001349997648317,37803.64499365046,38.84594189353312,19.60939742674142,18.20665564825672,5.608047429093103,5683,122,1732,2963,48.98493692672056,28.239473406575655,0.0007072796487863199,False
0.01,0.5980118119322541,2.800000000000001,6301.0,21.135659999999998,0.05,68900.0,0.33,276.0,2700.0,29.70450110654507,0.14852041113762607,401.00511007159037,15.01473520964739,4.04158745195412,14.689765896897681,3.893067040816494,95555,488,31640,48089,1381.5069344653468,786.3846359084259,0.012797317373441983,True
0.02,0.4035360759770737,2.800000000000001,6302.0,21.135659999999998,0.08,68900.0,0.33,276.0,2700.0,17.74173357734143,0.17740058061259675,478.98156765401126,9.145702380888718,1.7076827694026167,8.596031196452714,1.53028218879002,22760,228,7498,11507,450.96885219259775,257.44905855282747,0.00398640051783503,True
0.03,0.6752457281390396,2.800000000000001,6303.0,21.135659999999998,0.1,68900.0,0.33,276.0,2700.0,34.19292959402371,0.5128373952425843,1384.6609671549777,17.609265355403668,5.300462213879616,16.58366423862004,4.787624818637031,28323,268,9336,14313,544.1341320095993,310.3304162256759,0.005153861935830281,True
0.04,0.54116714311957,2.800000000000001,6304.0,21.135659999999998,0.1,68900.0,0.33,276.0,2700.0,25.17418993028611,0.5033497573191695,1359.0443447617577,13.200920521243804,3.2400173542804325,11.973269409042308,2.736667596961263,20370,222,6684,10338,331.3545910595486,189.25574762071116,0.0029567144628494754,True
0.05,0.719539345494326,2.800000000000001,6305.0,21.135659999999998,0.1,68900.0,0.33,276.0,2700.0,36.577311589786355,0.9141709903568667,2468.26167396354,19.16487070748256,6.114709965076651,17.412440882303795,5.200538974719784,30609,280,10054,15522,355.2820318442298,202.65871889085125,0.0034476910440594923,True
0.06000000000000001,0.49072272220705215,2.800000000000001,6306.0,21.135659999999998,0.08,68900.0,0.33,276.0,2700.0,21.56834644720377,0.6465980040739958,1745.8146109997888,11.659337538067584,2.6132555360801617,9.909008909136185,1.9666575320061659,27647,254,9098,13994,185.14899728540695,106.11371920076657,0.001799130017576144,False
0.06999999999999999,0.6468585017161746,2.800000000000001,6307.0,21.135659999999998,0.2,68900.0,0.33,276.0,2700.0,30.968506653633526,1.0831793553570561,2924.5842594640517,16.638224335648204,4.8144145018888285,14.330282317985322,3.7312351465317724,6752,130,2218,3419,193.63897983388264,110.81252983151703,0.0022034854577680204,False
0.08,0.7743203624832786,2.800000000000001,6308.0,21.135659999999998,0.2,68900.0,0.33,276.0,2700.0,39.43012693808205,1.5761327472308557,4255.558417523311,21.15699956941597,7.218802186004767,18.273127368666078,5.642669438773911,8240,148,2704,4178,210.28262487968115,120.21535731245585,0.002456821760653843,False
0.09,0.6687081488999359,2.800000000000001,6309.0,21.135659999999998,0.1,68900.0,0.33,276.0,2700.0,31.773521799675066,1.4282816669557312,3856.3605007804745,17.38383954642668,5.186077701027623,14.389682253248385,3.7577960340718914,26754,258,8800,13548,164.71030972479844,94.46467111223025,0.0018221117204673136,False
0.09999999999999999,0.4727292308018833,2.800000000000001,6310.0,21.135659999999998,0.05,68900.0,0.33,276.0,2700.0,19.428134889926728,0.9693123493939426,2617.1433433636453,11.12493060634645,2.408283470832516,8.303204283580278,1.4389711214385734,85075,380,20906,48256,98.93556779884024,57.096784584880034,0.0010754111003760717,False
0.11,0.5230800104066831,2.800000000000001,6311.0,21.135659999999998,0.2,68900.0,0.33,276.0,2700.0,22.052369688701397,1.2100926929972893,3267.250271092681,12.640822739330135,3.0063282270901226,9.411546949371262,1.7962355340928333,4741,106,1556,2401,101.78534433777368,58.742526840526814,0.0011117849074022365,False
0.12,0.7796380978282205,2.800000000000001,6312.0,21.135659999999998,0.3,68900.0,0.33,276.0,2700.0,38.42726588573518,2.3020168384071753,6215.445463699373,21.354396759936385,7.331834048468541,17.072869125798796,5.029817210061365,3865,100,1270,1954,136.49590336018835,78.7582726966641,0.0017068291705541962,False
0.13,0.6361467348681226,2.800000000000001,6313.0,21.135659999999998,0.3,68900.0,0.33,276.0,2700.0,28.40097830736957,1.841462203939061,4971.947950635465,16.277070280510884,4.638126595255201,12.123908026858686,2.79666439131614,2871,84,938,1458,106.10461368329118,61.257859426182065,0.001217059496257612,False
0.14,0.8036056757429407,2.800000000000001,6314.0,21.135659999999998,0.3,68900.0,0.33,276.0,2700.0,39.461551190798765,2.756561563194953,7442.716220626373,22.252906428472233,7.854385931140954,17.208644762326532,5.097824367946002,3777,100,1238,1914,121.69215456982478,70.21023307034173,0.0015404877728713814,False
0.15000000000000002,0.47174637486160825,2.800000000000001,6315.0,21.135659999999998,0.2,68900.0,0.33,276.0,2700.0,18.057311870162494,1.3472298067916095,3637.5204783373456,11.095974147551125,2.397363498703201,6.961337722611368,1.0501336919115913,3658,94,1200,1852,70.06199386398215,40.45018438384531,0.0007447253601367625,False
0.16,0.7006037295786451,2.800000000000001,6316.0,21.135659999999998,0.3,68900.0,0.33,276.0,2700.0,31.677161540607177,2.525594280909169,6819.104558454756,18.493812114398022,5.758179008086273,13.183349426209155,3.232584727177104,3189,88,1042,1620,95.89953046526018,55.3395691674199,0.001134476263175458,False
0.17,0.7773024784171014,2.800000000000001,6317.0,21.135659999999998,0.3,68900.0,0.33,276.0,2700.0,36.586515332191,3.0995640400981768,8368.822908265078,21.26760978777912,7.282059682236552,15.31890554441188,4.182495642138376,3765,98,1238,1902,98.41438466756195,56.81700509451419,0.0012298646186265246,False
0.18000000000000002,0.6583214623546056,2.800000000000001,6318.0,21.135659999999998,0.3,68900.0,0.33,276.0,2700.0,28.318048060094668,2.5364098131711943,6848.306495562225,17.027899589784237,5.007368073958363,11.290148470310431,2.4709582607871683,2921,84,958,1478,80.3614966852221,46.39453040301528,0.0009428801343209559,False
0.19,0.8276638053360394,2.800000000000001,6319.0,21.135659999999998,0.3,68900.0,0.33,276.0,2700.0,39.497374032863945,3.7378850771147607,10092.289708209853,23.169330041721825,8.400743793039585,16.32804399114212,4.662858715924823,4047,102,1330,2046,93.10536390091333,53.711331498229114,0.0012061834594728153,False
0.2,0.6028157348746602,2.800000000000001,6320.0,21.135659999999998,0.1,68900.0,0.33,276.0,2700.0,24.297471967398785,2.4129920359207344,6515.078496985983,15.171741644742946,4.114093974118018,9.125730322655839,1.7011019381972834,26714,218,6578,15133,67.55167588137947,38.93488632821666,0.0007757827331671414,False
0.21000000000000002,0.5336179535941782,2.800000000000001,6321.0,21.135659999999998,0.08,68900.0,0.33,276.0,2700.0,19.97559032058954,2.0780407906186382,5610.710134670323,12.966147772540422,3.141248176415826,7.009442548049117,1.0632073857971878,35466,242,8404,20384,59.09517318761559,34.07962756375726,0.00064778310485069,False
0.22,0.5392448980424074,2.800000000000001,6322.0,21.135659999999998,0.05,68900.0,0.33,276.0,2700.0,20.03818478435705,2.181899207228992,5891.127859518279,13.141004570877055,3.2146995512407304,6.897180213479995,1.0328003440117381,137242,386,21402,87687,64.6100688745183,36.024343468749535,0.000632223040820349,False
0.23,0.5441192662680802,2.800000000000001,6323.0,21.135659999999998,0.08,68900.0,0.33,276.0,2700.0,20.05932839916705,2.2813402606933924,6159.618703872159,13.293118368163263,3.279124133147633,6.766210031003787,0.9977838724542405,40104,242,8424,23958,56.12225846285198,32.38004592692498,0.0006153468328945025,False
0.24000000000000005,0.8131714151447758,2.800000000000001,6324.0,21.135659999999998,0.3,68900.0,0.33,276.0,2700.0,36.82767405170506,4.390367968309123,11853.993514434633,22.61554302554225,8.068984045343134,14.212131026162808,3.678616077034011,3681,96,1214,1854,73.98149217943411,42.678557989258145,0.0009513982729805421,False
0.25,0.8419004677105677,2.800000000000001,6325.0,21.135659999999998,0.3,68900.0,0.33,276.0,2700.0,38.53432147597839,4.784065261022341,12916.97620476032,23.71848483821674,8.7345007445775,14.815836637761649,3.95043548355516,3887,100,1276,1967,74.62388712957933,43.03173900636348,0.0009577616562548479,False
0.26,0.7062682895069898,2.800000000000001,6326.0,21.135659999999998,0.2,68900.0,0.33,276.0,2700.0,29.047435771662247,3.7393555619964327,10096.260017390368,18.69361357144889,5.863503828098005,10.353822200213358,2.1241482661015723,6201,124,2048,3123,60.65614633874834,34.919848234414175,0.000742541254511079,False
0.27,0.8212503984675401,2.800000000000001,6327.0,21.135659999999998,0.3,68900.0,0.33,276.0,2700.0,36.44034270212553,4.878222285986013,13171.200172162235,22.923608144352787,8.252937962354684,13.51673455777274,3.3747156763686714,3695,96,1216,1865,67.318500686434,38.85495704633248,0.0008655482975678178,False
0.28,0.9282477483811096,2.800000000000001,6328.0,21.135659999999998,0.3,68900.0,0.33,276.0,2700.0,43.84359861331327,6.0921276445761166,16448.744640355515,27.158323682856555,10.929689420959043,16.685274930456714,4.837561776382927,4137,106,1362,2088,72.25195989160092,41.65214827631001,0.0009843185695271896,False
0.29000000000000004,0.6664679305635726,2.800000000000001,6329.0,21.135659999999998,0.1,68900.0,0.33,276.0,2700.0,25.711018093973387,3.6770174214738782,9927.947037979471,17.30684047260139,5.147220375834532,8.404177621371996,1.470202954360654,33140,222,6914,19825,54.97635049305363,31.73014717412731,0.000640797465683777,False
0.3,0.8490202386151515,2.800000000000001,6330.0,21.135659999999998,0.3,68900.0,0.33,276.0,2700.0,37.44169295941042,5.559705276146943,15011.204245596746,23.995028524333364,8.904354630787058,13.446664435077054,3.344649354640115,3653,96,1204,1841,63.4858408337781,36.64549467019668,0.0008234476018918568,False
0.31,1.0028014456343428,2.800000000000001,6331.0,21.135659999999998,0.3,68900.0,0.33,276.0,2700.0,48.49901052695682,7.454952507182915,20128.37176939387,30.279081710495852,13.069906994341851,18.21992881646097,5.614954487158936,4555,112,1506,2290,70.79920132376097,40.8581157433815,0.000994449386285506,False
0.32,0.8940036180557103,2.800000000000001,6332.0,21.135659999999998,0.3,68900.0,0.33,276.0,2700.0,40.01047898782946,6.333047499337489,17099.22824821122,25.771710190497128,10.023502035990306,14.23876879733233,3.690454536652817,3813,100,1258,1920,62.086959759455034,35.72846111552026,0.0008297081134754762,False
0.33,0.8349768070497641,2.800000000000001,6333.0,21.135659999999998,0.3,68900.0,0.33,276.0,2700.0,35.53924055095905,5.788708414113539,15629.512718106555,23.450780251332567,8.57120944715672,12.088460299626483,2.7825010330431814,3524,94,1166,1769,57.931938066566985,33.4294092646342,0.000740647778310156,False
0.34,0.8326957808850064,2.800000000000001,6334.0,21.135659999999998,0.3,68900.0,0.33,276.0,2700.0,35.08128027002832,5.881499540800356,15880.048760160962,23.362847808870516,8.517817916777481,11.718432461157807,2.636318375977125,3539,94,1176,1769,56.26482820621686,32.38974932266467,0.0007196311487337257,False
0.3500000000000001,0.7560848086864786,2.800000000000001,6335.0,21.135659999999998,0.3,68900.0,0.33,276.0,2700.0,29.701956196607828,5.108045144391261,13791.721889856406,20.48548337133681,6.839128017399561,9.216472825271019,1.7310828730083,2963,84,980,1487,50.030251241712286,28.8331562382171,0.0006245302191177622,False
0.36000000000000004,0.7701914644973675,2.800000000000001,6336.0,21.135659999999998,0.3,68900.0,0.33,276.0,2700.0,30.335068245161565,5.362596186231823,14479.00970282592,21.00422280086921,7.131762640362243,9.330845444292354,1.7691664541304206,3136,88,1044,1564,49.31674675469637,28.454197888652338,0.0006233622686945505,False
0.37,0.6857721216557423,2.800000000000001,6337.0,21.135659999999998,0.08,68900.0,0.33,276.0,2700.0,24.78286050031825,4.47874179743735,12092.602853080845,17.974488826682204,5.487744070687268,6.808371673636046,1.0090022732499175,68584,270,10440,44040,48.24049667590511,27.619428394552465,0.0005474976033598322,False
0.38,0.8734024335715196,2.800000000000001,6338.0,21.135659999999998,0.3,68900.0,0.33,276.0,2700.0,36.691346554499724,6.8564321972964235,18512.366932700344,24.95172539909498,9.501038920838754,11.739621155404745,2.6446067235423305,3583,96,1190,1792,53.47964453322242,30.771904604028208,0.0006952243421432898,False
0.39,0.9713065916226578,2.800000000000001,6339.0,21.135659999999998,0.3,68900.0,0.33,276.0,2700.0,43.41696510100989,8.342070771618069,22523.591083368785,28.943690701098113,12.137366138780795,14.47327439991178,3.7952953671627263,4306,108,1430,2155,56.551025193373185,32.545715489397644,0.0007791344465841888,False
0.4,0.9549217311610354,2.800000000000001,6340.0,21.135659999999998,0.3,68900.0,0.33,276.0,2700.0,41.891183809282595,8.244195475303354,22259.327783319055,28.258826180103146,11.668747722903188,13.632357629179449,3.4245522475998342,3745,100,1242,1876,54.21227644190698,31.110378089639944,0.0007450963069646233,False
0.4100000000000001,0.8577157062266376,2.800000000000001,6341.0,21.135659999999998,0.2,68900.0,0.33,276.0,2700.0,34.73004997587411,6.975312440202149,18833.343588545802,24.334503017063554,9.114477191874224,10.395546958810556,2.139164751672075,9376,134,2334,5275,51.86003608516893,29.91763182045051,0.0006474422550229248,False
0.42000000000000004,0.7870534087079617,2.800000000000001,6342.0,21.135659999999998,0.2,68900.0,0.33,276.0,2700.0,29.7814289816542,6.09893054180128,16467.112462863453,21.630843590652187,7.491207654710508,8.150585391002014,1.3922771129092286,8166,122,2046,4583,46.955617419837544,27.106520229550455,0.0005762498293876103,False
0.43,0.8728477073775659,2.800000000000001,6343.0,21.135659999999998,0.3,68900.0,0.33,276.0,2700.0,35.18521936506045,7.398303092082016,19975.418348621442,24.929793219898922,9.487203628710194,10.255426145161525,2.088900536628178,3497,94,1150,1756,47.81177462343718,27.566034559645022,0.0006278050586744981,False
0.44,0.8449560950405588,2.800000000000001,6344.0,21.135659999999998,0.3,68900.0,0.33,276.0,2700.0,33.02212619375779,7.0864588102241735,19133.438787605268,23.837014405613644,8.807156626414722,9.185111788144148,1.7206978161905484,3469,90,1106,1770,44.17645465791381,25.404591911579658,0.0005935614397570145,False
0.45,0.9103570679304103,2.800000000000001,6345.0,21.135659999999998,0.2,68900.0,0.33,276.0,2700.0,37.192415816084115,8.177441804913341,22079.09287326602,26.430217565018022,10.450333680630223,10.762198251066092,2.2728918757168817,10187,140,2570,5702,50.18492232842314,28.954412869289925,0.0006458857594068938,False
0.46,0.9804803349223712,2.800000000000001,6346.0,21.135659999999998,0.2,68900.0,0.33,276.0,2700.0,41.891082227565256,9.43108887065347,25463.93995076437,29.330086904220824,12.404658860252084,12.560995323344432,2.973569989598614,11308,150,2794,6383,52.425492303492504,30.239003107101855,0.0006941276365234363,False
0.4700000000000001,0.9601724667135805,2.800000000000001,6347.0,21.135659999999998,0.3,68900.0,0.33,276.0,2700.0,40.12043933707436,9.210856861496678,24869.31352604103,28.477565009405716,11.817701312881228,11.642874327668643,2.60684445138455,4093,102,1324,2069,50.57135427423891,29.176048966450878,0.0006578130067132301,False
0.4800000000000001,0.969718555107794,2.800000000000001,6348.0,21.135659999999998,0.2,68900.0,0.33,276.0,2700.0,40.50631706459621,9.489892752339212,25622.710431315874,28.877017686399206,12.091455449051132,11.629299378197004,2.6015626967119196,11042,146,2724,6236,50.13515918844086,28.937188090895415,0.0006619938106436588,False
0.49,1.1340666642085924,2.800000000000001,6349.0,21.135659999999998,0.3,68900.0,0.33,276.0,2700.0,52.657060411608796,12.654576311442703,34167.3560408953,36.113242516155026,17.422671423867293,16.54381789545377,4.768095112424589,4955,116,1576,2535,53.28901949902711,30.714820572225715,0.0007826224451982353,False
0.5,1.0183587951215727,2.800000000000001,6350.0,21.135659999999998,0.3,68900.0,0.33,276.0,2700.0,43.44389228835462,10.5991736842895,28617.76894758165,30.947916551353092,13.546164013191312,12.495975737001526,2.946990328901812,4210,104,1324,2158,50.92915217373686,29.352155297422673,0.000671591344360378,False
0.01,0.48144086932310126,2.800000000000001,6351.0,24.15504,0.05,68900.0,0.33,276.0,2700.0,22.469628693781274,0.1123460490738051,303.3343324992738,11.382650266588568,2.5063210404007137,11.086978427192706,2.3939749913269086,72878,416,24140,36662,1230.69214121569,700.612296975436,0.011080366956699575,True
0.02,0.5340422111784329,2.800000000000001,6352.0,24.15504,0.1,68900.0,0.33,276.0,2700.0,25.34333688057313,0.25341661364491214,684.2248568412627,12.979303801752325,3.1467519535595416,12.364033078820805,2.8933353399146293,21080,226,6982,10601,3433.1655197747277,1922.8522450407622,0.05220785890797524,True
0.03,0.6628348420076438,2.800000000000001,6353.0,24.15504,0.1,68900.0,0.33,276.0,2700.0,33.348226214089586,0.5001668445435811,1350.4504802676688,17.182234871593224,5.084569543801094,16.165991342496362,4.584402699257513,27412,262,9028,13864,583.9964774104587,332.52628538105125,0.005741483008624722,True
0.04,0.41230984689457134,2.800000000000001,6354.0,24.15504,0.08,68900.0,0.33,276.0,2700.0,17.68190891103196,0.35350413693408533,954.4611697220304,9.39000926998762,1.7889953987640677,8.29189964104434,1.4354912618299824,23028,230,7560,11682,270.7736421876226,154.893947997401,0.0024289811528544125,False
0.05,0.46151712764457076,2.800000000000001,6355.0,24.15504,0.1,68900.0,0.33,276.0,2700.0,20.163902316655626,0.5038357585285913,1360.3565480271966,10.796045930105244,2.2853962977385462,9.367856386550383,1.781560539209955,16530,196,5424,8388,235.75768178471742,134.9886420425361,0.002259593346880611,False
0.06000000000000001,0.5050669586736362,2.800000000000001,6356.0,24.15504,0.1,68900.0,0.33,276.0,2700.0,22.410421945909913,0.6718602690346611,1814.0227263935851,12.09119058691721,2.783590950438192,10.319231358992704,2.1117306814035306,17977,206,5902,9118,216.56713066702204,123.91171879896876,0.002129794760356246,False
0.06999999999999999,0.37462825458304416,2.800000000000001,6357.0,24.15504,0.04,68900.0,0.33,276.0,2700.0,14.879887390881445,0.5200776811607313,1404.2097391339744,8.354448471818216,1.4547877464556596,6.5254389190632285,0.9347100652949283,79399,408,24574,41242,130.4553218628631,75.12933648128332,0.0012943150153059198,False
0.08,0.4817303965832122,2.800000000000001,6358.0,24.15504,0.1,68900.0,0.33,276.0,2700.0,20.486911248779656,0.818404119658761,2209.691123078655,11.391248208801342,2.509617872563695,9.095663039978314,1.691213752904934,17047,200,5602,8638,145.54084760582748,83.67256521076337,0.0015417223053013059,False
0.09,0.6110343660141009,2.800000000000001,6359.0,24.15504,0.2,68900.0,0.33,276.0,2700.0,28.019689348511324,1.2593592066533676,3400.269857964093,15.441695809102027,4.2398930866181175,12.577993539409297,2.98053387996475,6066,122,1992,3072,163.49392273582077,94.31622133303028,0.0018570105048417024,False
0.09999999999999999,0.7339878078338979,2.800000000000001,6360.0,24.15504,0.3,68900.0,0.33,276.0,2700.0,35.88760046009762,1.7922856279024895,4839.171195336721,19.682970601948337,6.395349433959463,16.204629858149286,4.603063806056974,3651,96,1198,1848,177.69662425430337,102.59148854704574,0.0021358483018714684,False
0.11,0.5896005100230903,2.800000000000001,6361.0,24.15504,0.2,68900.0,0.33,276.0,2700.0,26.069273104520896,1.431022380867362,3863.7604283418777,14.741225784919417,3.916445512566525,11.32804731960148,2.485423131699163,5679,116,1856,2889,130.2778096648115,75.09424242521195,0.0014748860217751573,False
0.12,0.7295592375006645,2.800000000000001,6362.0,24.15504,0.3,68900.0,0.33,276.0,2700.0,34.91672901975104,2.091384626448122,5646.738491409929,19.52361118468582,6.308535063382508,15.393117835065219,4.217150436934386,3589,94,1170,1828,147.98311291480346,85.20845298621012,0.001788573419336257,False
0.13,0.6214516797336169,2.800000000000001,6363.0,24.15504,0.3,68900.0,0.33,276.0,2700.0,27.467467922108966,1.7807840288971193,4808.116878022222,15.786308831708155,4.402546679511558,11.681159090400811,2.621762650614439,2910,84,952,1476,119.34932895819593,68.90103631424397,0.0013498163499563844,False
0.14,0.46746180255689934,2.800000000000001,6364.0,24.15504,0.2,68900.0,0.33,276.0,2700.0,18.07854394207801,1.2597510557844949,3401.327850618136,10.970027615483577,2.350091973421588,7.108516326594433,1.0903409176370933,3753,94,1234,1896,84.64913309787194,48.87107696070252,0.0008945272563541139,False
0.15000000000000002,0.6690209471069547,2.800000000000001,6365.0,24.15504,0.3,68900.0,0.33,276.0,2700.0,29.91085764428725,2.2362457398509727,6037.8634975976265,17.39460084275714,5.191517017861849,12.516256801530112,2.9552712780108763,2899,86,952,1465,113.74282369402289,65.50133791693702,0.0013089583435710282,False
0.16,0.5812013790360381,2.800000000000001,6366.0,24.15504,0.2,68900.0,0.33,276.0,2700.0,24.109455461755736,1.9201777946010539,5184.480045422845,14.469886404709255,3.7937727747585632,9.639569057046481,1.8735949801575094,5178,112,1702,2619,89.98255674087522,51.830044648344526,0.0010274777647280415,False
0.17,0.7233410259406272,2.800000000000001,6367.0,24.15504,0.3,68900.0,0.33,276.0,2700.0,32.88321873761363,2.7847838295591005,7518.916339809572,19.300684556669985,6.187826724652393,13.582534180943647,3.403042895093292,3302,90,1080,1676,105.32025116531085,60.75919870204422,0.0012803349506301488,False
0.18000000000000002,0.7239974114612169,2.800000000000001,6368.0,24.15504,0.3,68900.0,0.33,276.0,2700.0,32.613478879784985,2.922998586943491,7892.0961847474255,19.32417049667563,6.200503121856047,13.289308383109354,3.2775045349125564,3319,90,1088,1681,99.79262278862694,57.559461475320774,0.0012163357999988174,False
0.19,0.7256123544306009,2.800000000000001,6369.0,24.15504,0.3,68900.0,0.33,276.0,2700.0,32.410032958103336,3.064587675012505,8274.386722533764,19.382000397117466,6.231757242313151,13.02803256098587,3.167169567300646,3304,90,1086,1669,94.94421558159313,54.81501006882674,0.001161240146683941,False
0.2,0.8807616349228202,2.800000000000001,6370.0,24.15504,0.3,68900.0,0.33,276.0,2700.0,43.04371541813625,4.287616380994487,11576.564228685116,25.243417608261048,9.685736168224054,17.800297809875204,5.398119787229566,4193,106,1378,2120,108.70735461035086,62.63002347038052,0.001427479126526746,False
0.21000000000000002,0.5596015636789557,2.800000000000001,6371.0,24.15504,0.2,68900.0,0.33,276.0,2700.0,21.46662250651477,2.2345991701407897,6033.417759380132,13.780232997090147,3.4886951994472386,7.6863895094246235,1.254096029306449,4416,102,1458,2223,67.36870365788647,38.879127864579914,0.0007737352377879251,False
0.22,0.7406743750245601,2.800000000000001,6372.0,24.15504,0.3,68900.0,0.33,276.0,2700.0,32.491464411521314,3.551759966217059,9589.751908786058,19.924516625750318,6.527767870124723,12.566947785770996,2.9760079039076643,3122,88,1024,1580,84.50748652792856,48.67328560019561,0.0010423436304107532,False
0.23,0.852214382998302,2.800000000000001,6373.0,24.15504,0.3,68900.0,0.33,276.0,2700.0,39.93115518328168,4.566600340866433,12329.820920339369,24.119508367120893,8.981196951413928,15.811646816160788,4.414596610547495,4055,102,1326,2060,92.21945615609684,53.23608915700466,0.0012010265647928455,False
0.24000000000000005,0.5555888277664416,2.800000000000001,6374.0,24.15504,0.05,68900.0,0.33,276.0,2700.0,20.457095957817234,2.4258985970425844,6549.926212014978,13.653403196965927,3.4336533661895916,6.803692760851307,1.0077547691470072,148343,388,21788,95927,71.891332369246,41.32970463209503,0.0006964534585062619,False
0.25,0.750719816279537,2.800000000000001,6375.0,24.15504,0.3,68900.0,0.33,276.0,2700.0,32.24927875561766,3.998434920977315,10795.77428663875,20.28951101335104,6.729749573185403,11.95976774226662,2.7313146522080882,3173,88,1042,1604,77.07087249302924,44.369334473194414,0.0009453041020278384,False
0.26,0.8296956537767785,2.800000000000001,6376.0,24.15504,0.3,68900.0,0.33,276.0,2700.0,37.348457907300215,4.818488439629363,13009.918786999278,23.247393480143465,8.447899649127228,14.10106442715675,3.6294112094978654,3589,96,1188,1801,79.99200150003273,46.0939170645593,0.0010380071349775173,False
0.27,0.8218223131251534,2.800000000000001,6377.0,24.15504,0.3,68900.0,0.33,276.0,2700.0,36.48020224778596,4.883603324650696,13185.728976556878,22.945478377901235,8.266054563419285,13.534723869884726,3.3824512387685894,3685,96,1214,1858,77.33180339643481,44.63404271700656,0.0009925010229360001,False
0.28,0.5808873853463605,2.800000000000001,6378.0,24.15504,0.08,68900.0,0.33,276.0,2700.0,20.890938349618462,2.878755207658848,7772.639060678889,14.45977701459191,3.789230908944322,6.431161335026552,0.9104757012854741,48004,246,8842,29607,58.49255406786487,33.75707310346398,0.0006467227271354172,False
0.29000000000000004,0.8926682387204179,2.800000000000001,6379.0,24.15504,0.3,68900.0,0.33,276.0,2700.0,40.885147461882724,5.877266179820377,15868.618685515017,25.71823505911632,9.989122736547058,15.166912402766403,4.111856556726681,3943,102,1298,1990,77.33462665389031,44.6470146653002,0.0010339634455781546,False
0.3,0.9509320357122544,2.800000000000001,6380.0,24.15504,0.3,68900.0,0.33,276.0,2700.0,44.86940690988176,6.673862368717649,18019.428395537652,28.093083923258312,11.556334376276462,16.77632298662345,4.882472007558813,4133,106,1362,2084,79.4784986503858,45.85321812123179,0.0010915433977758515,False
0.31,0.873476883406668,2.800000000000001,6381.0,24.15504,0.3,68900.0,0.33,276.0,2700.0,38.85777315421193,5.960560714407454,16093.513928900125,24.95466950679066,9.502896682274688,13.903103647421268,3.542335967867234,3676,98,1220,1840,71.94811953817093,41.49501225140314,0.000946230242898577,False
0.32,0.6857494259119936,2.800000000000001,6382.0,24.15504,0.08,68900.0,0.33,276.0,2700.0,26.089334957676055,4.105664454512949,11085.294027184962,17.973698380069422,5.487336135264755,8.115636577606633,1.381671680751806,64781,280,10990,40582,60.26516554619387,34.43587294368107,0.0006993222630329965,False
0.33,0.7881902743665465,2.800000000000001,6383.0,24.15504,0.3,68900.0,0.33,276.0,2700.0,32.372415889954446,5.2661823450477785,14218.692331629001,21.673348740709077,7.515823176200232,10.69906714924537,2.249640831152454,3326,90,1098,1673,63.066872977901824,36.390404004133416,0.0007895926816509953,False
0.34,0.7539530882016494,2.800000000000001,6384.0,24.15504,0.2,68900.0,0.33,276.0,2700.0,29.843509969198575,4.991078589659296,13475.9121920801,20.40752930624888,6.79554180128244,9.435980662949696,1.8044632116231432,6394,122,1990,3305,61.36633399391284,35.42802460929641,0.0007360576452846611,False
0.3500000000000001,0.8028124171877166,2.800000000000001,6385.0,24.15504,0.3,68900.0,0.33,276.0,2700.0,32.76582655645524,5.644222457364559,15239.400634884309,22.22293730748275,7.836745510414223,10.54288924897249,2.1925230530496647,3311,90,1092,1667,60.5033659204701,34.916028288467224,0.0007684917229638676,False
0.36000000000000004,0.8410625194113468,2.800000000000001,6386.0,24.15504,0.2,68900.0,0.33,276.0,2700.0,35.05743911305249,6.212622942452184,16774.0819446209,23.686021333891347,8.714639483147755,11.371417779161142,2.5020165406955703,8911,136,2416,4881,65.07177529926525,37.56106585057633,0.0008060429388981024,False
0.37,0.9184391498437574,2.800000000000001,6387.0,24.15504,0.3,68900.0,0.33,276.0,2700.0,40.18656952128856,7.328427966316859,19786.755509055518,26.758141976369654,10.665268914278043,13.428427544918907,3.336840947961184,3806,100,1264,1904,65.25834267630408,37.622862929683784,0.0008676454818755758,False
0.38,0.9318130680524418,2.800000000000001,6388.0,24.15504,0.3,68900.0,0.33,276.0,2700.0,40.83881761105141,7.6444516980412525,20640.019584711383,27.304384606039537,11.02677780864806,13.534433005011874,3.382326110606807,3760,100,1248,1882,64.34085934244928,37.0862894210465,0.0008641142714941466,False
0.39,0.7936525921968848,2.800000000000001,6389.0,24.15504,0.2,68900.0,0.33,276.0,2700.0,31.02696105409382,5.9260199824694295,16000.253952667459,21.878026938456188,7.6347685628124315,9.148934115637633,1.708748580343002,8412,126,2114,4719,59.13563635519419,34.12653983208577,0.0007035431149154969,False
0.4,0.9667308525753011,2.800000000000001,6390.0,24.15504,0.3,68900.0,0.33,276.0,2700.0,42.75831741937033,8.417622197320899,22727.579932766428,28.751752103675663,12.005366694184106,14.006565315694665,3.5877444968632073,4053,104,1352,2019,63.53130140385772,36.522260205222906,0.000865443617513183,False
0.4100000000000001,0.9599582307206003,2.800000000000001,6391.0,24.15504,0.3,68900.0,0.33,276.0,2700.0,41.94474694205352,8.45432531826893,22826.67835932611,28.46862665684218,11.811601350942759,13.47612028521134,3.3572760326738287,4080,104,1358,2033,61.04496764419121,35.16167840397963,0.0008399838894925805,False
0.42000000000000004,0.8650411022503866,2.800000000000001,6392.0,24.15504,0.3,68900.0,0.33,276.0,2700.0,34.940451406155226,7.1823252509464925,19392.27817755553,24.621964152276227,9.293789123555472,10.318487253878999,2.1114638726089794,3467,94,1148,1735,55.176739630257515,31.82656642012037,0.0007241524561963869,False
0.43,1.0231458382070373,2.800000000000001,6393.0,24.15504,0.3,68900.0,0.33,276.0,2700.0,46.011234932091384,9.725896438993669,26259.920385282905,31.154942869713278,13.69480831532821,14.856292062378106,3.9689118763345412,4379,110,1458,2186,62.67540263374336,36.132779685196624,0.0008753121743116681,False
0.44,1.1270102334848655,2.800000000000001,6394.0,24.15504,0.3,68900.0,0.33,276.0,2700.0,53.80623055581621,11.658961769877305,31479.196778668724,35.78860119492513,17.168986970231174,18.01762936089108,5.510025200353869,4874,118,1618,2441,66.04568279145441,38.04970563976755,0.0009730577129205741,False
0.45,1.0824650991273428,2.800000000000001,6395.0,24.15504,0.3,68900.0,0.33,276.0,2700.0,49.92173026892066,11.041537556801533,29812.15140336414,33.76812277901405,15.619965285383753,16.153607489906612,4.57842772858222,4602,114,1516,2312,62.46532220987291,35.960298961265075,0.0009043630291450718,False
0.46,0.8427576622684005,2.800000000000001,6396.0,24.15504,0.2,68900.0,0.33,276.0,2700.0,32.32655310245014,7.231247171876989,19524.36736406787,23.75171223424113,8.754846340552353,8.574840868209012,1.5235991686753643,8677,128,2168,4873,53.8982275094792,31.09566570013328,0.000662515088358046,False
0.4700000000000001,0.8411537842391819,2.800000000000001,6397.0,24.15504,0.2,68900.0,0.33,276.0,2700.0,31.950316675953044,7.290878036133198,19685.370697559636,23.689556228062244,8.71680134511105,8.2607604478908,1.4259233089778514,8585,126,2142,4828,52.47316514057147,30.286201730438872,0.0006504603015552141,False
0.4800000000000001,1.113801585208685,2.800000000000001,6398.0,24.15504,0.3,68900.0,0.33,276.0,2700.0,51.38266873495505,12.100217153225355,32670.58631370846,35.184281884212716,16.700263871877677,16.19838685074233,4.600046718652322,4976,116,1588,2542,59.91294751685925,34.454597549668165,0.0008887090780377007,False
0.49,0.9687153300744811,2.800000000000001,6399.0,24.15504,0.3,68900.0,0.33,276.0,2700.0,40.13674498735471,9.587099032500447,25885.167387751208,28.83493039233706,12.062506415648922,11.30181459501765,2.4754073831484753,4475,102,1328,2361,57.75709634095522,33.22643839320468,0.0007394787500482659,False
0.5,1.0072207189603755,2.800000000000001,6400.0,24.15504,0.2,68900.0,0.33,276.0,2700.0,42.6249336858645,10.394434033666972,28064.971890900822,30.468454653621755,13.204136797116231,12.156479032242743,2.809702763449259,11343,148,2784,6419,57.35099474975061,33.04481313879299,0.0007666497174212288,False
0.01,0.5735664242421308,2.800000000000001,6401.0,27.174419999999998,0.08,68900.0,0.33,276.0,2700.0,28.130719686618733,0.14065150403799082,379.7590609025752,14.224772601668956,3.6842324947217238,13.905947084949776,3.543580990683733,36257,300,12076,18137,1525.7724074411044,875.9902082709415,0.015586005695505833,True
0.02,0.36268464904212094,2.800000000000001,6402.0,27.174419999999998,0.08,68900.0,0.33,276.0,2700.0,15.53819085523374,0.15536515339151696,419.4859141570958,8.033663936415067,1.3569247397031838,7.504526918818673,1.2015595863116668,19953,212,6574,10086,501.70698783274963,286.3460368291288,0.004515340468701168,True
0.03,0.3596132331532697,2.800000000000001,6403.0,27.174419999999998,0.05,68900.0,0.33,276.0,2700.0,15.115881296420874,0.22668167077856977,612.0405111021383,7.951750559304506,1.3323758723512231,7.164130737116367,1.1056942015726534,49938,334,16408,25320,370.67058063121254,211.55514059499546,0.00304315119503092,True
0.04,0.5160122882723148,2.800000000000001,6404.0,27.174419999999998,0.1,68900.0,0.33,276.0,2700.0,23.64602381605299,0.47278643503450585,1276.5233745931657,12.424193254976801,2.9177526823494064,11.221830561076187,2.4449662473149005,19676,216,6470,9965,377.32159914743534,215.40668344455395,0.003583591614137901,True
0.05,0.41145362102288063,2.800000000000001,6405.0,27.174419999999998,0.08,68900.0,0.33,276.0,2700.0,17.36688681380762,0.4339103709573853,1171.5580015849405,9.366082349758107,1.7809656746304652,8.000804464049514,1.34705530367308,22861,228,7512,11587,238.4447793960539,136.56661794045849,0.0022161143485490723,False
0.06000000000000001,0.7060938211800154,2.800000000000001,6406.0,27.174419999999998,0.2,68900.0,0.33,276.0,2700.0,35.29979471335289,1.05854145205847,2858.0619205578687,18.687447654101106,5.860242922502853,16.612347059251782,4.8017014704443834,7584,140,2488,3846,309.46617689680863,176.68960927460506,0.003651752815993203,True
0.06999999999999999,0.4306387211566577,2.800000000000001,6407.0,27.174419999999998,0.1,68900.0,0.33,276.0,2700.0,17.885695372638054,0.625280960522212,1688.2585934099725,9.906621842383824,1.9658252651087285,7.9790735302542295,1.3405443045865164,14997,184,4928,7599,172.9626155130793,99.32759542518606,0.0017144796465243474,False
0.08,0.704981025018468,2.800000000000001,6408.0,27.174419999999998,0.2,68900.0,0.33,276.0,2700.0,34.55181905011093,1.3810004317120166,3728.701165622445,18.648138120411463,5.8394694771194136,15.903680929699465,4.458469045407397,7255,136,2378,3682,239.41202620544695,136.8960804721412,0.0027962887042528306,False
0.09,0.6128412376276291,2.800000000000001,6409.0,27.174419999999998,0.2,68900.0,0.33,276.0,2700.0,28.134756786857572,1.2645372413789464,3414.2505517231552,15.50127305192648,4.26784806029982,12.633483734931092,3.0033108189208737,6068,122,1994,3071,181.41569365404644,104.61983790392757,0.002096910481861958,False
0.09999999999999999,0.40027405572211583,2.800000000000001,6410.0,27.174419999999998,0.05,68900.0,0.33,276.0,2700.0,15.471102063541979,0.771460708074705,2082.9439118017035,9.05536433485601,1.6779967179556659,6.4157377286859685,0.9065360098809608,68301,336,16744,38761,110.027604274232,63.481433486238444,0.0011386569691004898,False
0.11,0.699622132703683,2.800000000000001,6411.0,27.174419999999998,0.3,68900.0,0.33,276.0,2700.0,33.201197627744236,1.8232782296446457,4922.851220040543,18.459271020012817,5.740042494604675,14.741926607731418,3.9167642649600296,3344,92,1094,1697,173.70087302522217,100.28585823451446,0.002066463327762765,False
0.12,0.7188576962974857,2.800000000000001,6412.0,27.174419999999998,0.3,68900.0,0.33,276.0,2700.0,34.18289655010226,2.0473546782691745,5527.857631326771,19.140557405912926,6.10165453358598,15.04233914418933,4.054299855316805,3571,94,1164,1819,165.01119941438793,95.25556581666825,0.0019733156242796625,False
0.13,0.6319102063563401,2.800000000000001,6413.0,27.174419999999998,0.3,68900.0,0.33,276.0,2700.0,28.13073723569097,1.8238965342799536,4924.5206425558745,16.135028832309928,4.56946936349962,11.995708403381041,2.745572829219667,2882,84,942,1463,136.94977618533204,79.06768018570342,0.0015515885144798218,False
0.14,0.5300971430479621,2.800000000000001,6414.0,27.174419999999998,0.1,68900.0,0.33,276.0,2700.0,21.632388277404996,1.5085201592573838,4073.0044299949363,12.857143629450492,3.095788809471255,8.775244647954503,1.5872686502138713,18052,206,5978,9077,104.15102473953185,60.07003331726134,0.0011662016633612444,False
0.15000000000000002,0.7781693853222729,2.800000000000001,6415.0,27.174419999999998,0.3,68900.0,0.33,276.0,2700.0,37.30978868934122,2.79116556823002,7536.147034221053,21.299806324272943,7.300510674353468,16.009982365068275,4.509345106123448,3843,100,1266,1938,142.39602569150338,82.16438199131095,0.0017794735512868351,False
0.16,0.736842397534818,2.800000000000001,6416.0,27.174419999999998,0.3,68900.0,0.33,276.0,2700.0,34.11571806385602,2.720678802769045,7345.832767476421,19.785952541159688,6.45168317599681,14.329765522696334,3.731004373227765,3575,94,1166,1820,127.32304255912861,73.44519243704116,0.00156092103378963,False
0.17,0.47073151179937356,2.800000000000001,6417.0,27.174419999999998,0.04,68900.0,0.33,276.0,2700.0,17.493340821020286,1.4766442066486678,3986.939357951403,11.066100186553243,2.386117765580288,6.427240634467044,0.9094735589316203,182103,446,29394,115428,2600.7524345033303,1369.0775430425208,0.0018191470363882081,True
0.18000000000000002,0.6459954686271385,2.800000000000001,6418.0,27.174419999999998,0.2,68900.0,0.33,276.0,2700.0,27.53604998820041,2.4660299867008817,6658.280964092381,16.60901981287059,4.800067767325408,10.927030175329822,2.3340377806245263,5810,120,1916,2930,99.82554332622618,57.60238533128595,0.001182613115300415,False
0.19,0.7898967216442765,2.800000000000001,6419.0,27.174419999999998,0.3,68900.0,0.33,276.0,2700.0,36.813480890963056,3.4829152286341767,9403.871117312277,21.737210388339477,7.5528620810182,15.07627050262358,4.069946852384024,3778,98,1238,1915,115.15036094472954,66.40866579586543,0.001456868540472651,False
0.2,0.775784610218227,2.800000000000001,6420.0,27.174419999999998,0.3,68900.0,0.33,276.0,2700.0,35.507116933153235,3.5339565324961764,9541.682637739676,21.211282326083396,7.249821009829238,14.295834607069839,3.7158644773330614,3780,98,1240,1914,107.49774020621781,62.013934348152645,0.0013572539609598047,False
0.21000000000000002,0.898329174832611,2.800000000000001,6421.0,27.174419999999998,0.3,68900.0,0.33,276.0,2700.0,44.00886307113177,4.601534429425565,12424.142959449027,25.945234386204053,10.135354156531637,18.063628684927718,5.533819727106072,4184,106,1376,2114,117.4546825327735,67.62278041925653,0.0015758664767960226,False
0.22,0.6206705633247221,2.800000000000001,6422.0,27.174419999999998,0.2,68900.0,0.33,276.0,2700.0,24.82670518956199,2.7086364518015356,7313.318419864146,15.760374292720353,4.390225864592383,9.066330896841638,1.681589412790847,5181,112,1710,2610,80.76847290380296,46.5496629284882,0.0009447381811962517,False
0.23,0.9299475583895276,2.800000000000001,6423.0,27.174419999999998,0.3,68900.0,0.33,276.0,2700.0,45.69863981216136,5.229861073187743,14120.624897606906,27.22792017649019,10.975912551488916,18.47071963567117,5.746051478301173,4272,108,1404,2160,111.09532313629501,64.09102857449204,0.0015196370473005145,False
0.24000000000000005,0.7557297433288039,2.800000000000001,6424.0,27.174419999999998,0.3,68900.0,0.33,276.0,2700.0,32.88805039395272,3.9176131293788394,10577.555449322866,20.47249119584658,6.83185663854865,12.415559198106138,2.9142435091698102,3060,88,1002,1551,89.6292701574841,51.661107488253144,0.0011125508332712343,False
0.25,0.6282594147601019,2.800000000000001,6425.0,27.174419999999998,0.2,68900.0,0.33,276.0,2700.0,24.465673520344332,3.025484266568148,8168.8075197339995,16.012987697945256,4.510786611118118,8.452685822399076,1.4853023445499702,4883,108,1616,2453,73.1409717160919,42.135848369940526,0.0008600737321258045,False
0.26,0.942174708194468,2.800000000000001,6426.0,27.174419999999998,0.3,68900.0,0.33,276.0,2700.0,45.58004452443244,5.888594699856554,15899.205689612696,27.730684694592572,11.311902270353638,17.849359829839866,5.423307570497084,4264,108,1400,2158,100.20215193605715,57.84307587455757,0.0013809437417221613,False
0.27,0.8612379516481052,2.800000000000001,6427.0,27.174419999999998,0.3,68900.0,0.33,276.0,2700.0,39.26688456843649,5.259805437938521,14201.474682434007,24.47255364908038,9.200432316292737,14.79433091935611,3.940626878354216,3946,102,1300,1990,90.0660181827008,51.92430704434135,0.001183971342322759,False
0.28,0.6353045554915443,2.800000000000001,6428.0,27.174419999999998,0.1,68900.0,0.33,276.0,2700.0,24.08603746163234,3.326069083340793,8980.386525020142,16.24879794239098,4.624430288794931,7.837239519241361,1.2983612054541385,29522,214,6492,17394,69.98803956253565,40.3794498718961,0.0008010059306646578,False
0.29000000000000004,0.6970466926310608,2.800000000000001,6429.0,27.174419999999998,0.3,68900.0,0.33,276.0,2700.0,27.61198362262679,3.9526574231286165,10672.175042447265,18.368759813477915,5.69261833718025,9.243223809148876,1.739960914051634,2802,82,924,1410,70.34630304457075,40.59127059874422,0.0008557731664444965,False
0.3,0.7195940526471266,2.800000000000001,6430.0,27.174419999999998,0.3,68900.0,0.33,276.0,2700.0,28.761131417859872,4.257621044914294,11495.576821268594,19.166822527534944,6.115758473976075,9.594308890324928,1.858137429061781,2989,84,984,1507,70.62241835832499,40.70795057721403,0.0008619187118189278,False
0.31,0.7541603775539154,2.800000000000001,6431.0,27.174419999999998,0.3,68900.0,0.33,276.0,2700.0,30.70825606467141,4.697385565528674,12682.941026927421,20.415104577804026,6.7997728499315935,10.293151486867384,2.102387284402919,3037,86,998,1534,72.14215371991608,41.64496061652345,0.0008878840237221301,False
0.32,1.0192268773792124,2.800000000000001,6432.0,27.174419999999998,0.3,68900.0,0.33,276.0,2700.0,49.43078529470781,7.840296508438038,21168.8005727827,30.985415947519392,13.57304562537063,18.445369347188418,5.732749116932593,4707,114,1556,2367,90.0387259376695,51.912133303929245,0.0012673870458508201,False
0.33,0.6573825580951456,2.800000000000001,6433.0,27.174419999999998,0.05,68900.0,0.33,276.0,2700.0,24.10232811420593,3.9016178620491493,10534.368227532703,16.9958580330131,4.991395550214358,7.106470081192828,1.089777688165209,225703,426,25772,151357,133.86824439041098,77.16930186562792,0.0007348813873053053,False
0.34,0.666856590783254,2.800000000000001,6434.0,27.174419999999998,0.08,68900.0,0.33,276.0,2700.0,24.413082748940276,4.067905962215248,10983.346097981168,17.320190161757058,5.153949450378238,7.0928925871832185,1.0860434881629901,63428,270,10350,40105,63.31071151578043,36.5487981202191,0.0007278451538386559,False
0.3500000000000001,1.029747977194293,2.800000000000001,6435.0,27.174419999999998,0.3,68900.0,0.33,276.0,2700.0,49.20654638943342,8.521348428135747,23007.640755966517,31.441411947388776,13.901442629911417,17.765134442044644,5.38009420177567,4693,114,1550,2362,84.29484800869135,48.640591977534754,0.0011864358203577542,False
0.36000000000000004,1.0380224757141383,2.800000000000001,6436.0,27.174419999999998,0.3,68900.0,0.33,276.0,2700.0,49.507329060914934,8.813603133067424,23796.728459282047,31.801992158374556,14.163095170199478,17.705336902540378,5.349492037132054,4637,114,1530,2336,83.05145756844112,47.94076437437051,0.0011697580541978137,False
0.37,0.7713410965451113,2.800000000000001,6437.0,27.174419999999998,0.2,68900.0,0.33,276.0,2700.0,30.13160366545803,5.468259282988217,14764.300064068186,21.046718246325824,7.155934191912804,9.084885419132206,1.6876749089245875,7874,126,2132,4304,67.00069616736751,38.59582475407788,0.0007990844176958089,False
0.38,1.0638910425319112,2.800000000000001,6438.0,27.174419999999998,0.3,68900.0,0.33,276.0,2700.0,50.84939178028498,9.546460790195622,25775.44413352818,32.940373186031415,15.00045501647376,17.909018594253567,5.453994226278137,4816,116,1598,2413,80.70800354991184,46.51082029796639,0.0011525821531582427,False
0.39,0.8786825897100975,2.800000000000001,6439.0,27.174419999999998,0.2,68900.0,0.33,276.0,2700.0,36.759210380851115,7.043808601187109,19018.283223205195,25.160873802049576,9.633339786666742,11.59833657880154,2.5895311854796326,9930,138,2476,5586,70.75859600167742,40.851375539279154,0.001729810674722815,False
0.4,0.9135588468805558,2.800000000000001,6440.0,27.174419999999998,0.3,68900.0,0.33,276.0,2700.0,38.90921848906427,7.647802411259689,20649.06651040116,26.55993098657504,10.53516498298535,12.349287502489233,2.887362571725661,3610,98,1202,1801,67.5711426473919,38.94766058501942,0.0009068913529653538,False
0.4100000000000001,0.9504526828115578,2.800000000000001,6441.0,27.174419999999998,0.3,68900.0,0.33,276.0,2700.0,41.25183739469324,8.31227886106007,22443.152924862192,28.07319728561583,11.542872641597743,13.17864010907741,3.2305937805376725,3828,100,1270,1917,67.86141755472391,39.13449777423561,0.0009338805820641097,False
0.42000000000000004,0.8460539259220292,2.800000000000001,6442.0,27.174419999999998,0.3,68900.0,0.33,276.0,2700.0,33.65626142565875,6.912645355042227,18664.142458614013,23.87965720626981,8.8333490414711,9.77660421938894,1.9207036864288733,3401,90,1106,1722,59.41619304674559,34.163346625828794,0.0007968397183448375,False
0.43,1.0762909095274047,2.800000000000001,6443.0,27.174419999999998,0.3,68900.0,0.33,276.0,2700.0,50.11102427454404,10.607351147620996,28639.848098576687,33.492009025831074,15.412327375188731,16.61901524871297,4.804976227567735,4617,114,1534,2310,74.1525937874111,42.716906373716114,0.0010506358104136677,False
0.44,1.0573346415272842,2.800000000000001,6444.0,27.174419999999998,0.3,68900.0,0.33,276.0,2700.0,48.30004680232115,10.447601344108378,28208.52362909262,32.65025882119951,14.785436363956626,15.64978798112164,4.337835019848248,4583,112,1520,2291,71.00295376871752,40.91006900053101,0.0010064199309949354,False
0.45,0.7779642703823372,2.800000000000001,6445.0,27.174419999999998,0.1,68900.0,0.33,276.0,2700.0,28.41368143248863,6.202226568604362,16746.01173523178,21.29218674092288,7.296142547321886,7.121494691565751,1.0939159787175239,49223,234,7674,31438,58.65649089042878,33.86294783753377,0.000696654811037953,False
0.46,0.988994941383506,2.800000000000001,6446.0,27.174419999999998,0.3,68900.0,0.33,276.0,2700.0,42.51369655558753,9.574290166098594,25850.583448466205,29.690613010427935,12.655926583806524,12.823083545159594,3.08163641770793,4055,104,1338,2034,63.692745504353304,36.57921008784185,0.0008914967603514104,False
0.4700000000000001,0.86123944903417,2.800000000000001,6447.0,27.174419999999998,0.2,68900.0,0.33,276.0,2700.0,33.27916935410658,7.603158415498996,20528.527721847287,24.472612403828347,9.200468961198581,8.806556950278232,1.5973105456995853,9140,132,2280,5136,60.186087110775084,34.74325702915789,0.000750220462112638,False
0.4800000000000001,1.158496880627708,2.800000000000001,6448.0,27.174419999999998,0.3,68900.0,0.33,276.0,2700.0,54.96862642434627,12.960846998679239,34994.28689643394,37.246856399446095,18.318742432387637,17.721770024900174,5.357895433708398,5538,122,1742,2849,74.44772542967243,42.91554711874292,0.001055034250233086,False
0.49,0.9312467969657761,2.800000000000001,6449.0,27.174419999999998,0.08,68900.0,0.33,276.0,2700.0,37.49064033120404,8.938803391743532,24134.769157707535,27.281164762285748,11.011322699849845,10.209475568918293,2.0725193081063136,129208,344,15736,85852,66.80530079923,37.93359024930185,0.0008016164067799263,False
0.5,0.8106152163139715,2.800000000000001,6450.0,27.174419999999998,0.08,68900.0,0.33,276.0,2700.0,29.19546703445055,7.037067370813492,19000.08190119643,22.51841252237624,8.011298398124381,6.67705451207431,0.9742310273108892,100906,294,12122,67179,67.74092906928135,38.999448705177464,0.0007420511949043678,False
0.01,0.6195941203457698,2.800000000000001,6451.0,30.1938,0.05,68900.0,0.33,276.0,2700.0,31.118925424333128,0.15559253272656204,420.0998383617175,15.724659481403785,4.373279945430618,15.394265942929342,4.2176874127040564,100382,502,33262,50483,2198.2717069951386,1250.4422321093496,0.01929570026016159,True
0.02,0.5171561511083915,2.800000000000001,6452.0,30.1938,0.08,68900.0,0.33,276.0,2700.0,24.311553367218917,0.24309877851137152,656.366701980703,12.459168115294089,2.9319842553688784,11.852385251924828,2.688885476857507,31332,274,10332,15828,863.4838100961188,492.3946661200737,0.0077223831732593645,True
0.03,0.4079832976533727,2.800000000000001,6453.0,30.1938,0.08,68900.0,0.33,276.0,2700.0,17.714498218060914,0.26566092460314766,717.2844964284986,9.269294104838956,1.748630370957784,8.445204113221958,1.4829694463546363,23100,230,7592,11706,444.4968668936704,253.3846057649101,0.00392383202823958,True
0.04,0.7144203239053588,2.800000000000001,6454.0,30.1938,0.1,68900.0,0.33,276.0,2700.0,36.56331399974997,0.7311322387084422,1974.057044512794,18.98256910317056,6.017071462043201,17.58074489657941,5.285939223334759,29941,278,9856,15151,643.256178893511,366.6314717013874,0.006039887908857996,True
0.05,0.6470164025396581,2.800000000000001,6455.0,30.1938,0.2,68900.0,0.33,276.0,2700.0,31.62584445416396,0.7903843119662993,2134.0376423090083,16.64356963071074,4.81704211321773,14.98227482345322,4.026657801251431,6672,130,2190,3381,386.1385932179719,220.8162086850017,0.004302611117160234,True
0.06000000000000001,0.7424368252979512,2.800000000000001,6456.0,30.1938,0.2,68900.0,0.33,276.0,2700.0,37.84683670398522,1.1349527117774325,3064.372321799068,19.98837062895638,6.562940098185736,17.85846607502884,5.4279873864083035,7881,144,2592,3987,365.4168828887767,208.55223251821653,0.004332382556596167,True
0.06999999999999999,0.46778309916488264,2.800000000000001,6457.0,30.1938,0.1,68900.0,0.33,276.0,2700.0,19.966016369215765,0.6980921954024296,1884.84892758656,10.979456242093063,2.353618120707332,8.986560127122702,1.6555259253049024,16758,196,5500,8502,207.01214978535117,118.87237551469148,0.0021036528399751165,False
0.08,0.5909861747346845,2.800000000000001,6458.0,30.1938,0.2,68900.0,0.33,276.0,2700.0,27.057064982410612,1.0812102690040002,2919.2677263108003,14.786160963617748,3.936903035915763,12.270904018792864,2.855692766911763,5962,120,1956,3022,232.26256894697306,133.17955704491297,0.0024811003427916184,False
0.09,0.4784269575923338,2.800000000000001,6459.0,30.1938,0.2,68900.0,0.33,276.0,2700.0,20.02279420845921,0.8994989253510185,2428.64709844775,11.293272793436579,2.47214948248143,8.729521415022631,1.5726505571304115,4456,102,1456,2266,165.65011515930846,95.6377918570155,0.0017143997252650105,False
0.09999999999999999,0.641834097032727,2.800000000000001,6460.0,30.1938,0.3,68900.0,0.33,276.0,2700.0,29.69019526020661,1.4824153679079386,4002.5214933514344,16.468464233661233,4.7312440669898965,13.221731026545378,3.248828699081958,3018,86,992,1524,195.94401126253595,113.0356903348969,0.002242802641823436,False
0.11,0.7242530025842655,2.800000000000001,6461.0,30.1938,0.3,68900.0,0.33,276.0,2700.0,34.88119836239512,1.9156782700504442,5172.331329136199,19.333318657680337,6.205443377354679,15.54787970471478,4.289765107304235,3531,94,1152,1797,198.3022375760035,114.46915658592741,0.002401642223492166,False
0.12,0.811710704244643,2.800000000000001,6462.0,30.1938,0.3,68900.0,0.33,276.0,2700.0,40.74178124351395,2.4408877598739043,6590.396951659542,22.56001878988144,8.035989834088998,18.18176245363251,5.595102074215093,3942,102,1298,1989,203.63378777694425,117.4460519170985,0.0025729623323387115,False
0.13,0.7203849144500378,2.800000000000001,6463.0,30.1938,0.3,68900.0,0.33,276.0,2700.0,33.96170398649839,2.2029093730824405,5947.855307322589,19.195046984060987,6.130927941582256,14.766657002437405,3.928018568499816,3526,94,1148,1798,170.62370195474983,98.47678806205693,0.0020389075943620222,False
0.14,0.6406061283799223,2.800000000000001,6464.0,30.1938,0.3,68900.0,0.33,276.0,2700.0,28.38340830732577,1.9810915613518387,5348.947215649964,16.427071205636622,4.711046727699666,11.956337101689147,2.7299551663478274,2877,84,942,1458,143.00265135877626,82.56252900406696,0.001638631494650865,False
0.15000000000000002,0.47675729375434917,2.800000000000001,6465.0,30.1938,0.2,68900.0,0.33,276.0,2700.0,18.33418730625792,1.3679954644987677,3693.587754146673,11.243857225187543,2.453334776728081,7.090330081070377,1.0853393122293131,3706,94,1222,1867,100.06997108343995,57.774640301727274,0.0010766355854713362,False
0.16,0.6139292387587394,2.800000000000001,6466.0,30.1938,0.3,68900.0,0.33,276.0,2700.0,26.112449819766375,2.0804173432419075,5617.12682675315,15.53718685006501,4.284732997343057,10.575262969701365,2.2043156541011495,2752,80,900,1396,123.99425799546563,71.22162877972087,0.001374636532453048,False
0.17,0.5816064403864372,2.800000000000001,6467.0,30.1938,0.1,68900.0,0.33,276.0,2700.0,23.85328296404338,2.0172392888056296,5446.5460797752,14.48293148362395,3.799636608375224,9.37035148041943,1.7823973195695944,20831,216,6528,10751,107.95692701301829,62.31715702923445,0.001218009074773741,False
0.18000000000000002,0.5779385224874884,2.800000000000001,6468.0,30.1938,0.3,68900.0,0.33,276.0,2700.0,23.35580447974358,2.0898078909397846,5642.481305537418,14.36495587318918,3.746730870535426,8.9908486065544,1.6569229795956413,2608,78,858,1315,102.26842562790213,59.04411315313609,0.001146901088311013,False
0.19,0.8455377842960663,2.800000000000001,6469.0,30.1938,0.3,68900.0,0.33,276.0,2700.0,40.79257187088132,3.8609288717264083,10424.507953661303,23.85960505908385,8.82102893153513,16.932966811797467,4.960100059808722,4072,102,1328,2074,136.67806907372307,78.90665670573722,0.0017727942776046696,False
0.2,0.5948503256066059,2.800000000000001,6470.0,30.1938,0.2,68900.0,0.33,276.0,2700.0,23.817477036953445,2.3649925428761978,6385.479865765734,14.91172492252879,3.9942814708935344,8.905752114424654,1.6292889280173366,4985,110,1644,2513,93.9644727448707,54.20136857014873,0.001083306211166314,False
0.21000000000000002,0.8809010437809837,2.800000000000001,6471.0,30.1938,0.3,68900.0,0.33,276.0,2700.0,42.70829062601277,4.464974322688073,12055.430671257798,25.24895640932337,9.689255710322254,17.4593342166894,5.22428138763418,4189,106,1378,2116,128.84078181595132,74.15808581702363,0.001705555267298611,False
0.22,0.7327129094643614,2.800000000000001,6472.0,30.1938,0.3,68900.0,0.33,276.0,2700.0,31.96053898569572,3.4933581693762465,9432.067057315866,19.637043632927686,6.370284927280322,12.323495352768035,2.876926757904075,3132,88,1028,1584,104.36095252139543,60.07934503851717,0.0012847811115425072,False
0.23,0.5879113907189863,2.800000000000001,6473.0,30.1938,0.1,68900.0,0.33,276.0,2700.0,22.59298047586997,2.572710249514228,6946.317673688416,14.686515261657977,3.8915920399209996,7.906465214211995,1.3188817904067713,24843,208,6126,14056,85.15672341753334,49.151030851535474,0.0009571562564062126,False
0.24000000000000005,0.5735155234739879,2.800000000000001,6474.0,30.1938,0.08,68900.0,0.33,276.0,2700.0,21.488445065807262,2.54966049000139,6884.083323003752,14.223143391477395,3.6835084843339447,7.2653016743298675,1.1338479943325548,46611,254,9230,28276,80.68930240545919,46.57067653192468,0.0009003317364716717,False
0.25,0.672216059457246,2.800000000000001,6475.0,30.1938,0.3,68900.0,0.33,276.0,2700.0,27.172838693267526,3.363879913183547,9082.475765595576,17.50466415646386,5.247270485854251,9.668174536803665,1.8833905726707045,2812,82,924,1420,86.9508682010121,50.15610766994843,0.001034170504933548,False
0.26,0.8932119198236073,2.800000000000001,6476.0,30.1938,0.3,68900.0,0.33,276.0,2700.0,41.91862570930907,5.412610253890517,14614.047685504396,25.740001305335916,10.003111171567665,16.178624403973153,4.590500917677148,4015,104,1328,2017,106.60168754086693,61.451291854207824,0.0014282979585734906,False
0.27,0.602929175001369,2.800000000000001,6477.0,30.1938,0.1,68900.0,0.33,276.0,2700.0,22.425531761314588,2.9862228089770637,8062.801584238072,15.17545621404258,4.115815269100139,7.250075547272008,1.1295924601230753,26206,206,6088,15166,77.0107952095681,44.42915440480083,0.0008648281247035158,False
0.28,0.7484514785160713,2.800000000000001,6478.0,30.1938,0.3,68900.0,0.33,276.0,2700.0,31.20594930976093,4.322856742078796,11671.71320361275,20.20687079366343,6.683819861561651,10.999078516097498,2.3609631194828546,3177,86,1040,1611,87.21230583370934,50.34801248871994,0.001066156137418201,False
0.29000000000000004,0.9548544087042721,2.800000000000001,6479.0,30.1938,0.3,68900.0,0.33,276.0,2700.0,45.50748598334758,6.547505265433135,17678.264216669464,28.256026112989375,11.666845363553831,17.251459870358204,5.119340098120696,4090,106,1346,2065,102.69772918503722,59.25012524097156,0.0014150302319185216,False
0.3,0.8856435696316574,2.800000000000001,6480.0,30.1938,0.3,68900.0,0.33,276.0,2700.0,40.05084424188084,5.951077968517516,16067.910514997293,25.437670870774316,9.809446806999567,14.613173371106523,3.8583688384820514,3952,102,1302,1993,93.08750771759608,53.70856622401152,0.0012408705684700335,False
0.31,0.7216573486421843,2.800000000000001,6481.0,30.1938,0.1,68900.0,0.33,276.0,2700.0,28.612264671211992,4.372506899542467,11805.76862876466,19.24049089778217,6.155381283564616,9.371773773429823,1.7828743840221488,40194,238,7732,24562,79.40645100654152,45.80970779478488,0.0009491429264874389,False
0.32,0.7265971470855928,2.800000000000001,6482.0,30.1938,0.3,68900.0,0.33,276.0,2700.0,28.648015848234333,4.515053397002275,12190.644171906142,19.417297258314786,6.250861871987816,9.230718589919547,1.7358084749855411,2963,84,980,1487,74.62773069353517,43.03548148751651,0.0009189337028771226,False
0.33,0.7244716368960055,2.800000000000001,6483.0,30.1938,0.2,68900.0,0.33,276.0,2700.0,28.236479051657327,4.5837527667287485,12376.13247016762,19.341145357106562,6.209671159743682,8.895333694550764,1.625918393014933,6117,120,1898,3164,75.10644478033724,43.32846217950034,0.0009004084513125356,False
0.34,0.8640144883292276,2.800000000000001,6484.0,30.1938,0.1,68900.0,0.33,276.0,2700.0,37.25115575746828,6.250378373665145,16876.02160889589,24.581596797458797,9.268532595500782,12.669558960009486,3.018154221835637,53481,278,9922,32958,84.65779234949076,48.84776364544065,0.001092013965322566,False
0.3500000000000001,0.7457863008036968,2.800000000000001,6485.0,30.1938,0.2,68900.0,0.33,276.0,2700.0,29.04145607700462,4.992457623460693,13479.63558334387,20.10993810814476,6.630094170951655,8.931517968859861,1.6376365474909624,6823,122,1988,3629,76.52991676681137,44.18085681291005,0.0008889137777548071,False
0.36000000000000004,0.9627872414643621,2.800000000000001,6486.0,30.1938,0.3,68900.0,0.33,276.0,2700.0,43.7575602648851,7.778644749782066,21002.340824411578,28.586751579096962,11.8923064425321,15.170808685788138,4.113661692750034,4347,108,1434,2186,85.926780445573,49.56894170425723,0.0011796562546934424,False
0.37,0.9706656489178576,2.800000000000001,6487.0,30.1938,0.3,68900.0,0.33,276.0,2700.0,44.0181721371545,8.037274450252054,21700.641015680547,28.91677337530721,12.118823518159196,15.101398761847292,4.081549067907142,4350,108,1434,2189,84.42719712406473,48.69304505518669,0.001164124545114757,False
0.38,0.8941088822858358,2.800000000000001,6488.0,30.1938,0.1,68900.0,0.33,276.0,2700.0,38.141994809114074,7.132055365673157,19256.549487317523,25.775927391689663,10.026215097180302,12.36606741742441,2.894159731507145,59572,284,10426,37077,88.06592869680703,49.80432286012342,0.0010387912127380282,False
0.39,0.6958423555219014,2.800000000000001,6489.0,30.1938,0.05,68900.0,0.33,276.0,2700.0,24.88260417381418,4.727870390814908,12765.250055200251,18.32649182158132,5.6705216142017285,6.556112352232859,0.9426512233868207,263228,430,26286,179441,350.4222265305099,178.56614312113385,0.0008236596175708749,True
0.4,0.9272666850996722,2.800000000000001,6490.0,30.1938,0.3,68900.0,0.33,276.0,2700.0,39.88792706184509,7.8435441258158605,21177.569139702824,27.11818838311869,10.903065076420484,12.769738678726402,3.0595209506046235,3808,100,1260,1912,76.13314335065837,43.87118692125411,0.0010274700208913396,False
0.4100000000000001,0.9877856155492004,2.800000000000001,6491.0,30.1938,0.3,68900.0,0.33,276.0,2700.0,43.99934171491708,8.875517246705966,23963.89656610611,29.639296627977643,12.620051991274304,14.360045086939436,3.7445347445683375,4286,108,1422,2147,79.33739990165516,45.695812335634514,0.0010896893445475,False
0.42000000000000004,0.8911090764336999,2.800000000000001,6492.0,30.1938,0.3,68900.0,0.33,276.0,2700.0,36.73306659821802,7.558774441279678,20408.690991455132,25.655855274703903,9.94907247240377,11.077211323514113,2.3902980311240922,3570,94,1178,1795,70.11555539734466,40.39471125225691,0.0009382451949540908,False
0.43,1.011184909052098,2.800000000000001,6493.0,30.1938,0.3,68900.0,0.33,276.0,2700.0,45.10810025018308,9.531722482383172,25735.650702434563,30.638744177238348,13.325256942712953,14.46935607294473,3.7935344603297807,4443,110,1474,2220,76.40528467244197,44.029487456764855,0.001078237685034028,False
0.44,0.8041564601689735,2.800000000000001,6494.0,30.1938,0.1,68900.0,0.33,276.0,2700.0,30.346724788724348,6.497870501117097,17544.250353016163,22.273724236697202,7.86664821814805,8.073000552027146,1.3687777170309534,51879,242,8190,33040,67.27718752480988,38.81007733449819,0.0008166107166301518,False
0.45,0.9213306920968736,2.800000000000001,6495.0,30.1938,0.1,68900.0,0.33,276.0,2700.0,37.95959766878826,8.350057721771956,22545.15584878428,26.87586287408676,10.742811359258763,11.083734794701503,2.3927536374868072,65138,278,9986,41749,72.59839305714708,41.89037619049895,0.0009399694799844466,False
0.46,1.1326828251778902,2.800000000000001,6496.0,30.1938,0.3,68900.0,0.33,276.0,2700.0,53.570242851696285,12.117295814203606,32716.698698349737,36.04947835073679,17.37274063456894,17.520764500959494,5.2554448203653354,4919,118,1626,2466,79.54030197247488,45.78628506435237,0.0011757963452810397,False
0.4700000000000001,0.8808723930829837,2.800000000000001,6497.0,30.1938,0.3,68900.0,0.33,276.0,2700.0,34.59766870496951,7.913005762952065,21365.115559970574,25.247818059308926,9.688532326404665,9.349850645660581,1.7755265634526003,3585,92,1118,1848,62.06070079247925,35.76727003536203,0.0008485346745513822,False
0.4800000000000001,0.8483726254895547,2.800000000000001,6498.0,30.1938,0.08,68900.0,0.33,276.0,2700.0,32.155807473518145,7.485770450480487,20211.580216297316,23.969821487279347,8.888823298138519,8.185985986238798,1.4030528476580315,108684,312,13310,72155,78.13823017418363,44.55927638535808,0.0008114522149696801,False
0.49,1.0123145933049442,2.800000000000001,6499.0,30.1938,0.2,68900.0,0.33,276.0,2700.0,43.30464595701008,10.363234770066018,27980.73387917825,30.687344282295584,13.359896497903149,12.617301674714497,2.9966617278371306,11717,152,2874,6636,73.16546956085959,42.180963064069,0.0009788881181801371,False
0.5,1.085628911830847,2.800000000000001,6500.0,30.1938,0.3,68900.0,0.33,276.0,2700.0,48.52268154149733,11.868870997575183,32045.951693452993,33.90998178684442,15.727025642543852,14.612699754652908,3.8581546449686694,4975,112,1484,2619,72.51110320822184,41.78865373944556,0.001044912645467615,False
0.01,0.5598593032581004,2.800000000000001,6501.0,33.21318,0.05,68900.0,0.33,276.0,2700.0,27.261405769775084,0.13630493445377445,368.023323025191,13.788393155623725,3.492247962462478,13.47301261415136,3.3559430280087037,87892,466,29132,44188,1999.1335727221806,1140.3791860335589,0.018420426786421366,True
0.02,0.489382004597059,2.800000000000001,6502.0,33.21318,0.1,68900.0,0.33,276.0,2700.0,22.64565322981191,0.22643977713729932,611.3873982707082,11.619237642219403,2.597650543287715,11.026415587592506,2.3712107661504156,18444,210,6108,9276,768.123000857008,443.200947306643,0.007933198103251202,True
0.03,0.4360384586235845,2.800000000000001,6503.0,33.21318,0.1,68900.0,0.33,276.0,2700.0,19.275611823637984,0.28907762868680636,780.5095974543772,10.060427454139411,2.0197333474602024,9.215184369498573,1.730655718773396,15926,192,5226,8081,494.18211156411155,282.109657937272,0.004675560524165412,True
0.04,0.36961987817573283,2.800000000000001,6504.0,33.21318,0.1,68900.0,0.33,276.0,2700.0,15.383798373342769,0.30754192618030324,830.3632006868187,8.219495682405576,1.4132837341339604,7.164302690937193,1.1057418079536572,12972,170,4260,6576,5294.843387279741,2770.289042124111,0.002938386693109927,True
0.05,0.6575523826371259,2.800000000000001,6505.0,33.21318,0.2,68900.0,0.33,276.0,2700.0,32.328769122280185,0.8079574286692054,2181.4850574068546,17.001651916303366,4.994282355981038,15.327117205976819,4.186324927311833,6691,132,2212,3367,419.3329738999144,241.683732230633,0.004830014859837781,True
0.06000000000000001,0.4374023564188686,2.800000000000001,6506.0,33.21318,0.08,68900.0,0.33,276.0,2700.0,18.5288616157246,0.5554134591296208,1499.6163396499762,10.099392513660751,2.03348130915012,8.42946910206385,1.4780678500204991,23921,234,7854,12134,253.09437035823612,145.12449010566243,0.0024611606308114348,False
0.06999999999999999,0.5469746196762748,2.800000000000001,6507.0,33.21318,0.2,68900.0,0.33,276.0,2700.0,24.632787639490186,0.8614291898620359,2325.8588126274967,13.382502376968528,3.3172082466956523,11.250285262521658,2.4557790568336166,5210,112,1714,2633,261.2063133340642,150.80752021595856,0.0028049534399058476,False
0.08,0.47086248006221293,2.800000000000001,6508.0,33.21318,0.08,68900.0,0.33,276.0,2700.0,19.86617401775719,0.793574630417863,2142.6515021282303,11.069953971945408,2.3875673258552106,8.796220045811781,1.5939926954373476,25096,242,8262,12697,198.94245166315508,114.27024316655293,0.0020618711294567546,False
0.09,0.5358981909886215,2.800000000000001,6509.0,33.21318,0.2,68900.0,0.33,276.0,2700.0,23.380071852693668,1.05057641934157,2836.5563322222392,13.036910049220795,3.1708947239920877,10.343161803472873,2.1203183046505174,4890,108,1600,2484,196.55363100901266,113.47684822179488,0.0021673579667649866,False
0.09999999999999999,0.4745941941707332,2.800000000000001,6510.0,33.21318,0.2,68900.0,0.33,276.0,2700.0,19.533470628399193,0.9745791363175679,2631.363668057433,11.1799420576702,2.4290823424798327,8.353528570728994,1.454503206162265,3898,96,1280,1972,162.32516934879004,93.54901366977012,0.0016953544586408554,False
0.11,0.6541455915880654,2.800000000000001,6511.0,33.21318,0.3,68900.0,0.33,276.0,2700.0,30.17950293757111,1.6570850216851278,4474.129558549846,16.885561417235277,4.936559111262236,13.293941520335835,3.279474089577108,3039,86,996,1539,200.6829097597602,115.86429147078779,0.0023142236078298314,False
0.12,0.5666167458814494,2.800000000000001,6512.0,33.21318,0.1,68900.0,0.33,276.0,2700.0,24.3667950892795,1.4583885906198342,3937.6491946735523,14.002932730828348,3.586146461257049,10.36386235845115,2.1277578706372147,20248,220,6674,10231,154.51089374835914,89.17529887209272,0.0017792305983466339,False
0.13,0.770011219384567,2.800000000000001,6513.0,33.21318,0.3,68900.0,0.33,276.0,2700.0,37.40459448343193,2.4266972553831208,6552.082589534426,20.99756316273146,7.12797733205009,16.40703132070047,4.701280076666969,3822,100,1262,1923,199.36412443260696,114.82719730825424,0.002450067661460718,False
0.14,0.7219607776412724,2.800000000000001,6514.0,33.21318,0.3,68900.0,0.33,276.0,2700.0,33.74567998193388,2.356450578573549,6362.416562148582,19.251333617274565,6.161221051399242,14.494346364659318,3.804770472825693,3555,94,1156,1815,174.74583686121179,100.73555398607867,0.0021017861620411323,False
0.15000000000000002,0.764863510656729,2.800000000000001,6515.0,33.21318,0.3,68900.0,0.33,276.0,2700.0,36.37576188681453,2.721113558040426,7347.006606709151,20.807711940150227,7.02037692798546,15.568049946664303,4.2992633699450336,3699,96,1214,1872,170.62999030642825,98.4701644320901,0.002126561214775018,False
0.16,0.7038625844721709,2.800000000000001,6516.0,33.21318,0.3,68900.0,0.33,276.0,2700.0,31.893753795196016,2.5429216612762815,6865.88848544596,18.60866055823172,5.818634722915902,13.285093236964297,3.27571306163962,3135,88,1032,1581,150.44634822441853,86.8126491369588,0.0017965710894478392,False
0.17,0.5281649654513002,2.800000000000001,6517.0,33.21318,0.2,68900.0,0.33,276.0,2700.0,20.710664016497915,1.7501166782642648,4725.315031313515,12.797455895215023,3.0710042033525573,7.913208121282892,1.3208875250882925,4330,102,1428,2182,108.45000809440492,62.44843851858261,0.0011947505050325406,False
0.18000000000000002,0.5636609750088236,2.800000000000001,6518.0,33.21318,0.2,68900.0,0.33,276.0,2700.0,22.508382507266745,2.013539913416847,5436.557766225486,13.908949835396154,3.5448959505966116,8.599432671870591,1.5313560371797648,4745,108,1558,2402,109.48768878292002,63.01300029903953,0.0012265344051245676,False
0.19,0.719315447545331,2.800000000000001,6519.0,33.21318,0.3,68900.0,0.33,276.0,2700.0,31.98986798348477,3.0246720024237366,8166.6144065440885,19.156883349335736,6.110419884032554,12.832984634149035,3.0857478816088175,3308,90,1086,1673,130.74780813715236,75.39545047315964,0.0015777925445215329,False
0.2,0.5781851942409718,2.800000000000001,6520.0,33.21318,0.2,68900.0,0.33,276.0,2700.0,22.823553809555065,2.265600220136359,6117.120594368169,14.37287926541409,3.7502752765964638,8.450674544140975,1.4846750564601048,4850,106,1600,2444,101.72857541761837,58.700834374888075,0.0011514517872692716,False
0.21000000000000002,0.5137898699843872,2.800000000000001,6521.0,33.21318,0.08,68900.0,0.33,276.0,2700.0,18.86061371896426,1.9609682474479853,5294.61426810956,12.356334391813027,2.8902163564258894,6.504279327151233,0.9292481089779041,33693,234,8054,19292,90.18592392647594,52.007216591886674,0.0009768227274729575,False
0.22,0.8013691242245722,2.800000000000001,6522.0,33.21318,0.3,68900.0,0.33,276.0,2700.0,36.64373877482664,4.008510146180648,10822.97739468775,22.16845060421743,7.8047106278124705,14.475288170609208,3.796200481631822,3739,98,1228,1891,143.43554828934563,81.90260993670547,0.00158596054555239,False
0.23,0.6541994610727152,2.800000000000001,6523.0,33.21318,0.3,68900.0,0.33,276.0,2700.0,26.611559371085036,3.0348468224639578,8194.086420652686,16.88739481492191,4.937468777135571,9.724164556163124,1.9026219546716132,2706,80,886,1371,100.27290423923547,57.8433625119769,0.0011831283463366136,False
0.24000000000000005,0.5563300778649425,2.800000000000001,6524.0,33.21318,0.1,68900.0,0.33,276.0,2700.0,20.49942100484045,2.430977602685371,6563.6395272505015,13.6768012781069,3.443782623716183,6.822619726733549,1.012805021030812,22246,194,5428,12640,90.68883068485212,52.34309575323915,0.0010088075019640767,False
0.25,0.9211878351903786,2.800000000000001,6525.0,33.21318,0.3,68900.0,0.33,276.0,2700.0,44.33925843328732,5.50968238068603,14876.14242785228,26.87004192806818,10.738972372415628,17.46921650521914,5.229289991729598,4293,108,1416,2163,124.5121481000987,71.88148231060865,0.001697980904887839,False
0.26,0.9575219031255819,2.800000000000001,6526.0,33.21318,0.3,68900.0,0.33,276.0,2700.0,46.752507421759816,6.041014876509118,16310.74016657462,28.36705936349901,11.742366206113841,18.385448058260806,5.701351329604723,4592,112,1518,2309,124.69267039186155,71.92345988978785,0.001722981190090662,False
0.27,0.9423426721524369,2.800000000000001,6527.0,33.21318,0.3,68900.0,0.33,276.0,2700.0,45.246648236421045,6.067073533116433,16381.09853941437,27.737617316709144,11.316560608117527,17.5090309197119,5.249487075001094,4281,108,1408,2163,118.98382763698223,68.53961262316622,0.0016306940719072018,False
0.28,0.907988632448574,2.800000000000001,6528.0,33.21318,0.3,68900.0,0.33,276.0,2700.0,42.33838025440892,5.881397074329451,15879.772100689517,26.334431106848808,10.387848875406368,16.00394914756011,4.506451801076917,4178,106,1372,2114,112.07036985260443,64.68106848290395,0.0015019660101305023,False
0.29000000000000004,0.8069064868603492,2.800000000000001,6529.0,33.21318,0.3,68900.0,0.33,276.0,2700.0,34.829311663971005,4.999169989123536,13497.758970633548,22.377780112221746,7.928044588974711,12.451531551749259,2.9288745998511745,3238,92,1066,1633,97.9727692221623,56.4569070311416,0.001247476858974688,False
0.3,0.7843618351100735,2.800000000000001,6530.0,33.21318,0.3,68900.0,0.33,276.0,2700.0,32.99982976313126,4.8934257967050625,13212.249651103668,21.530340487660542,7.433121943790521,11.469489275470718,2.5396961470854587,3427,92,1128,1729,92.9355838484435,53.49337095183228,0.0011690877416622864,False
0.31,0.6890123859264344,2.800000000000001,6531.0,33.21318,0.08,68900.0,0.33,276.0,2700.0,26.56057168163865,4.054494486158593,10947.135112628202,18.087473505940295,5.54616914347352,8.473098175698354,1.4916746573149267,64378,284,11190,40117,88.12029784765824,49.64556695852574,0.0009918346334967904,False
0.32,0.7940329001365223,2.800000000000001,6532.0,33.21318,0.3,68900.0,0.33,276.0,2700.0,33.05568154140825,5.220279907910099,14094.755751357266,21.892305357860582,7.643091665143664,11.163376183547665,2.422811757233565,3327,90,1094,1680,89.56773225673574,51.66688534616163,0.0011247794740285803,False
0.33,0.7509757550177171,2.800000000000001,6533.0,33.21318,0.3,68900.0,0.33,276.0,2700.0,29.93205537589278,4.86352286022737,13131.5117226139,20.298843507695057,6.734943639270854,9.633211868197723,1.8714207790434845,3001,84,986,1516,82.6894621775504,47.56991446122329,0.0010268100953699276,False
0.34,0.7733507625593541,2.800000000000001,6534.0,33.21318,0.3,68900.0,0.33,276.0,2700.0,31.104863882222936,5.20550875487336,14054.873638158073,21.121084106873127,7.198305774556033,9.98377977534981,1.9927970196826728,3286,90,1086,1651,81.99249802090377,47.33792285653183,0.0010358160591882103,False
0.3500000000000001,0.7767878915711816,2.800000000000001,6535.0,33.21318,0.1,68900.0,0.33,276.0,2700.0,31.04589001494224,5.343233562599783,14426.730619019416,21.24850719484016,7.271120565252524,9.797382820102083,1.9278870026527404,45234,248,8326,27907,84.4196754053881,48.71631340814299,0.0010323702208616962,False
0.36000000000000004,0.9254291161505168,2.800000000000001,6536.0,33.21318,0.3,68900.0,0.33,276.0,2700.0,41.00822250612848,7.283763953205866,19666.16267365584,27.04307852238412,10.853302558259646,13.965143983744362,3.56953860505378,3755,100,1248,1877,93.89469638855807,54.02004448362058,0.0012329934922433452,False
0.37,0.9644082768311255,2.800000000000001,6537.0,33.21318,0.3,68900.0,0.33,276.0,2700.0,43.55187004291502,7.951008562817761,21467.723119607956,28.654528319203365,11.938701503187618,14.897341723711655,3.9876929403698567,4327,108,1428,2175,92.31055921406488,53.243735623566955,0.0012700855114969427,False
0.38,0.9202118553546832,2.800000000000001,6538.0,33.21318,0.3,68900.0,0.33,276.0,2700.0,40.00142050952491,7.485346248751064,20210.434871627873,26.830287702708475,10.71276715491785,13.171132806816438,3.2274209061667865,3866,100,1280,1940,87.8647294922659,50.646564099413524,0.001169201032404458,False
0.39,0.9849065084443989,2.800000000000001,6539.0,33.21318,0.3,68900.0,0.33,276.0,2700.0,44.43082620146414,8.53977368620665,23057.388952757952,29.517272873416758,12.534892991484853,14.913553328047385,3.9951193052782035,4282,108,1418,2149,89.21027199905586,51.35209988045101,0.0012464474594257272,False
0.4,0.9569517509912353,2.800000000000001,6540.0,33.21318,0.3,68900.0,0.33,276.0,2700.0,42.03974748684099,8.273908210814824,22339.552169200026,28.343312011498504,11.726199436862657,13.696435475342483,3.4522912260478336,4038,104,1346,2009,86.14003404023155,49.687458199548885,0.0011745906802588756,False
0.4100000000000001,0.7569046090066631,2.800000000000001,6541.0,33.21318,0.08,68900.0,0.33,276.0,2700.0,28.13082970111341,5.6224722838762125,15180.675166465773,20.515492739703586,6.855934322917477,7.615336961409824,1.2334620390412647,83033,290,11788,53953,75.06177024563436,42.92123019677018,0.0008868845307873486,False
0.42000000000000004,0.9067740241823059,2.800000000000001,6542.0,33.21318,0.3,68900.0,0.33,276.0,2700.0,37.82672772560782,7.788443278031538,21028.796850685154,26.2853634848055,10.355892660417936,11.541364240802316,2.567449382386398,3602,96,1192,1808,81.49123795453788,46.952057481375526,0.0010524219325527666,False
0.43,0.8042787257094548,2.800000000000001,6543.0,33.21318,0.1,68900.0,0.33,276.0,2700.0,30.623356306651683,6.417502534524135,17327.256843215164,22.278346499089544,7.869371809648259,8.345009807562139,1.4518692751241238,51098,244,8250,32383,75.0353451866843,43.2558055895515,0.0009147376363658873,False
0.44,1.1223095867832342,2.800000000000001,6544.0,33.21318,0.3,68900.0,0.33,276.0,2700.0,53.42708107206029,11.575548883451006,31253.981985317718,35.573035622872034,17.00126426640204,17.854045449188256,5.425715382951033,4903,118,1634,2446,90.35810543346204,52.04410053420799,0.0013306216607909278,False
0.45,0.8770430465765606,2.800000000000001,6545.0,33.21318,0.2,68900.0,0.33,276.0,2700.0,34.9004654915237,7.661752981887256,20686.73305109559,25.095856050193607,9.592140757725653,9.80460944133009,1.9303877758383976,9407,134,2328,5307,76.32069297082691,44.00075586550538,0.0009694040023330108,False
0.46,0.9128200738709207,2.800000000000001,6546.0,33.21318,0.2,68900.0,0.33,276.0,2700.0,37.07308935666969,8.322950510347482,22471.966377938203,26.529978267304102,10.515554287809465,10.543111089365588,2.192603777461983,10367,140,2590,5826,78.73896788895689,45.32804461148978,0.000999910333605194,False
0.4700000000000001,1.0039767253313754,2.800000000000001,6547.0,33.21318,0.2,68900.0,0.33,276.0,2700.0,43.30666923917962,9.95962088849144,26890.976398926887,30.32939641814924,13.105522947848145,12.977272821030379,3.1459020593567057,11696,152,2878,6613,82.62314424488686,47.62807956738742,0.0011041923484101173,False
0.4800000000000001,1.071611813679791,2.800000000000001,6548.0,33.21318,0.3,68900.0,0.33,276.0,2700.0,48.08986037458328,11.309943146736124,30536.846496187536,33.283394997546566,15.256103331902334,14.806465377036716,3.9461601851662103,4828,112,1504,2494,84.67876042167258,48.854989303021924,0.0011652891174392945,False
0.49,0.922279504901612,2.800000000000001,6549.0,33.21318,0.3,68900.0,0.33,276.0,2700.0,36.86781713779471,8.786211709358243,23722.771615267255,26.91453687099319,10.76832986749403,9.95328026680152,1.982118158135787,3976,96,1192,2090,84.63549505852454,46.46267467664375,0.000954687767035003,False
0.5,0.994657435072855,2.800000000000001,6550.0,33.21318,0.3,68900.0,0.33,276.0,2700.0,41.708666346682605,10.165367198871506,27446.491436953067,29.93138354329882,12.82473079316144,11.777282803383784,2.6593635942899336,4359,102,1308,2293,81.0511964026545,46.78332566453026,0.0010324404879252288,False
0.01,0.39370009390790434,2.800000000000001,6551.0,36.23256,0.05,68900.0,0.33,276.0,2700.0,17.474616395008752,0.08737098757994116,235.90166646584115,8.87411828618372,1.6190634459377815,8.600498108825033,1.5316924583578404,57306,362,18982,28827,2801.525683380754,1598.8693628829392,0.017400592150340746,True
0.02,0.5028250404763752,2.800000000000001,6552.0,36.23256,0.1,68900.0,0.33,276.0,2700.0,23.44712791355266,0.23445452397470928,633.027214731715,12.023353587510615,2.7565595563363563,11.423774326042045,2.522105032361647,19254,214,6368,9696,871.9079899604488,500.31200540485435,0.008950449546905983,True
0.03,0.7258829142883977,2.800000000000001,6553.0,36.23256,0.1,68900.0,0.33,276.0,2700.0,37.719610052308774,0.5657376021168762,1527.4915257155658,19.39169535398685,6.237002545076006,18.327914698321923,5.67126494295913,30720,282,10106,15555,961.3659806430069,547.1797054438928,0.00990934102380678,True
0.04,0.36115996699191955,2.800000000000001,6554.0,36.23256,0.08,68900.0,0.33,276.0,2700.0,14.939255176596127,0.2986510622453705,806.3578680625004,7.9929716688602435,1.3447069853102336,6.946283507735884,1.0460559230648632,19482,210,6386,9897,343.6571289581914,196.72694881631503,0.003119254897204651,True
0.05,0.5882556516961743,2.800000000000001,6555.0,36.23256,0.1,68900.0,0.33,276.0,2700.0,27.80786622262741,0.6949348561778883,1876.3241116802985,14.697660046308608,3.8966499522882403,13.110206176318803,3.2017150961103518,22602,236,7414,11475,494.8417057949506,282.65929526593726,0.004567149826929065,True
0.06000000000000001,0.5628998785347468,2.800000000000001,6556.0,36.23256,0.2,68900.0,0.33,276.0,2700.0,25.910401284758898,0.7768596492006494,2097.5210528417533,13.884785250623409,3.534319094632289,12.025616034135489,2.75745944543164,5344,114,1752,2710,344.5835194921878,197.28499782313472,0.0036581155035801754,True
0.06999999999999999,0.3977223218829008,2.800000000000001,6557.0,36.23256,0.1,68900.0,0.33,276.0,2700.0,16.10012786240142,0.5627860976639278,1519.5224636926052,8.984883310186008,1.654979797562667,7.11524455221541,1.0921936998987392,13516,174,4430,6865,201.86161311928106,116.41375975070608,0.002080880321008557,False
0.08,0.40764820301633387,2.800000000000001,6558.0,36.23256,0.08,68900.0,0.33,276.0,2700.0,16.37329441983933,0.6538594465008851,1765.4205055523898,9.259964250307977,1.745525843485272,7.113330169531352,1.091666396984387,21155,218,6972,10691,182.19334732845107,104.77921989261242,0.001895006731483524,False
0.09,0.503379217671942,2.800000000000001,6559.0,36.23256,0.1,68900.0,0.33,276.0,2700.0,21.460028707779223,0.9641744778204208,2603.271090115136,12.040110384400949,2.7632272674696905,9.419918323378274,1.7990527896492696,17553,202,5770,8892,201.52808908465443,115.81358589295375,0.0021879725788830646,False
0.09999999999999999,0.7197887920576205,2.800000000000001,6560.0,36.23256,0.3,68900.0,0.33,276.0,2700.0,34.90488722162469,1.7431499659788383,4706.504908142863,19.173770973251482,6.119491686248459,15.731116248373208,4.376341720269621,3487,94,1140,1771,260.1042086009333,150.16802811065833,0.0031243765072447786,False
0.11,0.5425264531558087,2.800000000000001,6561.0,36.23256,0.2,68900.0,0.33,276.0,2700.0,23.203654476800974,1.2734133563427683,3438.2160621254743,13.243345966118733,3.2579903274387085,9.96030851068224,1.9845769710959402,5092,110,1662,2593,246.99578761012484,137.81598039994967,0.0019942905583610056,False
0.12,0.5286273359893295,2.800000000000001,6562.0,36.23256,0.3,68900.0,0.33,276.0,2700.0,22.09896427568246,1.3223187418040117,3570.2606028708315,12.811730643534808,3.076924669824737,9.28723363214765,1.7546059280207253,2357,74,768,1199,168.52278088214246,97.29602885556591,0.0017865208900775219,False
0.13,0.45563537741596194,2.800000000000001,6563.0,36.23256,0.1,68900.0,0.33,276.0,2700.0,17.68617456172728,1.144999960472314,3091.499893275248,10.624779967369898,2.2224007500943723,7.061394594357383,1.0774007896220583,14763,184,4876,7443,129.39274719165834,74.69793440667327,0.001390932065517342,False
0.14,0.7305124664907636,2.800000000000001,6564.0,36.23256,0.3,68900.0,0.33,276.0,2700.0,34.32866475754057,2.3972595128668788,6472.600684740572,19.557870921883328,6.327161862428464,14.770793835657244,3.9299023495615852,3521,94,1148,1793,192.77217029145385,111.25213318913984,0.002328571198779458,False
0.15000000000000002,0.49391102914680884,2.800000000000001,6565.0,36.23256,0.2,68900.0,0.33,276.0,2700.0,19.29156270573814,1.4397986194597836,3887.4562725414157,11.754878954381999,2.650581322666529,7.536683751356142,1.2107827032067453,3976,96,1308,2008,123.40610536272175,71.14628916349675,0.0013452185665277687,False
0.16,0.8140350796511284,2.800000000000001,6566.0,36.23256,0.3,68900.0,0.33,276.0,2700.0,39.530198160715834,3.1538372105178656,8515.360468398238,22.64839768594002,8.08853047349896,16.881800474775815,4.934693262981094,4069,102,1334,2062,185.0152598933339,106.74749707081298,0.0023732495901584794,False
0.17,0.7757827298198647,2.800000000000001,6567.0,36.23256,0.3,68900.0,0.33,276.0,2700.0,36.48021414520829,3.0905284392046495,8344.426785852553,21.211212581188466,7.249781124234265,15.269001564019828,4.159252685029616,3783,98,1240,1917,168.43529467362828,97.24205377930232,0.0021032448862280126,False
0.18000000000000002,0.8071035345182478,2.800000000000001,6568.0,36.23256,0.3,68900.0,0.33,276.0,2700.0,38.359661293406205,3.440155004169402,9288.418511257385,22.385243325164534,7.932454813423087,15.97441796824167,4.492299809253685,3798,100,1252,1914,164.072506367153,94.58721099846338,0.002101619410640799,False
0.19,0.6042224967861554,2.800000000000001,6569.0,36.23256,0.08,68900.0,0.33,276.0,2700.0,24.661352708779596,2.3284630513267475,6286.8502385822185,15.217828583858557,4.135469413239473,9.443524124921039,1.807006361912726,42312,274,10396,23990,121.14786979118392,69.91471545470074,0.0013939411264407805,False
0.2,0.777857668248156,2.800000000000001,6570.0,36.23256,0.3,68900.0,0.33,276.0,2700.0,35.650586187102355,3.548303457891086,9580.419336305933,21.28822711615979,7.293872965828684,14.362359070942567,3.745569507937598,3785,98,1240,1919,145.20344060955614,83.82914543149742,0.0018158597129894387,False
0.21000000000000002,0.6210826470155205,2.800000000000001,6571.0,36.23256,0.3,68900.0,0.33,276.0,2700.0,25.12977567514062,2.619230252846502,7071.921682685555,15.774054337988781,4.396723276314504,9.35572133715184,1.7774930234680024,2551,78,836,1291,114.53740239221705,66.08752763370887,0.0013108117780960297,False
0.22,0.8849255950893502,2.800000000000001,6572.0,36.23256,0.3,68900.0,0.33,276.0,2700.0,42.662966743534724,4.670625222738548,12610.688101394078,25.409064936196717,9.791193476840306,17.253901807338007,5.120568254101758,4026,104,1324,2034,147.47303333693446,84.98765532609495,0.001972896615746698,False
0.23,0.7685496536065781,2.800000000000001,6573.0,36.23256,0.3,68900.0,0.33,276.0,2700.0,34.0629486825538,3.8917565932828606,10507.742801863724,20.943591857473194,7.097327460155789,13.119356825080608,3.2055708668729284,3567,94,1176,1797,125.82072827343383,72.64186652549128,0.0015738712404385915,False
0.24000000000000005,0.6034398904692017,2.800000000000001,6574.0,36.23256,0.08,68900.0,0.33,276.0,2700.0,23.246025700118047,2.7605701661186837,7453.539448520446,15.192183473287653,4.123569880476088,8.053842226830394,1.3629997143574046,49838,264,9856,30252,107.855656548526,62.25648149078682,0.0011433452242877707,False
0.25,0.5527550922362685,2.800000000000001,6575.0,36.23256,0.08,68900.0,0.33,276.0,2700.0,20.042269063660477,2.472558709482667,6675.9085156032015,13.564081644648178,3.395089836928859,6.478187419012299,0.922531127446192,44078,240,8414,26999,92.0981927494498,53.1309843057601,0.0010044620057399185,False
0.26,0.8324838570579114,2.800000000000001,6576.0,36.23256,0.3,68900.0,0.33,276.0,2700.0,37.54482117330123,4.844015664209494,13078.842293365635,23.35468488804649,8.512867637636631,14.190136285254741,3.668851973427137,3673,96,1214,1846,120.36723449237735,69.41378906522523,0.0015662554575402378,False
0.27,0.8456933513165972,2.800000000000001,6577.0,36.23256,0.3,68900.0,0.33,276.0,2700.0,38.15855673605323,5.110181180566777,13797.489187530298,23.865648146507937,8.824741169249883,14.292908589545291,3.7145599886831056,3899,100,1288,1961,117.84435434043436,67.97338489774103,0.0015432144595683213,False
0.28,0.6596800675494188,2.800000000000001,6578.0,36.23256,0.08,68900.0,0.33,276.0,2700.0,25.565513641383223,3.5331957485059156,9539.628520965973,17.074303313427947,5.030533783714703,8.491210327955276,1.4973380352087875,57939,276,10656,35753,95.71473059986927,55.2212478928967,0.0011167687454407247,False
0.29000000000000004,0.888206209222659,2.800000000000001,6579.0,36.23256,0.3,68900.0,0.33,276.0,2700.0,40.56095603407044,5.83025842278795,15741.697741527465,25.539878605465752,9.874765315022673,15.021077428604691,4.044506892234723,3954,102,1302,1995,115.68980070446054,66.68791400615939,0.0015405191651553954,False
0.3,0.8451036940542705,2.800000000000001,6580.0,36.23256,0.3,68900.0,0.33,276.0,2700.0,37.166657558603774,5.518449966025833,14899.81490826975,23.842745798786044,8.81067536919744,13.32391175981773,3.2922254031716074,3658,96,1204,1846,108.29408375193759,62.50546190487259,0.0014028104536466923,False
0.31,0.9451582851162189,2.800000000000001,6581.0,36.23256,0.3,68900.0,0.33,276.0,2700.0,44.09782519132729,6.772768780160332,18286.475706432895,27.853935793960417,11.394822710175559,16.24388939736687,4.622053930015227,4175,106,1372,2111,115.21075268225533,66.49784761389995,0.0015768345775520741,False
0.32,0.9716497556176253,2.800000000000001,6582.0,36.23256,0.3,68900.0,0.33,276.0,2700.0,45.75880455331125,7.252779589814398,19582.504892498873,28.958106618478393,12.147301044738304,16.800697934832858,4.894521454923907,4437,110,1464,2235,115.21515479164944,66.4426351383351,0.0015864243987122684,False
0.33,1.0180679657640654,2.800000000000001,6583.0,36.23256,0.3,68900.0,0.33,276.0,2700.0,48.98987284754561,8.008062743050155,21621.76940623542,30.93535754730918,13.5371652768199,18.05451530023643,5.529102533769745,4703,114,1554,2366,116.81895069691232,67.40512809369201,0.0016418900954938338,False
0.34,0.9219055022912936,2.800000000000001,6584.0,36.23256,0.3,68900.0,0.33,276.0,2700.0,41.39185514666182,6.9542972698280465,18776.602628535726,26.899289670529605,10.758266611804727,14.492565476132214,3.8039693419766802,4048,104,1338,2035,104.66232112194837,60.42222197970437,0.0014038798997868238,False
0.3500000000000001,0.6950149895474306,2.800000000000001,6585.0,36.23256,0.1,68900.0,0.33,276.0,2700.0,25.863138265865654,4.436252006511384,11977.880417580736,18.297475312737117,5.655370903259374,7.5656629531285375,1.2191188967479905,37803,222,6960,23311,84.8483845378119,48.97660593568344,0.0009928285279979028,False
0.36000000000000004,0.9858065532797564,2.800000000000001,6586.0,36.23256,0.3,68900.0,0.33,276.0,2700.0,45.486576558423565,8.089867682618982,21842.64274307125,29.55539663914769,12.561477015510594,15.931179919275873,4.471609332891612,4377,110,1446,2202,105.61453267400915,60.87595359499819,0.0014577254359204577,False
0.37,0.7594135593812623,2.800000000000001,6587.0,36.23256,0.2,68900.0,0.33,276.0,2700.0,29.363961876074836,5.326245551952317,14380.862990271256,20.607439586202755,6.907521988071662,8.75652228987208,1.581276436119345,7467,122,1976,4117,88.4822592348924,51.01496090764357,0.0010449190430644418,False
0.38,0.8296197425161427,2.800000000000001,6588.0,36.23256,0.2,68900.0,0.33,276.0,2700.0,33.694990013974326,6.287124454596603,16975.23602741083,23.24447511035987,8.446135020951134,10.450514903614458,2.1590105663545307,9379,134,2372,5257,91.63117638525915,52.875664208247386,0.0011352276127022149,False
0.39,0.8537824923188531,2.800000000000001,6589.0,36.23256,0.2,68900.0,0.33,276.0,2700.0,35.04295460373339,6.70913872464892,18114.674556552083,24.180713411151228,9.019066957315726,10.862241192582164,2.309928232666806,9455,134,2346,5336,91.2320941671853,52.6694116456938,0.001149677639463363,False
0.4,0.8129175648705314,2.800000000000001,6590.0,36.23256,0.2,68900.0,0.33,276.0,2700.0,32.012892779839405,6.2685372694147015,16925.050627419692,22.60588987242572,8.063244308805997,9.407002907413684,1.7947070393912954,8784,128,2192,4940,215.17979512477467,123.90972523398185,0.0010647649391729286,False
0.4100000000000001,0.9278143785984705,2.800000000000001,6591.0,36.23256,0.3,68900.0,0.33,276.0,2700.0,39.61990059049262,7.9777318161988795,21539.875903736975,27.140591541978424,10.917923666585663,12.479309048514196,2.9401918503867837,3549,98,1182,1770,89.00496253841416,51.29532343140464,0.001207209423540775,False
0.42000000000000004,1.104637092564333,2.800000000000001,6592.0,36.23256,0.3,68900.0,0.33,276.0,2700.0,52.70254046137291,10.912363952542206,29463.382671863958,34.767566524924845,16.37972888384548,17.934973936448067,5.467364931303274,4914,118,1634,2457,101.32833104653028,58.393467550260844,0.0014799224925205734,False
0.43,1.0134703728572967,2.800000000000001,6593.0,36.23256,0.3,68900.0,0.33,276.0,2700.0,45.28011316094225,9.568705258196607,25835.50419713084,30.737100226254682,13.395393053158363,14.543012934687567,3.8266877949617566,4494,110,1490,2247,91.33576740152023,52.6166285179352,0.0012979425572131494,False
0.44,1.1265716509377763,2.800000000000001,6594.0,36.23256,0.3,68900.0,0.33,276.0,2700.0,53.770807944346814,11.651168795354005,31458.155747455814,35.76846487722446,17.15329513025783,18.002343067122354,5.502126334903826,4883,118,1622,2444,101.66800388371757,58.54672593839888,0.0017307113100670487,False
0.45,1.118858798600562,2.800000000000001,6595.0,36.23256,0.3,68900.0,0.33,276.0,2700.0,52.804162511328684,11.690084811343372,31563.228990627103,35.415140422241706,16.87878177296149,17.38902208908698,5.188696961618117,4758,116,1568,2392,96.73278797904645,55.72896641464121,0.0014161673033413029,False
0.46,1.11132133209585,2.800000000000001,6596.0,36.23256,0.3,68900.0,0.33,276.0,2700.0,51.860837376567076,11.724132554923887,31655.157898294496,35.071294851257484,16.613138097387154,16.789542525309592,4.889005542463266,4833,116,1586,2436,93.41226385840132,53.79648244003574,0.0013783121135580321,False
0.4700000000000001,1.1355325905567262,2.800000000000001,6597.0,36.23256,0.3,68900.0,0.33,276.0,2700.0,53.455570580830944,12.344612703779474,33330.454300204576,36.18084157566468,17.475660318611855,17.274729005166265,5.131047614832381,4712,116,1554,2367,93.82203012228298,53.8190639154362,0.0013914465082001607,False
0.4800000000000001,0.9702902365848782,2.800000000000001,6598.0,36.23256,0.3,68900.0,0.33,276.0,2700.0,40.54740944963292,9.49975492474804,25649.338296819707,28.901012180348488,12.107970763388431,11.646397269284435,2.608215838640392,4224,102,1312,2182,85.170819413688,49.113541680293054,0.0011247553191570158,False
0.49,1.1700141480978847,2.800000000000001,6599.0,36.23256,0.3,68900.0,0.33,276.0,2700.0,55.56085003886681,13.366004770120917,36088.21287932648,37.78648473833523,18.75082876223693,17.774365300531578,5.384823992116015,5696,122,1738,2965,99.29289336444558,57.23943075165613,0.001407878843565738,False
0.5,0.992205331813304,2.800000000000001,6600.0,36.23256,0.3,68900.0,0.33,276.0,2700.0,41.530754546696095,10.120889248874875,27326.40097196216,29.827020624133464,12.751463935219002,11.70373392256263,2.6305746863441275,4402,102,1308,2324,88.9952322162109,51.30222936843295,0.0011240860097134994,False
0.01,0.5434729881313981,2.800000000000001,6601.0,39.25194,0.05,68900.0,0.33,276.0,2700.0,26.23456920790467,0.13117075164442088,354.1610294399364,13.272915709599653,3.270539610211578,12.961653498305017,3.139368858567157,85131,456,28204,42819,2372.1731878940263,1350.8333146116772,0.020962036780878008,True
0.02,0.645662119243672,2.800000000000001,6602.0,39.25194,0.1,68900.0,0.33,276.0,2700.0,32.52411195385353,0.32522436437771324,878.1057838198258,16.597744481046284,4.794533040200844,15.926367472807243,4.469308675823131,26913,260,8922,13524,1222.3437871842532,696.2511505794772,0.013401595623331576,True
0.03,0.6356454420488007,2.800000000000001,6603.0,39.25194,0.1,68900.0,0.33,276.0,2700.0,31.524735813704492,0.4728144885377248,1276.5991190518569,16.260239509100657,4.629971235640333,15.264496304603835,4.157156747102609,26078,254,8590,13187,925.3470916252487,527.2105171533664,0.00883753091150555,True
0.04,0.6845182859021886,2.800000000000001,6604.0,39.25194,0.1,68900.0,0.33,276.0,2700.0,34.489915949871765,0.6896642777104686,1862.093549818265,17.930839674564176,5.465234382506965,16.55907627530759,4.775570104796497,28217,268,9258,14324,802.1203411994468,457.2266047560749,0.007400021255766558,True
0.05,0.6584379812951995,2.800000000000001,6605.0,39.25194,0.2,68900.0,0.33,276.0,2700.0,32.388107461208214,0.8094408871421027,2185.490395283677,17.03187752381467,5.009352378527548,15.356229937393543,4.199911491385445,6692,132,2212,3368,496.2146753828337,285.99043424836077,0.005717032139432384,True
0.06000000000000001,0.7431377573094796,2.800000000000001,6606.0,39.25194,0.2,68900.0,0.33,276.0,2700.0,37.89661299462211,1.136446000496549,3068.4042013406824,20.013787264560776,6.5769594939633755,17.882825730061334,5.440513493466827,7900,144,2596,4000,476.79291591065913,272.45053705684694,0.005638311316928448,True
0.06999999999999999,0.6361093696440531,2.800000000000001,6607.0,39.25194,0.2,68900.0,0.33,276.0,2700.0,30.262599913853688,1.058472619464758,2857.876072554847,16.275815535340215,4.637518422319002,13.986784378513473,3.5790458028542442,6169,124,2022,3130,357.5248692424631,204.15569891643608,0.004008997229834449,True
0.08,0.486062102826275,2.800000000000001,6608.0,39.25194,0.1,68900.0,0.33,276.0,2700.0,20.735977846649686,0.8283667835735622,2236.590315648618,11.520136213819784,2.559240395804228,9.215841632829902,1.7308736122306658,17175,200,5648,8697,244.5490552164688,140.3916516265594,0.002532930079303696,False
0.09,0.39443269825461946,2.800000000000001,6609.0,39.25194,0.08,68900.0,0.33,276.0,2700.0,15.414764411353152,0.6921375844812485,1868.771478099371,8.894262625575085,1.6255720416592976,6.520501785778068,0.9334344571780491,19597,208,6462,9898,170.7006287383646,98.51692603912797,0.0017744507267457219,False
0.09999999999999999,0.5049366253641748,2.800000000000001,6610.0,39.25194,0.08,68900.0,0.33,276.0,2700.0,21.271814551657208,1.0614963324804674,2866.040097697262,12.087243442870953,2.7820153227799755,9.184571108786255,1.7205189902995082,27070,250,8930,13669,196.68465237465784,113.31379023296783,0.0021586114791177693,False
0.11,0.6359436035160437,2.800000000000001,6611.0,39.25194,0.3,68900.0,0.33,276.0,2700.0,28.999200225215624,1.5921683725055749,4298.854605765052,16.2702494389741,4.634820904742177,12.728950786241523,3.042652532236602,3022,86,990,1531,268.83026412488493,154.01428520475415,0.007340944269847034,False
0.12,0.6997366641797376,2.800000000000001,6612.0,39.25194,0.3,68900.0,0.33,276.0,2700.0,32.88604937873484,1.969543847987158,5317.768389565327,18.463299983094764,5.742156892879888,14.422749395640075,3.7726130448927298,3371,92,1102,1712,232.0110605903145,133.9256410929389,0.002752840778591109,False
0.13,0.5328985188886202,2.800000000000001,6613.0,39.25194,0.1,68900.0,0.33,276.0,2700.0,22.071873693930005,1.4300704040654926,3861.19009097683,12.943848778646025,3.131927901825809,9.12802491528398,1.7018574977603163,18299,208,6054,9212,160.97325519487663,92.89349980279451,0.0018122213187741862,False
0.14,0.6168718007877253,2.800000000000001,6614.0,39.25194,0.1,68900.0,0.33,276.0,2700.0,26.88171078625059,1.8759727348765738,5065.12638416675,15.634466835146169,4.330595206238041,11.247243951104421,2.454622471361467,21948,230,7262,11049,171.5334570201231,98.90614898205813,0.0020288207834856424,False
0.15000000000000002,0.46430042131167104,2.800000000000001,6615.0,39.25194,0.08,68900.0,0.33,276.0,2700.0,17.648221141691764,1.3165480021563056,3554.679605822025,10.87739349153289,2.315558025923705,6.770827650158873,0.9990100237673996,28869,228,7504,16057,129.05702632823798,74.47980451951358,0.0013648186189993761,False
0.16,0.5369459909841234,2.800000000000001,6616.0,39.25194,0.08,68900.0,0.33,276.0,2700.0,21.486584317035167,1.71034810302341,4617.939878163207,13.06947009507815,3.184571854081657,8.417114221957016,1.474223751058247,36975,254,9096,20949,136.96842968752867,78.97477940296562,0.001524815961547678,False
0.17,0.7259814761042567,2.800000000000001,6617.0,39.25194,0.3,68900.0,0.33,276.0,2700.0,33.06102326951197,2.79989721477046,7559.722479880243,19.395227571427792,6.238913999851557,13.665795698084178,3.439016785081097,3238,90,1066,1633,172.3065564360376,99.41019088336819,0.002090249582911577,False
0.18000000000000002,0.5135417460487754,2.800000000000001,6618.0,39.25194,0.1,68900.0,0.33,276.0,2700.0,19.614748746162544,1.7531128749174703,4733.4047622771695,12.348765929760834,2.8871513930971466,7.26598281640171,1.1340385181796764,19193,194,5384,10385,121.63075591084588,70.22009393886873,0.001308038893154453,False
0.19,0.6353965470442042,2.800000000000001,6619.0,39.25194,0.3,68900.0,0.33,276.0,2700.0,26.580603112239537,2.5107918396554423,6779.137967069694,16.251885272716258,4.625925182949034,10.328717839523279,2.115133343293592,2760,82,900,1404,137.91914997332745,79.61394472033001,0.0015957462808598804,False
0.2,0.655011034066828,2.800000000000001,6620.0,39.25194,0.2,68900.0,0.33,276.0,2700.0,27.521676031067013,2.7354124422875588,7385.613594176409,16.91502477137232,4.951185341452136,10.606651259694694,2.215772899164577,5826,120,1922,2937,132.40045504921912,76.29913850154989,0.0015805969154583798,False
0.21000000000000002,0.8671113656907448,2.800000000000001,6621.0,39.25194,0.3,68900.0,0.33,276.0,2700.0,41.690056581510625,4.358059748015354,11766.761319641455,24.70344928391003,9.344847405030377,16.986607297600596,4.986787657015023,4088,104,1344,2066,163.62021754537315,94.45228393827874,0.0021715708979661717,False
0.22,0.8199124384648402,2.800000000000001,6622.0,39.25194,0.3,68900.0,0.33,276.0,2700.0,37.949260131144,4.152117495374991,11210.717237512477,22.872476157391205,8.222301302832946,15.076783973752796,4.070183807457955,3949,100,1298,1996,151.47002869131538,87.44576691891203,0.001931526287573625,False
0.23,0.8944645780301218,2.800000000000001,6623.0,39.25194,0.3,68900.0,0.33,276.0,2700.0,43.02826929245476,4.922768463421477,13291.474851237987,25.790179691846273,10.035386019505546,17.238089600608486,5.11261755608407,4002,104,1312,2028,155.23756342880563,89.60127993898372,0.002082239965271429,False
0.24000000000000005,0.6267031028689098,2.800000000000001,6624.0,39.25194,0.1,68900.0,0.33,276.0,2700.0,24.64346653455306,2.928263066250884,7906.310278877388,15.96106408619203,4.485905820512431,8.68240244836103,1.557642754261547,27381,220,6722,15516,111.82214813065694,64.46772670009773,0.0012918241099115352,False
0.25,0.7914420516093901,2.800000000000001,6625.0,39.25194,0.3,68900.0,0.33,276.0,2700.0,35.004602517492394,4.342850391211654,11725.696056271465,21.795105569638427,7.586497969439548,13.209496947853967,3.243647578227894,3510,94,1154,1773,134.36717370404037,77.55684194292549,0.002366571698913853,False
0.26,0.6799713814283332,2.800000000000001,6626.0,39.25194,0.2,68900.0,0.33,276.0,2700.0,27.377810157259972,3.5223042321241365,9510.221426735168,17.772882024086435,5.384063873426286,9.604928133173537,1.8617596413021498,5774,120,1912,2900,109.56252563458074,63.07343161668934,0.0013183638372766403,False
0.27,0.9275515670247358,2.800000000000001,6627.0,39.25194,0.3,68900.0,0.33,276.0,2700.0,44.131464499073104,5.916523728574466,15974.614067151058,27.129840410650903,10.910792217808895,17.0016240884222,4.994268489234429,4190,106,1372,2126,139.09827078657898,80.30839643582478,0.001887415517777075,False
0.28,0.7925276993118165,2.800000000000001,6628.0,39.25194,0.3,68900.0,0.33,276.0,2700.0,34.153665629375396,4.7355370268248205,12785.949972427015,21.835814828694573,7.610181871002205,12.317850800680823,2.874644844177385,3311,92,1088,1673,117.02066641599124,67.46247970743653,0.0014863226974238103,False
0.29000000000000004,0.7061987475523471,2.800000000000001,6629.0,39.25194,0.3,68900.0,0.33,276.0,2700.0,28.19007085893587,4.036480072393435,10898.496195462276,18.691155784699376,5.862203923131261,9.498915074236493,1.825723850737826,2813,82,926,1418,102.73238309929353,59.22184403285517,0.0012556736050212134,False
0.3,0.7350387688000823,2.800000000000001,6630.0,39.25194,0.3,68900.0,0.33,276.0,2700.0,29.7527582699282,4.406365072724033,11897.185696354889,19.720861161732063,6.416055376079598,10.031897108196137,2.0096903033555646,3068,86,1010,1547,103.14552964174155,59.544879121733366,0.0012787092010564756,False
0.31,0.902684016899256,2.800000000000001,6631.0,39.25194,0.3,68900.0,0.33,276.0,2700.0,40.961693834278684,6.286668419817795,16974.00473350805,26.120408422679823,10.248722809325145,14.84128541159886,3.9620543895073492,3940,102,1296,1990,120.54150089463539,69.58406158660311,0.00160677233321753,False
0.32,0.9373319926878574,2.800000000000001,6632.0,39.25194,0.3,68900.0,0.33,276.0,2700.0,43.18080942360797,6.840300369062052,18468.810996467542,27.5311091407849,11.178093935251011,15.64970028282307,4.337793566188959,3964,104,1310,1993,121.76271133770253,70.28206661799965,0.001640789571800573,False
0.33,0.9770801791335055,2.800000000000001,6633.0,39.25194,0.3,68900.0,0.33,276.0,2700.0,45.832355130194635,7.487072319687397,20215.09526315597,29.186626341871325,12.305175971936967,16.64572878832331,4.81810365224957,4416,110,1458,2223,122.27417120934025,70.42782794385721,0.0016845249458547727,False
0.34,0.7646771358740405,2.800000000000001,6634.0,39.25194,0.3,68900.0,0.33,276.0,2700.0,30.538514545625436,5.109229367651865,13794.919292660037,20.800850796025,7.016499534579892,9.737663749600436,1.9072701669280265,3149,86,1040,1583,96.44142288349101,55.64880971244787,0.0012097792670017493,False
0.3500000000000001,1.0324348259588685,2.800000000000001,6635.0,39.25194,0.3,68900.0,0.33,276.0,2700.0,49.4167054798729,8.558126268962651,23106.940926199157,31.558308870684645,13.98607795031121,17.858396609188258,5.427951681348558,4659,114,1534,2352,122.0116786684439,70.40571151421433,0.0017193274246894384,False
0.36000000000000004,0.6628539586021781,2.800000000000001,6636.0,39.25194,0.08,68900.0,0.33,276.0,2700.0,23.663568823928866,4.161726290409733,11236.66098410628,17.182889653488676,5.0848980158771,6.48067917044019,0.923171725467367,64907,264,10132,41465,90.28146066751468,51.05044530979107,0.0010006748296576095,False
0.37,0.9246980310107571,2.800000000000001,6637.0,39.25194,0.3,68900.0,0.33,276.0,2700.0,40.63852216170574,7.4120392047940395,20012.50585294391,27.013219322117276,10.833542681045767,13.62530283958846,3.4215034762517273,3765,100,1252,1881,106.27675725024324,61.27214946722211,0.0014226000588843234,False
0.38,0.7538555357664329,2.800000000000001,6638.0,39.25194,0.1,68900.0,0.33,276.0,2700.0,28.73755079356211,5.345211002718282,14432.069707339362,20.403964681652234,6.793551170972713,8.333586111909877,1.4483401682544308,44055,236,7732,27403,91.9826669054931,53.086699818449354,0.0011046549533388695,False
0.39,0.8986667299393712,2.800000000000001,6639.0,39.25194,0.3,68900.0,0.33,276.0,2700.0,38.15917392806393,7.3168014928936085,19755.364030812743,25.95879553954283,10.144114391632515,12.200378388521099,2.8273128987389065,3553,96,1180,1777,97.76582482781087,56.33119193389002,0.001308824675307648,False
0.4,0.9869256139890561,2.800000000000001,6640.0,39.25194,0.3,68900.0,0.33,276.0,2700.0,44.257444910648324,8.7174476955765,23537.108778056547,29.60282579187218,12.594577833752798,14.654619118776143,3.877130138176298,4235,108,1406,2120,103.39885708535466,59.47916310376868,0.001445311917660994,False
0.4100000000000001,0.7759528616304765,2.800000000000001,6641.0,39.25194,0.2,68900.0,0.33,276.0,2700.0,29.338609377973942,5.870067117632617,15849.181217608066,21.217523212964828,7.2533903630452645,8.121086165009114,1.3833232454126474,8129,122,2054,4548,89.50082905578752,51.65727979369557,0.0010729687847282046,False
0.42000000000000004,0.815377438926364,2.800000000000001,6642.0,39.25194,0.2,68900.0,0.33,276.0,2700.0,31.619759552966638,6.484979961776875,17509.445896797562,22.699499585935424,8.118967053690632,8.920259967031214,1.633987091913757,8704,128,2158,4905,90.65156278542793,52.32800433343028,0.0011135600681206066,False
0.43,0.7591266373814881,2.800000000000001,6643.0,39.25194,0.1,68900.0,0.33,276.0,2700.0,27.748458662818415,5.7993995410999855,15658.378760969961,20.596916590518063,6.901610769984316,7.1515420723003515,1.1022112288843307,46141,230,7468,29213,85.76249550484472,49.50508372329193,0.001013140799497666,False
0.44,1.081406930086659,2.800000000000001,6644.0,39.25194,0.3,68900.0,0.33,276.0,2700.0,50.174793507228664,10.86004561918805,29322.123171807732,33.720732745465355,15.584257979111616,16.45406076176331,4.724212359923566,4577,114,1520,2289,103.01945272408179,59.31518027918885,0.001499245235319012,False
0.45,0.9117965737515163,2.800000000000001,6645.0,39.25194,0.1,68900.0,0.33,276.0,2700.0,37.292708806717705,8.200007727805906,22140.020865075945,26.48850427397712,10.488422078449195,10.804204532740584,2.28841435064329,65918,278,10176,42222,96.43355053496683,54.60997856114206,0.0012066603989512252,False
0.46,0.9312439564440163,2.800000000000001,6646.0,39.25194,0.2,68900.0,0.33,276.0,2700.0,38.362229807453915,8.619452814027818,23272.52259787511,27.2810483075179,11.01124520727311,11.081181499936015,2.391792393245291,10253,142,2566,5750,93.2520169344838,53.823099669700696,0.0012122808144338498,False
0.4700000000000001,1.1222705653627847,2.800000000000001,6647.0,39.25194,0.3,68900.0,0.33,276.0,2700.0,52.3930405721279,12.094918151734282,32656.27900968256,35.57124847518167,16.999876190890983,16.821792096946233,4.904958039156702,4851,116,1586,2448,100.18862209609294,57.6459089459301,0.0014842429952294,False
0.4800000000000001,0.9651017246890383,2.800000000000001,6648.0,39.25194,0.2,68900.0,0.33,276.0,2700.0,40.17506197815536,9.410391531593424,25408.057135302246,28.68354207816805,11.958581983536174,11.491519899987313,2.54819045194275,11021,146,2724,6217,92.47353672233515,53.3502518934777,0.0012213374518666412,False
0.49,1.1817697568196075,2.800000000000001,6649.0,39.25194,0.3,68900.0,0.33,276.0,2700.0,56.524546285457994,13.602110350535748,36725.69794644652,38.34071827626817,19.198286165628875,18.183828009189824,5.596175815093128,5528,122,1742,2841,107.416064647236,61.89581398093114,0.0015363951660083096,False
0.5,1.0356536011187247,2.800000000000001,6650.0,39.25194,0.3,68900.0,0.33,276.0,2700.0,44.72790069710783,10.9201757864778,29484.474623490063,31.69858722666152,14.087882743390853,13.029313470446308,3.1677069569130527,4498,106,1388,2336,96.42467130371291,55.565598796076095,0.0012740151266882587,False
0.01,0.5194197912290157,2.800000000000001,6651.0,42.271319999999996,0.05,68900.0,0.33,276.0,2700.0,24.75173966189875,0.12375660391439272,334.14283056886035,12.528478322729342,2.96026575057444,12.223261339169408,2.836509146660047,79874,440,26468,40166,2285.336325306986,1299.6463827441728,0.02132274089507063,True
0.02,0.4565731353352452,2.800000000000001,6652.0,42.271319999999996,0.1,68900.0,0.33,276.0,2700.0,20.727724534356415,0.20726049018274662,559.6033234934158,10.652027526280019,2.2323769957293376,10.075697008076396,2.025116505546591,16810,200,5568,8452,937.4211538712095,534.7345266769546,0.009268879922131547,True
0.03,0.5493027833100866,2.800000000000001,6653.0,42.271319999999996,0.1,68900.0,0.33,276.0,2700.0,25.98042739496082,0.38964986225664605,1052.0546280929443,13.455534884242693,3.348449891442754,12.524892510718127,2.958800029186108,21460,228,7044,10888,839.0717645509798,478.2539442562741,0.007903621730466659,True
0.04,0.4865088943119782,2.800000000000001,6654.0,42.271319999999996,0.1,68900.0,0.33,276.0,2700.0,21.894211605000795,0.437750190813464,1181.9255151963528,11.533457126135223,2.5643904702270075,10.360754478865571,2.1266402794135435,18451,208,6052,9367,569.1992047367603,325.4071545556795,0.005933373495314449,True
0.05,0.5185394092853287,2.800000000000001,6655.0,42.271319999999996,0.1,68900.0,0.33,276.0,2700.0,23.503167500797353,0.5873173881321342,1585.7569479567624,12.501506678394813,2.9492477785806988,11.00166082240254,2.3619303904485647,19559,216,6428,9911,497.8035731291353,284.64918086576847,0.004556601198425238,True
0.06000000000000001,0.44789514875947695,2.800000000000001,6656.0,42.271319999999996,0.1,68900.0,0.33,276.0,2700.0,19.11570068372459,0.5730186311696217,1547.1503041579786,10.400723426700642,2.1410306193757647,8.714977257023948,1.568011988206143,16389,194,5390,8298,329.82564226331607,189.08957433313174,0.0032231502413861426,True
0.06999999999999999,0.6746590499845921,2.800000000000001,6657.0,42.271319999999996,0.2,68900.0,0.33,276.0,2700.0,32.821132535018855,1.1480212612055392,3099.657405254956,17.5889919158385,5.290137189994708,15.232140619180356,4.142115928789169,6844,132,2242,3475,412.3702421967837,235.75991633672922,0.004650403261081335,True
0.08,0.752769166196116,2.800000000000001,6658.0,42.271319999999996,0.2,68900.0,0.33,276.0,2700.0,37.88802754518371,1.5144487715149229,4089.0116830902916,20.36428424738862,6.771406481122195,17.52374329779509,5.256957709607272,7963,144,2608,4045,411.4780755841482,235.505431255749,0.0047364720491421914,True
0.09,0.7230748445511043,2.800000000000001,6659.0,42.271319999999996,0.2,68900.0,0.33,276.0,2700.0,35.46519510537046,1.5944069657120234,4304.8988074224635,19.29116348347114,6.1826905088241,16.17403162189932,4.588283543112077,7175,136,2350,3644,348.3333111162277,199.6907433231335,0.0040327622053599734,True
0.09999999999999999,0.6291658586061395,2.800000000000001,6660.0,42.271319999999996,0.3,68900.0,0.33,276.0,2700.0,28.871620862200707,1.4414866480076385,3892.013949620624,16.043257656748317,4.525315202722691,12.82836320545239,3.0838285547150526,3003,86,984,1521,271.38336586342024,156.02543866033795,0.0030629062228574836,False
0.11,0.47845942593422786,2.800000000000001,6661.0,42.271319999999996,0.1,68900.0,0.33,276.0,2700.0,19.482551195984563,1.0687526758978636,2885.6322249242317,11.294234424805598,2.472516171934806,8.188316771178965,1.4037634960369425,16374,194,5398,8271,182.46694101876278,105.32901325550594,0.0019956395146678812,False
0.12,0.6226689589117826,2.800000000000001,6662.0,42.271319999999996,0.3,68900.0,0.33,276.0,2700.0,27.84539086944097,1.667104337429525,4501.181711059718,15.82675536683239,4.4217876381372925,12.018635502608578,2.7546833007077676,2936,84,960,1490,226.40680895365927,130.70780918134443,0.0025508487103683333,False
0.13,0.7812453830020265,2.800000000000001,6663.0,42.271319999999996,0.3,68900.0,0.33,276.0,2700.0,38.20116310171855,2.4784742155717527,6691.880382043732,21.414199918137488,7.366204705444764,16.78696318358106,4.887730489873011,3861,100,1272,1947,255.42531323662624,147.42899195326459,0.0031786387252933338,False
0.14,0.5096480917469548,2.800000000000001,6664.0,42.271319999999996,0.1,68900.0,0.33,276.0,2700.0,20.45045556775828,1.4257848695821116,3849.6191478717014,12.23020142459666,2.8393005157423135,8.22025414316162,1.4135156461602019,17047,198,5636,8587,155.895510546476,89.7932057786142,0.0017311503227702238,False
0.15000000000000002,0.7874744517289429,2.800000000000001,6665.0,42.271319999999996,0.3,68900.0,0.33,276.0,2700.0,37.96826029876311,2.840550938936655,7669.487535128968,21.646581765942503,7.5003184835103935,16.32167853282061,4.6597675445737385,3812,100,1254,1925,225.68214968713298,129.92659538556572,0.002810860877388329,False
0.16,0.5026457018532398,2.800000000000001,6666.0,42.271319999999996,0.08,68900.0,0.33,276.0,2700.0,19.52143883941,1.5531364648133987,4193.468454996177,12.01793253300183,2.7544037907728076,7.50350630640817,1.2012673259594089,33438,238,8218,18949,139.87208586055118,80.73399609711572,0.0015211919590065919,False
0.17,0.849785779587656,2.800000000000001,6667.0,42.271319999999996,0.3,68900.0,0.33,276.0,2700.0,41.79128458792791,3.5419694268358146,9563.3174524567,24.024839260044015,8.922735217989011,17.766445327883897,5.3807657911531965,4143,104,1364,2091,211.4549047154748,122.0152156727437,0.002769660862815551,False
0.18000000000000002,0.8747923192807772,2.800000000000001,6668.0,42.271319999999996,0.3,68900.0,0.33,276.0,2700.0,43.296380192239596,3.884459705064075,10488.041203673001,25.006711198618046,9.535757173757641,18.28966899362155,5.651297468693567,4226,106,1382,2147,209.49464474644233,120.73655768710529,0.0027317876331361068,False
0.19,0.7995042357941576,2.800000000000001,6669.0,42.271319999999996,0.3,68900.0,0.33,276.0,2700.0,37.48943311179357,3.547130689613076,9577.252861955305,22.098125499617858,7.763434528581089,15.391307612175716,4.216303838968013,3756,98,1236,1896,182.4811414014767,105.35003302515844,0.002302215365733343,False
0.2,0.6911688987551274,2.800000000000001,6670.0,42.271319999999996,0.3,68900.0,0.33,276.0,2700.0,29.835507513633242,2.9667955905441823,8010.348094469292,18.162815138314812,5.585256228721485,11.67269237531843,2.6184606381773023,3016,86,984,1534,154.18185502539407,88.92030902862646,0.0018230661872011104,False
0.21000000000000002,0.7177526314431284,2.800000000000001,6671.0,42.271319999999996,0.3,68900.0,0.33,276.0,2700.0,31.27378759810221,3.264351504757417,8813.749062845027,19.10116637830604,6.080524743951222,12.17262121979617,2.816173239193805,3163,88,1040,1597,149.64989262737845,86.31288190954089,0.001827451571037695,False
0.22,0.6670617634733267,2.800000000000001,6672.0,42.271319999999996,0.3,68900.0,0.33,276.0,2700.0,27.703928153842,3.025130977872339,8167.853640255315,17.32723895800906,5.157503803478416,10.376689195832938,2.1323728256060774,2875,82,930,1474,136.452433029389,78.6980089694236,0.0016014075434598895,False
0.23,0.6407841106081541,2.800000000000001,6673.0,42.271319999999996,0.3,68900.0,0.33,276.0,2700.0,25.78045433944771,2.9392697438252733,7936.0283083282375,16.433068377955205,4.71397098811971,9.347385961492506,1.774701244294437,2657,80,874,1340,124.65203887619222,71.96265073112487,0.0014697969855840941,False
0.24000000000000005,0.9225065368026462,2.800000000000001,6674.0,42.271319999999996,0.3,68900.0,0.33,276.0,2700.0,44.78468236090678,5.345208965413331,14432.064206615994,26.923794138523633,10.77444137678832,17.860888222383146,5.429232411374988,4292,108,1416,2162,164.68316211592125,95.07437952560464,0.002248262553785353,False
0.25,0.6480995476984177,2.800000000000001,6675.0,42.271319999999996,0.2,68900.0,0.33,276.0,2700.0,25.675545697382674,3.1767182886979417,8577.139379484443,16.68025340234969,4.835089379351092,8.995292295032986,1.6583710906531501,5427,116,1796,2727,148.37670038755547,84.12090550296017,0.0062548795984335315,False
0.26,0.7981589623940099,2.800000000000001,6676.0,42.271319999999996,0.3,68900.0,0.33,276.0,2700.0,35.15464664069947,4.533292974971273,12239.891032422436,22.047449391357794,7.73374059986262,13.107197249341674,3.200447624891347,3510,94,1156,1770,135.84604593434565,78.43066606714417,0.001726064751790294,False
0.27,0.7088048617437142,2.800000000000001,6677.0,42.271319999999996,0.3,68900.0,0.33,276.0,2700.0,28.92285475889879,3.863361413650933,10431.07581685752,18.78334545487129,5.91103530080729,10.139509304027499,2.0476738871563573,2876,84,944,1454,121.06324136034817,69.84933416547464,0.0014423719733318724,False
0.28,0.6467153442717681,2.800000000000001,6678.0,42.271319999999996,0.1,68900.0,0.33,276.0,2700.0,24.774899301286727,3.4225097408924094,9240.776300409505,16.63337867844622,4.8120329630655725,8.141520622840506,1.389523222173163,30535,220,6846,17874,110.81735920779461,63.95625356130794,0.0012710211877545665,False
0.29000000000000004,0.6408652146376617,2.800000000000001,6679.0,42.271319999999996,0.08,68900.0,0.33,276.0,2700.0,24.15554535495477,3.4514738743161733,9318.979460653667,16.435801470144927,4.7153038870133095,7.719743884809844,1.2638300126971362,56817,268,10288,35147,106.73380429500256,61.51998977855588,0.0012266269831618102,False
0.3,0.9791235339491451,2.800000000000001,6680.0,42.271319999999996,0.3,68900.0,0.33,276.0,2700.0,47.016291061647465,6.995894991482507,18888.916477002767,29.272805443646813,12.364902634797627,17.74348561800065,5.36900764331512,4541,112,1502,2282,142.15838451134547,81.95457626932193,0.001984100720393209,False
0.31,0.749025798656281,2.800000000000001,6681.0,42.271319999999996,0.3,68900.0,0.33,276.0,2700.0,30.373615650510523,4.645516301333741,12542.8940136011,20.22778223409692,6.695431078963017,10.145833416413602,2.049914777629276,3062,86,1008,1544,111.8028441445255,64.5389833506665,0.0013704261736150985,False
0.32,0.6478737410332738,2.800000000000001,6682.0,42.271319999999996,0.1,68900.0,0.33,276.0,2700.0,23.79175930689874,3.7380523503885796,10092.741346049164,16.67260338877399,4.831323730692691,7.119155918124751,1.093271380304111,34184,214,6556,20896,100.84807633154146,58.20279074248422,0.0011490255311984287,False
0.33,0.862529703536774,2.800000000000001,6683.0,42.271319999999996,0.3,68900.0,0.33,276.0,2700.0,37.45568295436688,6.104921410675833,16483.28780882475,24.523260622925584,9.232077529589745,12.932422331441295,3.127156118913912,3713,98,1230,1862,117.83434344558123,67.9494479764352,0.001546072035827972,False
0.34,0.8490080537013993,2.800000000000001,6684.0,42.271319999999996,0.3,68900.0,0.33,276.0,2700.0,36.20530243516337,6.072583308873311,16395.97493395794,23.99455415380097,8.904062256324096,12.210748281362399,2.831478947450785,3496,94,1162,1747,113.65266409795893,65.57760594519753,0.0014740267577333932,False
0.3500000000000001,0.6789623742752372,2.800000000000001,6685.0,42.271319999999996,0.2,68900.0,0.33,276.0,2700.0,24.88519374729713,4.2651117157618925,11515.80163255711,17.73789996395882,5.3661485590587965,7.147293783338309,1.101036843296904,5939,112,1726,3158,98.20644446311599,56.6574544966277,0.0011213354200779934,False
0.36000000000000004,0.8134886279278699,2.800000000000001,6686.0,42.271319999999996,0.3,68900.0,0.33,276.0,2700.0,33.19009501452806,5.876501004717793,15866.55271273804,22.627607938351,8.076159898192882,10.56248707617706,2.19965889347509,3540,92,1170,1779,105.12904666212921,60.3935401453694,0.0013373601686657937,False
0.37,0.9770692366920681,2.800000000000001,6687.0,42.271319999999996,0.3,68900.0,0.33,276.0,2700.0,44.49740793939589,8.125933073666715,21940.01929890013,29.18616512360386,12.304856601510888,15.311242815792031,4.178923527844173,4312,108,1428,2164,120.56023727509488,69.56151667459321,0.0016440726555120916,False
0.38,1.0061920057193696,2.800000000000001,6688.0,42.271319999999996,0.3,68900.0,0.33,276.0,2700.0,46.3683543185239,8.695063672460964,23476.671915644605,30.424328812493293,13.17281619308011,15.944025506030606,4.477752520619145,4578,112,1510,2303,118.88664371582212,68.5484696516206,0.0016662711248876343,False
0.39,0.6983111197492193,2.800000000000001,6689.0,42.271319999999996,0.05,68900.0,0.33,276.0,2700.0,25.03177423366723,4.7569585524862505,12843.788091712877,18.413175979941425,5.7158723714841395,6.618598253725807,0.958913818997889,264901,430,26348,180695,117.17431399886368,66.67643006144941,0.0010745601784530369,False
0.4,1.0896886986237817,2.800000000000001,6690.0,42.271319999999996,0.3,68900.0,0.33,276.0,2700.0,52.20347211793123,10.30665313703309,27827.963469989343,34.09238299831153,15.865063053623414,18.1110891196197,5.558409916590325,4741,116,1570,2380,122.38610959404076,70.41865527294098,0.0017690830948177787,False
0.4100000000000001,1.051211711042551,2.800000000000001,6691.0,42.271319999999996,0.3,68900.0,0.33,276.0,2700.0,48.827780466570154,9.865347190794836,26636.437415146058,32.38030069106655,14.586348047087313,16.447479775503602,4.721000856292477,4731,114,1568,2373,132.04626445926442,76.23411113919681,0.001783967362974435,False
0.42000000000000004,0.7832306962187491,2.800000000000001,6692.0,42.271319999999996,0.1,68900.0,0.33,276.0,2700.0,29.536409814557018,6.047476516710869,16328.186595119347,21.48815820590912,7.408791998362135,8.048251608647899,1.3613154816512658,48685,240,8034,30688,95.42654206029428,55.07492639967135,0.001150630364305671,False
0.43,0.8328413314382392,2.800000000000001,6693.0,42.271319999999996,0.1,68900.0,0.33,276.0,2700.0,32.49489459087372,6.819883265631874,18413.68481720606,23.368454805599445,8.521218800245434,9.126439785274275,1.70133553461356,54678,256,8820,34668,99.31580404860044,56.684497923158645,0.0012106695149235937,False
0.44,0.8613883987101113,2.800000000000001,6694.0,42.271319999999996,0.2,68900.0,0.33,276.0,2700.0,34.12329670238728,7.328716322122937,19787.53406973193,24.478457203830583,9.204114584168128,9.644839498556696,1.8753982620451906,9244,134,2314,5191,97.70290052835036,56.39224664511866,0.0012305162160775815,False
0.45,1.1160785285762604,2.800000000000001,6695.0,42.271319999999996,0.3,68900.0,0.33,276.0,2700.0,52.581612445135235,11.640011046449848,31428.02982541459,35.28814333255497,16.780494707751004,17.29346911258027,5.140483661301156,4762,116,1570,2393,112.27282332184792,64.45609421548602,0.0016468873140288779,False
0.46,0.8357492964369815,2.800000000000001,6696.0,42.271319999999996,0.08,68900.0,0.33,276.0,2700.0,31.865330740336567,7.1251660285908685,19237.948277195344,23.480588980862574,8.58933643852098,8.384741759473993,1.4641704099301123,104358,312,13264,68888,104.1655504846012,58.72673655358179,0.0011549118628484312,False
0.4700000000000001,0.9645486572044066,2.800000000000001,6697.0,42.271319999999996,0.3,68900.0,0.33,276.0,2700.0,40.43441773306378,9.28464178455422,25068.532818296393,28.660400838246222,11.94272444875667,11.77401689481756,2.6580826642024498,4032,102,1314,2031,94.89712479666969,54.59147028058969,0.0013221758590042777,False
0.4800000000000001,1.012627393506086,2.800000000000001,6698.0,42.271319999999996,0.2,68900.0,0.33,276.0,2700.0,43.63625549731399,10.241077976191242,27650.910535716353,30.700806918411445,13.369497610861314,12.935448578902545,3.128419634670072,11712,152,2882,6627,105.25274142280482,60.701928261085556,0.0013950063050162443,False
0.49,1.1099768087183655,2.800000000000001,6699.0,42.271319999999996,0.3,68900.0,0.33,276.0,2700.0,50.74746338630415,12.186725040243056,32904.15760865625,35.01011019795578,16.56602505876988,15.737353188348365,4.379300018526825,4958,114,1550,2555,104.36936085885696,60.13202861876057,0.0015250682432830375,False
0.5,1.0677351285600407,2.800000000000001,6700.0,42.271319999999996,0.3,68900.0,0.33,276.0,2700.0,47.14952320097178,11.525581412443781,31119.06981359821,33.11097266044465,15.12740842535745,14.038550540527126,3.6018270129136685,4465,108,1430,2270,104.03748694579369,60.0130519205602,0.0014226909128298257,False
0.01,0.6989838077340386,2.800000000000001,6701.0,45.2907,0.05,68900.0,0.33,276.0,2700.0,36.52329806396548,0.18261439592472697,493.05886899676284,18.436822203566756,5.72826664635594,18.08647586039872,5.545652250431213,115372,550,38274,57955,3551.9505839854983,2021.284063702194,0.03497661569022366,True
0.02,0.552549264139699,2.800000000000001,6702.0,45.2907,0.1,68900.0,0.33,276.0,2700.0,26.490629906619148,0.2648895439053692,715.2017685444968,13.557601644505143,3.3922986347235367,12.933028262114005,3.1274090908181673,21585,230,7162,10836,1217.1956762934933,694.7376363364797,0.012592221376588855,True
0.03,0.4309623372681223,2.800000000000001,6703.0,45.2907,0.1,68900.0,0.33,276.0,2700.0,18.990222321015867,0.28479678614747533,768.9513225981834,9.915819050161266,1.9690326956584383,9.074403270854601,1.684235909510963,15875,192,5222,8036,663.5533124464324,378.4900469446766,0.0062861815812641,True
0.04,0.4841787599206805,2.800000000000001,6704.0,45.2907,0.1,68900.0,0.33,276.0,2700.0,21.75772032542138,0.43502036522187426,1174.5549860990604,11.464040233051826,2.5375968669690914,10.293680092369556,2.102576501747217,17674,204,5804,8962,578.0479011354114,329.8808165312941,0.005524023402666159,True
0.05,0.687685789617211,2.800000000000001,6705.0,45.2907,0.2,68900.0,0.33,276.0,2700.0,34.36996764681252,0.8589873917825115,2319.265957812781,18.041184556568787,5.522205076141681,16.328783090243732,4.66321768435917,7105,136,2336,3595,598.6075239857418,345.16699732204336,0.006972173392548506,True
0.06000000000000001,0.44160323358878617,2.800000000000001,6706.0,45.2907,0.1,68900.0,0.33,276.0,2700.0,18.76314324699257,0.5624419080676605,1518.5931517826832,10.21970071606009,2.0761601613144145,8.543442530932479,1.5137182532467541,15211,186,4984,7729,352.8056249690671,202.38241009567577,0.0033945713037288614,True
0.06999999999999999,0.38200236198434684,2.800000000000001,6707.0,45.2907,0.05,68900.0,0.33,276.0,2700.0,15.26660584208356,0.5336128269528025,1440.7546327725668,8.554294301078109,1.5171303492483261,6.712311541005452,0.9835175222955236,49455,332,16338,24942,250.78159356471917,144.3467158310908,0.0024820700992792817,False
0.08,0.4025256704689988,2.800000000000001,6708.0,45.2907,0.1,68900.0,0.33,276.0,2700.0,16.099048837854532,0.6428896232217575,1735.8019826987452,9.11769172791798,1.6984560545612337,6.9813571099365515,1.0555664313394764,13625,176,4474,6908,224.98849010701326,129.52942087164143,0.0023333709011260717,False
0.09,0.6230774484821013,2.800000000000001,6709.0,45.2907,0.2,68900.0,0.33,276.0,2700.0,28.789730109912025,1.2940110409163978,3493.8298104742744,15.84033659518927,4.428255476388938,12.949393514722756,3.1342444354725405,6045,122,1984,3063,317.14274664887716,181.8082234961037,0.0035696897395885567,True
0.09999999999999999,0.5522534866361755,2.800000000000001,6710.0,45.2907,0.2,68900.0,0.33,276.0,2700.0,24.07499076106599,1.2016551429509053,3244.4688859674443,13.548291669080562,3.3882899780501985,10.526699091985428,2.1866348350992935,5350,112,1752,2716,254.01257542994264,146.58105254857168,0.002781617803728833,False
0.11,0.782308647457524,2.800000000000001,6711.0,45.2907,0.3,68900.0,0.33,276.0,2700.0,38.96165447307353,2.140103356137755,5778.279061571939,21.453797075490172,7.388994711668036,17.507857397583358,5.248891355530281,3969,102,1308,2001,320.27322167722286,184.90760647213344,0.0039825385206954155,True
0.12,0.6078138467005704,2.800000000000001,6712.0,45.2907,0.3,68900.0,0.33,276.0,2700.0,26.908102889383525,1.6108670586260763,4349.341058290406,15.335710395335985,4.190333541025065,11.57239249404754,2.5794664823989883,2821,82,922,1432,236.56458490562528,136.580348704394,0.002647405398015423,False
0.13,0.715039967722189,2.800000000000001,6713.0,45.2907,0.3,68900.0,0.33,276.0,2700.0,33.598275704838315,2.179286534774519,5884.073643891202,19.004601187636435,6.028840719139744,14.59367451720188,3.849554184365225,3427,92,1120,1741,253.62424037963694,146.36215432068022,0.003033176794513067,False
0.14,0.6096342202726732,2.800000000000001,6714.0,45.2907,0.3,68900.0,0.33,276.0,2700.0,26.429414748717015,1.8443120122492225,4979.6424330729005,15.395585799704907,4.2183047481060445,11.033828949012108,2.373992735856822,2777,80,908,1409,210.21506940125346,121.149002520733,0.0023086755494349516,False
0.15000000000000002,0.4686988041796865,2.800000000000001,6715.0,45.2907,0.1,68900.0,0.33,276.0,2700.0,17.889537338543988,1.3346467169202234,3603.546135684603,11.006342346342501,2.363684372110136,6.883194992201487,1.0290376551899127,14856,184,4920,7470,146.45893949891786,84.30072059103564,0.0015853012467348497,False
0.16,0.7820149205187508,2.800000000000001,6716.0,45.2907,0.3,68900.0,0.33,276.0,2700.0,37.24787451939768,2.971251319212415,8022.37856187352,21.442855515394836,7.382694760496539,15.805019004002848,4.411443441284124,3897,100,1280,1971,223.86087719820986,129.14743712066215,0.0028098190274198796,False
0.17,0.639672762486986,2.800000000000001,6717.0,45.2907,0.1,68900.0,0.33,276.0,2700.0,27.430596115297252,2.321310906662211,6267.53944798797,16.39563415628469,4.69572893255331,11.034961959012563,2.374418025891099,24398,236,7590,12637,176.02796840669978,101.4665086104763,0.0020557697937146073,False
0.18000000000000002,0.7428211870641135,2.800000000000001,6718.0,45.2907,0.3,68900.0,0.33,276.0,2700.0,33.884594169119794,3.0373989629836244,8200.977200055786,20.00230651864879,6.5706255417160495,13.882287650471003,3.533226578732425,3284,90,1074,1667,191.39225085410825,110.37658515616131,0.0023579280964285995,False
0.19,0.6954301800439407,2.800000000000001,6719.0,45.2907,0.3,68900.0,0.33,276.0,2700.0,30.414227284680067,2.8749861360368234,7762.462567299423,18.312034286440458,5.662970863344277,12.102192998239609,2.787984727307453,2986,86,980,1510,173.2870633259395,99.93005033261527,0.002063156037088841,False
0.2,0.8606861521403488,2.800000000000001,6720.0,45.2907,0.3,68900.0,0.33,276.0,2700.0,41.55960230779121,4.13920506995998,11175.853688891944,24.45090586170718,9.186934346206726,17.10869644608403,5.047729276246747,4085,104,1344,2063,198.40597998777943,114.54389151349325,0.00259536847159461,False
0.21000000000000002,0.6740291302249158,2.800000000000001,6721.0,45.2907,0.2,68900.0,0.33,276.0,2700.0,28.436689715784865,2.9664562271141492,8009.431813208203,17.56723383576551,5.279064389879916,10.869455880019355,2.3126081627657666,5976,122,1978,3003,150.05452141823352,86.44052500028944,0.0018096623384633978,False
0.22,0.7369271039654959,2.800000000000001,6722.0,45.2907,0.3,68900.0,0.33,276.0,2700.0,32.241173646678504,3.5242279820843536,9515.415551627755,19.789011532006374,6.453359302970948,12.45216211467213,2.929131320886594,3083,88,1012,1559,158.3512140763698,91.29052058268731,0.0019415663136736396,False
0.23,0.7957462295788673,2.800000000000001,6723.0,45.2907,0.3,68900.0,0.33,276.0,2700.0,35.931906925963716,4.106686791275008,11088.054336442521,21.95667629739329,7.6806555302533495,13.975230628570426,3.5739687389783414,3429,94,1130,1728,162.1560536312165,93.5334686057121,0.002056663763865982,False
0.24000000000000005,0.8370152726784248,2.800000000000001,6724.0,45.2907,0.3,68900.0,0.33,276.0,2700.0,38.5117107451487,4.592452371522295,12399.621403110197,23.529472752418528,8.619093244903093,14.98223799273017,4.0266408733807975,3909,100,1284,1977,164.75887870874172,95.10894231981302,0.002116000425580726,False
0.25,0.5878515037752174,2.800000000000001,6725.0,45.2907,0.2,68900.0,0.33,276.0,2700.0,22.062742200232364,2.725117851554151,7357.818199196208,14.68457684159225,3.8907125674508407,7.378165358640114,1.1655947158966895,4613,104,1526,2318,113.11567030951001,65.29402116246513,0.0013273862796659194,False
0.26,0.6889612447675599,2.800000000000001,6726.0,45.2907,0.3,68900.0,0.33,276.0,2700.0,27.94467816647549,3.5959970733221516,9709.19209796981,18.085688216862415,5.545244174768472,9.858989949613076,1.9492471014463204,2806,82,922,1417,129.31404534821792,74.65831189993877,0.0015453730475878977,False
0.27,0.8191821781031905,2.800000000000001,6727.0,45.2907,0.3,68900.0,0.33,276.0,2700.0,36.296335485970474,4.858781311805608,13118.70954187514,22.844587229900846,8.205608624026961,13.451748256069628,3.346827312221354,3680,96,1214,1853,143.54941245303723,82.81703031177034,0.001850133905170613,False
0.28,0.7062635098103416,2.800000000000001,6728.0,45.2907,0.3,68900.0,0.33,276.0,2700.0,28.475980808789668,3.9406611519428187,10639.78511024561,18.69344464111531,5.863414478699597,9.782536167674358,1.9227533267567782,2802,82,922,1413,123.20559499961784,71.035220155146,0.001492049480345652,False
0.29000000000000004,0.6922032120976175,2.800000000000001,6729.0,45.2907,0.1,68900.0,0.33,276.0,2700.0,27.30775007444791,3.9085435586426813,10553.06760833524,18.198992197668943,5.60406097764634,9.108757876778967,1.695517419003659,35526,232,7364,21290,121.00702439968912,69.8320801406314,0.0014333509522365697,False
0.3,0.9255466830019057,2.800000000000001,6730.0,45.2907,0.3,68900.0,0.33,276.0,2700.0,42.97040306767554,6.389011792386715,17250.33183944413,27.047881477054855,10.856482210184108,15.922521590620686,4.467470417797393,4157,106,1368,2099,146.6084083817187,84.59176845251233,0.0019745807798431684,False
0.31,0.7350551845319044,2.800000000000001,6731.0,45.2907,0.3,68900.0,0.33,276.0,2700.0,29.46980477433172,4.505425615526024,12164.649161920264,19.72145322242041,6.4163791133068155,9.748351551911309,1.9109534977807918,3015,84,994,1518,115.47231401873059,66.60545217537147,0.0014382504536485329,False
0.32,0.6452520256500206,2.800000000000001,6732.0,45.2907,0.08,68900.0,0.33,276.0,2700.0,23.635391927839322,3.7130335697390717,10025.190638295493,16.583877156155857,4.7877292551151,7.051514771683465,1.0746956853760286,57973,264,9940,36235,107.59808490528482,62.09927801343213,0.001226004221759293,False
0.33,0.718831902571576,2.800000000000001,6733.0,45.2907,0.1,68900.0,0.33,276.0,2700.0,27.880238423150768,4.524973063025171,12217.427270167962,19.13963761559648,6.101160839156899,8.740600807554287,1.5761877761317278,40740,236,7682,24997,113.56210766184424,65.52806503290329,0.0013486482370748303,False
0.34,0.9918982519581174,2.800000000000001,6734.0,45.2907,0.3,68900.0,0.33,276.0,2700.0,46.623102073356584,7.843609247366158,21177.744967888626,29.81396177697166,12.742306663160193,16.809140296384925,4.898697415794035,4423,110,1456,2233,138.48852979938223,79.82205321933029,0.001931370252102216,False
0.3500000000000001,0.9119764520934764,2.800000000000001,6735.0,45.2907,0.3,68900.0,0.33,276.0,2700.0,40.35127763374919,6.971676395890999,18823.526268905698,26.495791348264344,10.493187442060227,13.855486285484847,3.5215110461692287,3772,100,1252,1888,127.77371860593745,73.53897497139097,0.0016908417204003572,False
0.36000000000000004,0.8988223427417203,2.800000000000001,6736.0,45.2907,0.3,68900.0,0.33,276.0,2700.0,39.092894258772475,6.939004868681792,18735.31314544084,25.96504819152353,10.148154399040491,13.127846067248946,3.209149530358699,3769,98,1242,1900,121.3632131600336,70.02988892623173,0.0016196053039883823,False
0.37,0.7541217875138387,2.800000000000001,6737.0,45.2907,0.2,68900.0,0.33,276.0,2700.0,29.02567998470497,5.263663402048899,14211.891185532028,20.413694244915536,6.798985057440289,8.611985739789432,1.5353216553913898,7429,122,1974,4086,113.22743340334596,65.331523088107,0.001296577389230719,False
0.38,0.9826352553345765,2.800000000000001,6738.0,45.2907,0.3,68900.0,0.33,276.0,2700.0,44.586991041638775,8.356604649852853,22562.832554602704,29.421158488844707,12.467960968263968,15.165832552794068,4.111356318411115,4326,108,1426,2177,123.91984299494763,71.42919635739555,0.0017332635487914843,False
0.39,1.0859308238207557,2.800000000000001,6739.0,45.2907,0.3,68900.0,0.33,276.0,2700.0,52.25312756971763,10.065122453016073,27175.830623143396,33.92353206289517,15.737265518060653,18.329595506822457,5.67214306504458,4707,116,1558,2364,132.88104114146415,76.61570180392705,0.0019297219136625299,False
0.4,0.7450391004106388,2.800000000000001,6740.0,45.2907,0.1,68900.0,0.33,276.0,2700.0,27.649090632798327,5.395776840006327,14568.597468017084,20.082794422450526,6.6150781590533345,7.566296210347801,1.2193013190470072,43301,230,7452,27031,109.17620293919366,60.59856758637436,0.0012097572131822213,False
0.4100000000000001,0.9346701928852371,2.800000000000001,6741.0,45.2907,0.3,68900.0,0.33,276.0,2700.0,40.11139910377772,8.078489011422393,21811.92033084046,27.42166340692914,11.10495733518942,12.68973569684858,3.026468323767027,3617,98,1202,1808,112.35030856624785,64.73683109037722,0.0015230042793730064,False
0.42000000000000004,0.8010434778276889,2.800000000000001,6742.0,45.2907,0.2,68900.0,0.33,276.0,2700.0,30.684394412719598,6.2885532823250045,16979.093862277514,22.156164151446053,7.797493552340587,8.528230261273546,1.5089402700155823,8479,124,2136,4751,103.78547139181055,59.91628295268178,0.0012573890328754782,False
0.43,0.8966476206929539,2.800000000000001,6743.0,45.2907,0.1,68900.0,0.33,276.0,2700.0,36.82386784356463,7.75061251496042,20926.653790393135,25.877721227614654,10.091782613719236,10.946146615949974,2.3411700987588153,62315,276,10008,39563,206.40463815440486,117.50225503202132,0.0026696408590295437,False
0.44,0.9991640818569458,2.800000000000001,6744.0,45.2907,0.3,68900.0,0.33,276.0,2700.0,43.88996903595712,9.477384235508316,25588.937435872453,30.123583100886158,12.960053862610586,13.766385935070964,3.48266962710227,4029,104,1344,2007,112.42641992877927,64.84215518692454,0.0015606369392460536,False
0.45,0.8201485927720216,2.800000000000001,6745.0,45.2907,0.2,68900.0,0.33,276.0,2700.0,31.115210204800537,6.810070542374545,18387.190464411273,22.881497850247808,8.227703801821416,8.233712354552729,1.4176332594468715,8476,124,2100,4778,101.61988287119854,58.573266098921884,0.0012246207837519336,False
0.46,0.9872901706786599,2.800000000000001,6746.0,45.2907,0.3,68900.0,0.33,276.0,2700.0,42.38874668398595,9.545551695630223,25772.989578201603,29.61828359560193,12.605372559447805,12.77046308838402,3.0598208638175812,4091,104,1342,2060,111.09905708714923,64.10855621601036,0.0014826107688133458,False
0.4700000000000001,0.8944064127247939,2.800000000000001,6747.0,45.2907,0.2,68900.0,0.33,276.0,2700.0,35.51786121129299,8.129251001938083,21948.977705232825,25.787848860629534,10.033885993616483,9.730012350663454,1.9046349916783996,10015,138,2474,5646,102.69194834288761,59.1970966676087,0.0013082224950229694,False
0.4800000000000001,0.9263463001290833,2.800000000000001,6748.0,45.2907,0.3,68900.0,0.33,276.0,2700.0,37.43662709920447,8.753167160645209,23633.551333742063,27.08055742509072,10.878123222520088,10.356069674113751,2.1249560618748795,4024,96,1220,2104,107.45872370852246,62.00077768642473,0.0013287977747248009,False
0.49,0.9413118460129535,2.800000000000001,6749.0,45.2907,0.3,68900.0,0.33,276.0,2700.0,38.19452269072479,9.111254569826116,24600.387338530512,27.6950816989696,11.2879898728479,10.49944099175519,2.1767353030217844,4017,96,1212,2107,113.0044809503256,64.23446402426481,0.0013348755988476604,False
0.5,1.0149211278659098,2.800000000000001,6750.0,45.2907,0.3,68900.0,0.33,276.0,2700.0,43.19046276497184,10.535816303443811,28446.70401929829,30.799602289269952,13.44003038645733,12.390860475701889,2.9042140830135192,4169,104,1324,2125,108.42194160322516,62.254064437051376,0.0014331256971013607,False
0.01,0.690321377729553,2.800000000000001,6751.0,48.31008,0.08,68900.0,0.33,276.0,2700.0,35.918213831897084,0.1795889747643936,484.8902318638627,18.133191534474005,5.56987541559683,17.78502229742308,5.390286440832437,45377,344,15114,22700,3288.342291778845,1891.6223846223565,0.03689363010280908,True
0.02,0.5824641642510664,2.800000000000001,6752.0,48.31008,0.1,68900.0,0.33,276.0,2700.0,28.381526262772695,0.2837985074668074,766.25597016038,14.51056825701562,3.8120708153769907,13.870958005757075,3.5282723079101834,23433,240,7766,11778,1442.5858586867103,823.6811087140982,0.014370654955493679,True
0.03,0.4097293254483851,2.800000000000001,6753.0,48.31008,0.08,68900.0,0.33,276.0,2700.0,17.810500440127726,0.2671009579341525,721.1725864222118,9.317953452843621,1.764857285243641,8.492546987284104,1.4977563273094885,23043,230,7584,11661,700.9276350069695,400.0643115085046,0.006311682617757331,True
0.04,0.654139479074239,2.800000000000001,6754.0,48.31008,0.1,68900.0,0.33,276.0,2700.0,32.42948348464307,0.6484556284063084,1750.8301966970328,16.885353388133336,4.936455898670397,15.544130096509736,4.288000270264089,26991,260,8880,13665,922.796454615491,525.8253513134757,0.008588735965140346,True
0.05,0.7395144798719756,2.800000000000001,6755.0,48.31008,0.1,68900.0,0.33,276.0,2700.0,37.98754055398121,0.949426714461726,2563.45212904666,19.88253593666304,6.504681869740059,18.105004617318173,5.555255155278333,31332,284,10296,15882,843.0926380839883,480.6744771401652,0.008167330512160263,True
0.06000000000000001,0.39844021072262686,2.800000000000001,6756.0,48.31008,0.1,68900.0,0.33,276.0,2700.0,16.3982210345118,0.4914942416932355,1327.034452571736,9.004695457289369,1.661437055702066,7.39352557722243,1.1699428140088304,13922,178,4572,7058,325.11446028174595,186.68002807383303,0.0032052580511834836,True
0.06999999999999999,0.6560785574843633,2.800000000000001,6757.0,48.31008,0.2,68900.0,0.33,276.0,2700.0,31.578624719672938,1.1045334876684294,2982.2404167047594,16.951393753318673,4.96926193632561,14.627230966354265,3.864728448657181,6688,130,2200,3382,474.24674138819285,271.5226336716217,0.005126816834010168,True
0.08,0.5489934061203461,2.800000000000001,6758.0,48.31008,0.2,68900.0,0.33,276.0,2700.0,24.460818800469625,0.9773604217263576,2638.8731386611657,13.445822137164786,3.344288558387027,11.014996663304839,2.366928136660669,5231,112,1722,2642,334.780315001795,193.2717322441319,0.003621529976099771,True
0.09,0.41963321337827575,2.800000000000001,6759.0,48.31008,0.2,68900.0,0.33,276.0,2700.0,16.760058603035358,0.7526758231069165,2032.2247223886745,9.595410832560644,1.8585131707889366,7.164647770474714,1.1058373476820202,3560,92,1168,1802,236.43046181206762,136.50285490741553,0.002347600755052102,False
0.09999999999999999,0.5639343728402422,2.800000000000001,6760.0,48.31008,0.2,68900.0,0.33,276.0,2700.0,24.784317531215887,1.2371214814584033,3340.2279999376888,13.91763368866996,3.5486998143494466,10.866683842545926,2.3115783328910435,5187,112,1700,2631,276.9138302027448,159.82198278999925,0.0030452853260435095,True
0.11,0.5304571555215332,2.800000000000001,6761.0,48.31008,0.2,68900.0,0.33,276.0,2700.0,22.486879944411513,1.233990757061348,3331.7750440656396,12.868275300539997,3.100419545224848,9.618604643871516,1.8664287881635,4800,108,1576,2430,1610.587350070154,885.8379494063795,0.0025710612640948483,True
0.12,0.667252740516851,2.800000000000001,6762.0,48.31008,0.3,68900.0,0.33,276.0,2700.0,30.7250206330807,1.8398821232479097,4967.681732769356,17.333801007416927,5.160813534932865,13.391219625663773,3.3209314116849553,2931,86,962,1482,274.36208923598065,158.40261300153648,0.003186177343675848,False
0.13,0.5256298927336434,2.800000000000001,6763.0,48.31008,0.2,68900.0,0.33,276.0,2700.0,21.646496958868703,1.402420916286509,3786.536473973574,12.71928617859969,3.038660839136789,8.927210780269013,1.6362399228502802,4636,106,1524,2344,202.1789286305851,116.63086560685956,0.0021949465289388126,False
0.14,0.7264883362690708,2.800000000000001,6764.0,48.31008,0.3,68900.0,0.33,276.0,2700.0,34.05387429661382,2.378024180602001,6420.665287625402,19.413396071772674,6.248749272266835,14.640478224841146,3.870725091664834,3518,94,1148,1790,255.6833390296996,147.56129913081392,0.0030829786629822777,False
0.15000000000000002,0.7516010799053572,2.800000000000001,6765.0,48.31008,0.3,68900.0,0.33,276.0,2700.0,35.453640478692414,2.651954452430669,7160.277021562806,20.321652143078236,6.747644142198404,15.131988335614178,4.0956896897677355,3565,94,1162,1816,247.37688257986414,142.71783702630705,0.0030212407764214273,False
0.16,0.7421159808963946,2.800000000000001,6766.0,48.31008,0.3,68900.0,0.33,276.0,2700.0,34.476087735994575,2.749508376540112,7423.672616658302,19.976740545706917,6.556528807165928,14.499347190287658,3.807020430625816,3593,94,1168,1835,229.3847133486046,132.3064468214494,0.0027997879816592415,False
0.17,0.5074102230877261,2.800000000000001,6767.0,48.31008,0.2,68900.0,0.33,276.0,2700.0,19.52888660060494,1.649665597913363,4454.09711436608,12.16222918389568,2.8120070112244,7.366657416709261,1.162341413311037,3970,96,1306,2005,151.4401182972148,87.35202295931705,0.0016588746542720006,False
0.18000000000000002,0.6939441754816573,2.800000000000001,6768.0,48.31008,0.3,68900.0,0.33,276.0,2700.0,30.620988304939,2.7436744352073483,7407.92097505984,18.259946390986244,5.635797805146584,12.361041913952757,2.892123369939236,2937,86,964,1485,193.4036464177625,111.62253089915136,0.0023057743944405952,False
0.19,0.7813223919391533,2.800000000000001,6769.0,48.31008,0.3,68900.0,0.33,276.0,2700.0,36.21413815742859,3.425977668948398,9250.139706160675,21.41706686265183,7.367853900609096,14.797071294776764,3.941876231660698,3756,98,1230,1905,204.29464841690526,117.94555522594543,0.0025536474468420916,False
0.2,0.8168884518615487,2.800000000000001,6770.0,48.31008,0.3,68900.0,0.33,276.0,2700.0,38.392094027179596,3.8224542418988188,10320.62645312681,22.75707609464937,8.15330978338649,15.635017932530225,4.330855541487671,3872,100,1278,1949,199.46786628746696,114.88453534726742,0.0025853775668903353,False
0.21000000000000002,0.5680365339217657,2.800000000000001,6771.0,48.31008,0.1,68900.0,0.33,276.0,2700.0,21.957947702128138,2.286188315680193,6172.708452336522,14.0481549569572,3.6060597546713686,7.909792745170938,1.3198714389911754,24036,204,5922,13609,141.73665662868117,81.81151816183996,0.0015867573981360131,False
0.22,0.8122646402285609,2.800000000000001,6772.0,48.31008,0.3,68900.0,0.33,276.0,2700.0,37.40873119789724,4.092659312718408,11050.180144339702,22.581068576023704,8.048492470055585,14.827662621873536,3.955833157337177,3908,100,1286,1973,184.78748425566457,106.68070078486792,0.002349737723106436,False
0.23,0.7930825858835944,2.800000000000001,6773.0,48.31008,0.3,68900.0,0.33,276.0,2700.0,35.747218047619675,4.085447570265444,11030.708439716698,21.856633221433615,7.622304046999987,13.89058482618606,3.5368564767345427,3449,94,1136,1739,172.46937207374808,99.48372094744684,0.0021845185152351058,False
0.24000000000000005,0.7082443904522531,2.800000000000001,6774.0,48.31008,0.3,68900.0,0.33,276.0,2700.0,29.756502349991766,3.541827364103527,9562.933883079522,18.76350472354602,5.90051333537113,10.992997626445746,2.358685971267603,2973,84,976,1503,152.9369375034518,88.29748748937257,0.0018225174842436752,False
0.25,0.7212737431016688,2.800000000000001,6775.0,48.31008,0.1,68900.0,0.33,276.0,2700.0,30.308844793051787,3.7558806756565817,10140.877824272771,19.22678646489544,6.148003153320407,11.082058328156347,2.3921224776638255,33793,248,8222,19242,149.12991517047692,86.04300530221737,0.0018142343313156165,False
0.26,0.6790869309027274,2.800000000000001,6776.0,48.31008,0.2,68900.0,0.33,276.0,2700.0,27.32225942424762,3.5150826368324513,9490.723119447619,17.74221693097557,5.3683582009066635,9.58004249327205,1.8532755640742122,5781,120,1912,2907,134.52033710335078,77.4669866718931,0.0016200467832817368,False
0.27,0.5934263647885307,2.800000000000001,6777.0,48.31008,0.05,68900.0,0.33,276.0,2700.0,21.869924382674917,2.9112158128607084,7860.282694723913,14.865410249269388,3.973080740061127,7.004514133405529,1.0618649272004186,175412,404,23436,115022,163.6588900863928,93.22696729077799,0.0013641301344563045,False
0.28,0.6476822944110975,2.800000000000001,6778.0,48.31008,0.1,68900.0,0.33,276.0,2700.0,24.83357425257048,3.43072423407213,9262.955431994751,16.666118449156695,4.828132437865612,8.167455803413784,1.3974082037934825,30651,220,6806,17992,126.37561910248117,72.85439721479193,0.00145554056328404,False
0.29000000000000004,0.9711235221652209,2.800000000000001,6779.0,48.31008,0.3,68900.0,0.33,276.0,2700.0,46.74885916253269,6.7275043764149665,18164.26181632041,28.93600137828395,12.132068136880852,17.812857784248738,5.404563760465885,4569,112,1510,2298,167.6932956393829,96.75401328254223,0.0023124278866318857,False
0.3,0.8842895215756381,2.800000000000001,6780.0,48.31008,0.3,68900.0,0.33,276.0,2700.0,39.95317772276279,5.936427990649804,16028.35557475447,25.38373297030481,9.77503950066147,14.56944475245798,3.838611510011665,4009,102,1318,2026,148.87724866258569,85.90248914500565,0.0019815850370362943,False
0.31,0.7508578009483347,2.800000000000001,6781.0,48.31008,0.3,68900.0,0.33,276.0,2700.0,30.49286228145904,4.663999529130756,12592.79872865304,20.29454225169935,6.732549561754023,10.198320029759689,2.0685500326232678,3056,86,1002,1547,128.51433960985827,74.18581133862595,0.001571061689214176,False
0.32,0.6784265647674413,2.800000000000001,6782.0,48.31008,0.08,68900.0,0.33,276.0,2700.0,25.639500072377906,4.033690872865245,10890.965356736162,17.719333965548365,5.356649397851183,7.920166106829541,1.3229585249859381,64352,280,10984,40268,118.91723252027016,68.4554155140105,0.0013820983613522303,False
0.33,0.9798068010084091,2.800000000000001,6783.0,48.31008,0.3,68900.0,0.33,276.0,2700.0,46.03978007327412,7.521297435295531,20307.503075297933,29.30164584794282,12.384913630670551,16.738134225331304,4.8636161953750205,4417,110,1458,2224,150.92956798986472,86.93491027028175,0.002080972031478832,False
0.34,0.7363933007587931,2.800000000000001,6784.0,48.31008,0.2,68900.0,0.33,276.0,2700.0,28.71797683461176,4.799737956779541,12959.292483304762,19.769737388003932,6.442801009776188,8.948239446607829,1.6430630529966468,6608,122,1986,3469,123.48789634496613,71.29457198392815,0.0014350713689943923,False
0.3500000000000001,0.7198073282026727,2.800000000000001,6785.0,48.31008,0.08,68900.0,0.33,276.0,2700.0,27.39896765173344,4.705022149038227,12703.559802403212,19.174432406249455,6.11984710017862,8.224535245483985,1.4148249511403934,73730,290,11640,46986,120.00144340134455,68.29524645478298,0.0013776701914735598,False
0.36000000000000004,0.9433448743235405,2.800000000000001,6786.0,48.31008,0.3,68900.0,0.33,276.0,2700.0,42.31796232019693,7.519517119738193,20302.696223293122,27.77899740995255,11.344380041914956,14.538964910244385,3.824862922176763,4045,104,1338,2032,134.5921657320151,77.37379297755793,0.0018347190460115239,False
0.37,1.0213533663971066,2.800000000000001,6787.0,48.31008,0.3,68900.0,0.33,276.0,2700.0,47.867986490121424,8.749490105550942,23623.623284987545,31.07735598986354,13.639033506703619,16.790630500257883,4.889543401152677,4538,112,1502,2279,141.74422829979818,81.7750556942363,0.0019879913033719874,False
0.38,0.9701770489924189,2.800000000000001,6788.0,48.31008,0.3,68900.0,0.33,276.0,2700.0,43.656177121967076,8.17975000511458,22085.325013809364,28.896260842536027,12.104699796300801,14.75991627943105,3.924949791186222,4305,108,1422,2162,132.15172875881711,76.14182752264276,0.0018195824549993578,False
0.39,1.065697013775518,2.800000000000001,6789.0,48.31008,0.3,68900.0,0.33,276.0,2700.0,50.64534144993065,9.751604159657612,26329.331231075554,33.02047543617376,15.060016702045086,17.624866013756886,5.308412542387474,4824,116,1598,2421,140.42037365912608,80.93271906334785,0.0020069884067108333,False
0.4,0.7286941028892555,2.800000000000001,6790.0,48.31008,0.2,68900.0,0.33,276.0,2700.0,26.63289440813617,5.192537595074048,14019.851506699932,19.49253739150166,6.29165795447016,7.1403570166345105,1.0991203593961112,7057,114,1766,3964,107.98665362451095,62.34411076258262,0.0012525236346846154,False
0.4100000000000001,0.8937747224249007,2.800000000000001,6791.0,48.31008,0.3,68900.0,0.33,276.0,2700.0,37.21455836383037,7.484636659733188,20208.51898127961,25.76254090527167,10.017604053558987,11.4520174585587,2.532967393825799,3566,96,1180,1790,117.01168719922062,67.3865890299896,0.001534016373359587,False
0.42000000000000004,1.0811713427912752,2.800000000000001,6792.0,48.31008,0.3,68900.0,0.33,276.0,2700.0,50.83547765753411,10.520280763736054,28404.758062087345,33.71018581348077,15.576315045274736,17.125291844053343,5.0560342815386825,4578,114,1522,2289,132.0944957418318,76.02697935897571,0.0019174613132834494,False
0.43,0.9489679842885477,2.800000000000001,6793.0,48.31008,0.3,68900.0,0.33,276.0,2700.0,40.52627329415999,8.546629686838367,23075.90015446359,28.011639097149192,11.501238111582733,12.5146341970108,2.9546084247443662,3589,98,1194,1792,115.94467673727597,66.77254539866905,0.0015903795778380236,False
0.44,0.7954887315600819,2.800000000000001,6794.0,48.31008,0.08,68900.0,0.33,276.0,2700.0,29.789122004269178,6.375197888536954,17213.034299049777,21.946997212832652,7.675002975815965,7.842124791436525,1.2998050872790108,93480,298,12412,61334,115.03273357766476,65.04612080487952,0.0012920000370972421,False
0.45,1.0025155854278534,2.800000000000001,6795.0,48.31008,0.3,68900.0,0.33,276.0,2700.0,43.823390497533495,9.669411108239453,26107.409992246525,30.266849044506966,13.061253158256912,13.55654145302653,3.391842050017459,4036,104,1342,2015,116.63471414175244,67.15596154344502,0.0016403078691683485,False
0.46,0.9697514132848982,2.800000000000001,6796.0,48.31008,0.3,68900.0,0.33,276.0,2700.0,41.11173929700608,9.251839996624625,24979.96799088649,28.878396580370335,12.092404317867226,12.233342716635747,2.840564321242601,3969,102,1308,1989,115.75491019590997,66.76368681656328,0.0015400625475692148,False
0.4700000000000001,0.8621877997811829,2.800000000000001,6797.0,48.31008,0.2,68900.0,0.33,276.0,2700.0,33.342412874277215,7.618020642739381,20568.65573539633,24.509835307584552,9.223695229850003,8.832577566692663,1.605674587110622,9210,132,2266,5205,107.18028396797114,61.86065345887441,0.0013356909478307922,False
0.4800000000000001,1.136514842830887,2.800000000000001,6798.0,48.31008,0.3,68900.0,0.33,276.0,2700.0,53.192432538078286,12.534560465974915,33843.31325813227,36.226166928081525,17.511221291010905,16.96626560999676,4.9766608250359905,4889,116,1576,2485,127.86952528111212,73.68936547531025,0.0018226570115456005,False
0.49,1.0510160814515495,2.800000000000001,6799.0,48.31008,0.3,68900.0,0.33,276.0,2700.0,46.19672884503156,11.07179507763128,29893.84670960446,32.37169097556128,14.580014344279855,13.825037869470279,3.508219266648574,4507,108,1448,2287,121.98909540617949,70.40736003178398,0.001621322300996532,False
0.5,1.043948634501173,2.800000000000001,6800.0,48.31008,0.3,68900.0,0.33,276.0,2700.0,45.34907901631625,11.07547036627992,29903.76998895578,32.06129561813691,14.352326726320767,13.287783398179343,3.2768563600408473,4412,106,1386,2269,120.78681158454374,69.6816471659694,0.0015823437278537683,False
0.01,0.6156277992819745,2.800000000000001,6801.0,51.32946,0.05,68900.0,0.33,276.0,2700.0,30.857231434949593,0.15428406277965023,416.5669695050556,15.593314064107396,4.3111715070400844,15.263917370842197,4.156887444260434,99814,502,33096,50164,3699.456968515244,2110.019685806671,0.03249578961950739,True
0.02,0.3450916360749656,2.800000000000001,6802.0,51.32946,0.08,68900.0,0.33,276.0,2700.0,14.615058351950406,0.14613382835868508,394.5613365684497,7.567676078350033,1.219698855690436,7.047382273600373,1.073565027331751,18833,206,6210,9512,884.6361805314543,504.5613921284647,0.008045630540779487,True
0.03,0.4203426736182483,2.800000000000001,6803.0,51.32946,0.1,68900.0,0.33,276.0,2700.0,18.397353218212764,0.2759037496054283,744.9401239346564,9.61538097988299,1.8653278165256622,8.781972238329773,1.589424066920234,15459,188,5074,7842,745.6783707366469,425.19662811447307,0.006917218726324346,True
0.04,0.4321018148080825,2.800000000000001,6804.0,51.32946,0.1,68900.0,0.33,276.0,2700.0,18.77844148561614,0.37543478842576966,1013.6739287495781,9.94822408543926,1.9803500080626728,8.830217400176878,1.6049152196369032,15845,190,5188,8057,613.1831949756789,349.78501801466786,0.010577505116557497,True
0.05,0.5528761507223323,2.800000000000001,6805.0,51.32946,0.1,68900.0,0.33,276.0,2700.0,25.592792073689537,0.6395580024544375,1726.8066066269812,13.567893375770245,3.396732114835091,12.024898697919292,2.7571741123806532,20839,224,6834,10582,623.4360076704806,355.8130165307628,0.005989010614000541,True
0.06000000000000001,0.41838398841926105,2.800000000000001,6806.0,51.32946,0.1,68900.0,0.33,276.0,2700.0,17.47931148694142,0.5239269552661253,1414.6027792185384,9.560277937623361,1.8465482926124972,7.919033549318058,1.322621337346372,14631,182,4796,7431,371.8984322171649,213.28931080681534,0.0036085991227672513,True
0.06999999999999999,0.5924056719935532,2.800000000000001,6807.0,51.32946,0.2,68900.0,0.33,276.0,2700.0,27.452343049901344,0.9601136292264256,2592.3067989113492,14.832243323031454,3.9579246517737543,12.62009972686989,2.997811022547329,5899,120,1936,2989,429.2752617377944,245.83881469855245,0.004786683617452896,True
0.08,0.4800205676812535,2.800000000000001,6808.0,51.32946,0.2,68900.0,0.33,276.0,2700.0,20.38885827800846,0.8144820008279084,2199.101402235353,11.340502815922205,2.490184180585872,9.048355462086255,1.6757021797579639,4448,102,1454,2261,310.0841071011215,178.98160587136286,0.0032638562806217622,True
0.09,0.5566926447973897,2.800000000000001,6809.0,51.32946,0.2,68900.0,0.33,276.0,2700.0,24.635717783270273,1.1070804862175176,2989.1173127872976,13.688250987704672,3.4487434551444975,10.947466795565601,2.34166296892698,5239,112,1720,2653,319.18640767785206,184.25188901933947,0.003509547510332641,True
0.09999999999999999,0.7084975859004666,2.800000000000001,6810.0,51.32946,0.3,68900.0,0.33,276.0,2700.0,34.130656943863414,1.704438452090776,4601.983820645095,18.772466886245454,5.905265303915072,15.35819005761796,4.200826851824296,3379,92,1106,1714,362.6965108744446,209.40055211897746,0.004336145525546072,True
0.11,0.4444497296503749,2.800000000000001,6811.0,51.32946,0.2,68900.0,0.33,276.0,2700.0,17.591051835094838,0.9647202110489316,2604.7445698321153,10.301473115082423,2.105366833254367,7.289578720012415,1.1406466222054354,3528,92,1156,1788,217.23443000267787,125.38184304033612,0.0022230170987936207,False
0.12,0.816227898062529,2.800000000000001,6812.0,51.32946,0.3,68900.0,0.33,276.0,2700.0,41.07191795235747,2.4606959624045106,6643.879098492179,22.731898912101492,8.138285826363026,18.340019040255974,5.677589863958515,4182,104,1374,2115,346.3275006113416,199.90710813746995,0.004407648337854703,True
0.13,0.5738048620807468,2.800000000000001,6813.0,51.32946,0.3,68900.0,0.33,276.0,2700.0,24.51533519827511,1.5888954018479233,4290.017584989393,14.232405285792533,3.6876251286876305,10.282929912482578,2.098729726839707,2560,78,834,1303,239.896285173639,138.07447809815216,0.002600808584212239,False
0.14,0.47215144077212434,2.800000000000001,6814.0,51.32946,0.1,68900.0,0.33,276.0,2700.0,18.337797977780184,1.2778988382836463,3450.326863365845,11.107905075795033,2.401860515841299,7.229892901985151,1.1239616775576529,15044,186,4980,7568,177.83130781235766,102.52741299724235,0.001923666710680044,False
0.15000000000000002,0.7407614333772388,2.800000000000001,6815.0,51.32946,0.3,68900.0,0.33,276.0,2700.0,34.70653857362904,2.595921809551603,7008.9888857893275,19.927668938207045,6.529502602936262,14.778869635421994,3.933580793384659,3549,94,1156,1809,258.9980365466098,149.43468986654457,0.00315059337794268,False
0.16,0.5317054574847729,2.800000000000001,6816.0,51.32946,0.1,68900.0,0.33,276.0,2700.0,21.182514207266987,1.6860224942419566,4552.260734453283,12.90689832240689,3.116507141069066,8.275615884860096,1.4304846468271095,17722,202,5820,8948,179.50083619815675,103.53114552869162,0.0019625513063598744,False
0.17,0.6177426892396143,2.800000000000001,6817.0,51.32946,0.08,68900.0,0.33,276.0,2700.0,26.05962511073318,2.2047783712742612,5952.9016024405055,15.663299811238144,4.34422363662577,10.396325299495036,2.139445265351509,44750,284,11064,25320,191.20771601407276,110.3456842643813,0.002235712047099053,False
0.18000000000000002,0.6577704277218526,2.800000000000001,6818.0,51.32946,0.3,68900.0,0.33,276.0,2700.0,28.28292569603187,2.533248800405667,6839.771761095301,17.009091996777844,4.997990293728473,11.273833699254027,2.4647414933228062,2873,82,936,1463,198.09581585824432,114.3061154116661,0.0022874190526302783,False
0.19,0.6856784107963034,2.800000000000001,6819.0,51.32946,0.3,68900.0,0.33,276.0,2700.0,29.779175866665472,2.8146562513259035,7599.571878579939,17.971225151596244,5.486059818813966,11.807950715069229,2.6714035674880625,3007,86,984,1525,194.52979105744367,112.01675768452816,0.0022955921240142307,False
0.2,0.5085678458453136,2.800000000000001,6820.0,51.32946,0.08,68900.0,0.33,276.0,2700.0,18.822479636330105,1.8654928028138649,5036.830567597435,12.197374698575851,2.8261066238854076,6.625104937754253,0.9606138210715427,32799,234,7950,18696,143.85633490909115,82.99610914374875,0.001552744021660782,False
0.21000000000000002,0.6554247704492753,2.800000000000001,6821.0,51.32946,0.3,68900.0,0.33,276.0,2700.0,27.258647089004025,2.8427617513021546,7675.456728515817,16.92911677357853,4.95818661764857,10.329530315425494,2.1154248663464155,2780,82,908,1412,172.56676662483173,99.54081060160216,0.0019809731166891714,False
0.22,0.578247184100242,2.800000000000001,6822.0,51.32946,0.1,68900.0,0.33,276.0,2700.0,22.29026547158015,2.429628082823536,6559.995823623548,14.374870694398808,3.7511663110831366,7.915394777181341,1.3215382282596004,24959,208,6192,14097,147.1052345158863,84.89115083724778,0.0016572000431224001,False
0.23,0.6405745777450749,2.800000000000001,6823.0,51.32946,0.3,68900.0,0.33,276.0,2700.0,25.76754515310378,2.937785187396116,7932.020005969513,16.426008179232603,4.71052845994409,9.341536973871175,1.7727432725479741,2657,80,874,1340,151.31876019113395,87.3575558766597,0.001784062899642958,False
0.24000000000000005,0.6070562055760587,2.800000000000001,6824.0,51.32946,0.2,68900.0,0.33,276.0,2700.0,23.461475140175324,2.7864240989255578,7523.345067099006,15.310814742730148,4.178724008051931,8.150660397445176,1.3922999091263728,4886,108,1616,2456,139.07283177532804,80.07344501487543,0.001615543160583378,False
0.25,0.7908019327135729,2.800000000000001,6825.0,51.32946,0.3,68900.0,0.33,276.0,2700.0,34.96064633320126,4.337355868175266,11710.860844073219,21.77111648467233,7.572554189010721,13.189529848528931,3.2351983208354547,3559,94,1174,1792,169.9924832600582,98.14491432453445,0.00214652907956771,False
0.26,0.5929573818059715,2.800000000000001,6826.0,51.32946,0.1,68900.0,0.33,276.0,2700.0,22.100975434718503,2.836315718193744,7658.052439123108,14.850167619163699,3.96611269010856,7.250807815554804,1.129796971914816,25340,206,6126,14453,131.8810031292425,76.03008404891287,0.001487142314953641,False
0.27,0.6196398699795146,2.800000000000001,6827.0,51.32946,0.08,68900.0,0.33,276.0,2700.0,23.41357681884079,3.1196088917431006,8422.944007706372,15.726176795111789,4.373999377550728,7.687400023729003,1.2543904858076274,52914,264,9874,32563,136.6574478601514,76.92215816096227,0.0015173259120857489,False
0.28,0.8005561822255147,2.800000000000001,6828.0,51.32946,0.3,68900.0,0.33,276.0,2700.0,34.7011056815207,4.812178634125161,12992.882312137934,22.13778374446131,7.78670142957663,12.563321937059392,2.9745227954514695,3320,92,1094,1673,155.0145264868592,89.25377951565366,0.001968943947220186,False
0.29000000000000004,0.7460733108191772,2.800000000000001,6829.0,51.32946,0.3,68900.0,0.33,276.0,2700.0,30.7578699436146,4.408810939671853,11903.789537114004,20.120368103666785,6.635867421306316,10.637501839947817,2.227056481634463,3178,86,1042,1609,143.10892243648624,82.61594245063323,0.0017507930011750113,False
0.3,0.730905459684331,2.800000000000001,6830.0,51.32946,0.2,68900.0,0.33,276.0,2700.0,29.486204420850857,4.3663819953630085,11789.231387480124,19.572002028930246,6.334850749168758,9.914202391920611,1.968468753805749,5946,122,1970,2981,132.99150304450194,76.65134103330824,0.0016679309409487393,False
0.31,0.7100803206583599,2.800000000000001,6831.0,51.32946,0.1,68900.0,0.33,276.0,2700.0,27.87853370444013,4.258778599692788,11498.70221917053,18.828526234876385,5.935021494983346,9.050007469563745,1.6762428952905575,39662,236,7612,24244,133.1888276433754,76.84258160178005,0.00158534205834083,False
0.32,0.8806925652505124,2.800000000000001,6832.0,51.32946,0.3,68900.0,0.33,276.0,2700.0,39.05545966136478,6.18024440710315,16686.659899178507,25.240673607963224,9.683992708406208,13.814786053401555,3.503748301303058,3675,98,1218,1842,152.1699251596172,87.61508795500266,0.0019754041407446274,False
0.33,0.7168921327654056,2.800000000000001,6833.0,51.32946,0.2,68900.0,0.33,276.0,2700.0,27.75808003505632,4.50481692898959,12163.005708271894,19.07051438567327,6.064101404872816,8.68756564938305,1.559284475883226,6167,120,1898,3200,130.0640260472627,74.72577010406062,0.001511178538034421,False
0.34,0.8425755877595367,2.800000000000001,6834.0,51.32946,0.3,68900.0,0.33,276.0,2700.0,35.76046628452834,5.996961163265358,16191.795140816468,23.744652943146967,8.750522401883751,12.015813341381374,2.753561238618393,3555,94,1174,1788,137.31288762303936,78.99821894575076,0.0017733436027355053,False
0.3500000000000001,0.786274902763536,2.800000000000001,6835.0,51.32946,0.3,68900.0,0.33,276.0,2700.0,31.668934590111057,5.4522663632543305,14721.119180786693,21.601755536957562,7.474379237991796,10.067179053153495,2.0221128747374655,3236,90,1068,1628,125.66601691300772,72.52411214748271,0.001594165727357729,False
0.36000000000000004,0.9649046370847907,2.800000000000001,6836.0,51.32946,0.3,68900.0,0.33,276.0,2700.0,43.915488825930005,7.80707189077015,21079.094105079403,28.675294731736685,11.95292962568756,15.24019409419332,4.14585773491741,4313,108,1430,2162,150.2116235049775,86.13651519761723,0.0021649908147331923,False
0.37,0.8219602214643291,2.800000000000001,6837.0,51.32946,0.3,68900.0,0.33,276.0,2700.0,33.46896069722543,6.085670333865178,16431.30990143598,22.950753275256005,8.269219299954646,10.518207421969421,2.183548966089468,3540,92,1170,1779,125.5142835330639,72.07103011891351,0.001607410339479428,False
0.38,0.9777447679749645,2.800000000000001,6838.0,51.32946,0.3,68900.0,0.33,276.0,2700.0,44.220668499651005,8.287003366875172,22374.909090562964,29.214644060725433,12.32458238764048,15.006024438925571,4.037579020765307,4331,108,1428,2179,140.86545614636597,81.04707892192036,0.00195163202277486,False
0.39,0.8512157048728545,2.800000000000001,6839.0,51.32946,0.2,68900.0,0.33,276.0,2700.0,34.86780897135698,6.6749853263357055,18022.460381106404,24.080561066052795,8.957128776006602,10.787247905304184,2.2821434496708966,9258,134,2334,5193,129.73611921371565,74.83692326492141,0.0016234674464674216,False
0.4,0.9178533944634775,2.800000000000001,6840.0,51.32946,0.3,68900.0,0.33,276.0,2700.0,39.21482343883447,7.708923401213729,20814.09318327707,26.73432021207934,10.64960216593332,12.480503226755133,2.940678764719591,3587,98,1194,1790,128.3067227080818,73.94924656927203,0.00172311985174047,False
0.4100000000000001,0.8990750079784435,2.800000000000001,6841.0,51.32946,0.3,68900.0,0.33,276.0,2700.0,37.58526373903757,7.560631261650652,20413.70440645676,25.975201787452644,10.154716146784928,11.610061951584928,2.5940848851342757,3616,96,1196,1816,125.15086077902103,72.06608246550499,0.001641796577262363,False
0.42000000000000004,0.7656162486100223,2.800000000000001,6842.0,51.32946,0.2,68900.0,0.33,276.0,2700.0,28.416890906634567,5.81237754604715,15693.419374327306,20.835431887684134,7.036050114518848,7.581459018950433,1.2236725684716978,7913,120,2002,4422,112.81886103198806,64.95597185161608,0.00135747366163483,False
0.43,0.803833807090029,2.800000000000001,6843.0,51.32946,0.05,68900.0,0.33,276.0,2700.0,30.59452778906918,6.411304403243897,17310.52188875852,22.261528105024375,7.859463500073593,8.332999684044804,1.4481590968296958,355816,486,32576,244894,148.5909981113257,83.07364904938522,0.0014148274320613826,False
0.44,1.123019505810451,2.800000000000001,6844.0,51.32946,0.3,68900.0,0.33,276.0,2700.0,53.4842712307099,11.588130718353925,31287.9529395556,35.6055559886618,17.026529783910448,17.878715242048102,5.438399065556522,4892,118,1630,2441,139.27992125412212,80.23331895343263,0.0020579445107875203,False
0.45,1.070424570077141,2.800000000000001,6845.0,51.32946,0.3,68900.0,0.33,276.0,2700.0,48.98276016907555,10.830269284335753,29241.72706770653,33.23055014139428,15.216619207482141,15.752210027681265,4.386349923146389,4578,112,1508,2298,133.65110129981474,76.92479699249742,0.0018960282837707512,False
0.46,0.7973574459318649,2.800000000000001,6846.0,51.32946,0.2,68900.0,0.33,276.0,2700.0,29.382559486924883,6.554128640306181,17696.14732882669,22.017278092028285,7.716081298702127,7.3652813948965985,1.161952658395946,8258,122,2076,4630,108.07503748949472,62.39646458389231,0.0013215867649923898,False
0.4700000000000001,1.0868801985908036,2.800000000000001,6847.0,51.32946,0.3,68900.0,0.33,276.0,2700.0,49.600901170596,11.438765392374288,30884.666559410576,33.96615639584935,15.76949189495309,15.63474477474665,4.330726502578802,4540,112,1472,2298,128.67011105995252,74.08724964456732,0.0018634883330509479,False
0.4800000000000001,0.9428406089839894,2.800000000000001,6848.0,51.32946,0.2,68900.0,0.33,276.0,2700.0,38.59287671204641,9.030667067727276,24382.801082863643,27.75817355859895,11.33037730699543,10.83470315344746,2.2997102392681548,10480,142,2578,5927,119.51958663654425,68.92578148725063,0.0015538816203365432,False
0.49,1.1024773206860092,2.800000000000001,6849.0,51.32946,0.3,68900.0,0.33,276.0,2700.0,50.15893482614429,12.042535543003897,32514.845966110523,34.669667658319916,16.304744612096698,15.489267167824373,4.262209069092801,4965,114,1552,2561,125.13250507376054,71.95182342503519,0.0018391451271481676,False
0.5,0.9753136275436214,2.800000000000001,6850.0,51.32946,0.3,68900.0,0.33,276.0,2700.0,40.31339286610594,9.81654882872722,26504.681837563494,29.112206075757822,12.25368203593538,11.201186790348121,2.437133207208161,4403,100,1294,2326,122.32949433020235,70.52713929892735,0.0015520293042018875,False
0.01,0.6134736469366328,2.800000000000001,6851.0,54.348839999999996,0.05,68900.0,0.33,276.0,2700.0,30.715433928357488,0.15357507524668645,414.6527031660534,15.522144612044025,4.277657808833992,15.193289316313463,4.124082733587306,99127,498,32838,49864,3716.623644731797,2113.565302041504,0.034205585934295714,True
0.02,0.6578203945439947,2.800000000000001,6852.0,54.348839999999996,0.1,68900.0,0.33,276.0,2700.0,33.34410581725267,0.3334243030115619,900.2456181312172,17.01079712061482,4.998840226602583,16.333308696637847,4.665415923591022,27647,266,9172,13883,1786.454576496461,1020.9531114448894,0.01910098271870063,True
0.03,0.4983521744881191,2.800000000000001,6853.0,54.348839999999996,0.1,68900.0,0.33,276.0,2700.0,22.8845513981935,0.3432117223051377,926.6716502238718,11.888388958854515,2.7030827337787167,10.996162439338987,2.359871011473579,19037,212,6240,9671,975.3736255708046,556.9146416194427,0.009004795965490838,True
0.04,0.4869862274870232,2.800000000000001,6854.0,54.348839999999996,0.1,68900.0,0.33,276.0,2700.0,21.922205825319732,0.43831007521984106,1183.4372030935708,11.547694170118058,2.5698991696151907,10.374511655201674,2.1315890943953497,18430,208,6050,9349,722.1108849558937,412.5966395732774,0.006676528806864147,True
0.05,0.6594460333251128,2.800000000000001,6855.0,54.348839999999996,0.2,68900.0,0.33,276.0,2700.0,32.45569859835257,0.8111306655710182,2190.0527970417493,17.06630647015753,5.026538748177532,15.389392128195038,4.215408082606514,6736,132,2216,3406,685.5037527064006,394.8461406898702,0.007932405353511588,True
0.06000000000000001,0.5688807564782911,2.800000000000001,6856.0,54.348839999999996,0.2,68900.0,0.33,276.0,2700.0,26.28194911089694,0.78800608398479,2127.616426758933,14.075068639422701,3.6179308832723325,12.206880471474237,2.8299247992875425,5432,114,1784,2750,526.2016845184905,301.21451220343585,0.005557768669069662,True
0.06999999999999999,0.7022646595115912,2.800000000000001,6857.0,54.348839999999996,0.2,68900.0,0.33,276.0,2700.0,34.69920876669658,1.2137539293142623,3277.135609148508,18.55231319410197,5.788944507702059,16.14689557259461,4.575190578387796,7239,136,2376,3669,550.6052374916134,314.48931352603427,0.006292309706066626,True
0.08,0.7207529803722197,2.800000000000001,6858.0,54.348839999999996,0.2,68900.0,0.33,276.0,2700.0,35.64020734154584,1.4245359633694041,3846.2471010973914,19.208187965031982,6.13799540252099,16.432019376513857,4.713459439151586,7546,140,2474,3829,513.2125486590656,293.7893801154859,0.005754612877098621,True
0.09,0.6949031335458655,2.800000000000001,6859.0,54.348839999999996,0.3,68900.0,0.33,276.0,2700.0,33.53369852135975,1.5074896194315484,4070.2219724651804,18.293553736945874,5.653324440160983,15.240144784413879,4.145834820729434,3376,92,1106,1711,418.8519584000955,241.18340621327027,0.004934102060278142,True
0.09999999999999999,0.6589514706120381,2.800000000000001,6860.0,54.348839999999996,0.2,68900.0,0.33,276.0,2700.0,30.809070170308562,1.5383591134130352,4153.569606215195,17.049412014746416,5.018102567284691,13.759658155562146,3.479743453871656,6477,128,2132,3273,356.54588508433676,204.69047959754536,0.004175607360806559,True
0.11,0.6875887552522992,2.800000000000001,6861.0,54.348839999999996,0.3,68900.0,0.33,276.0,2700.0,32.39152402274342,1.7787461813696013,4802.6146896979235,18.03780047062478,5.520454625444205,14.353723552118637,3.741708444074604,3370,92,1102,1711,340.5929059344584,195.62393415340725,0.00404094458352874,True
0.12,0.4762083691388585,2.800000000000001,6862.0,54.348839999999996,0.2,68900.0,0.33,276.0,2700.0,19.088847850539867,1.1417117562954568,3082.6217419977334,11.227626491203734,2.447167201795233,7.861221359336133,1.305455445499776,3887,96,1276,1967,223.9770585114943,129.31217310390417,0.0023589035871479213,False
0.13,0.53565135819968,2.800000000000001,6863.0,54.348839999999996,0.3,68900.0,0.33,276.0,2700.0,22.233669536583925,1.440587133837998,3889.585261362595,13.02924381584618,3.1676777332958386,9.204425720737746,1.7270905994578405,2375,74,780,1199,240.20180593421838,138.23299159060358,0.0025313016734475266,False
0.14,0.7991658234998701,2.800000000000001,6864.0,54.348839999999996,0.3,68900.0,0.33,276.0,2700.0,39.14210695072959,2.7342004663901043,7382.341259253281,22.08537331241132,7.755958409060942,17.05673363831827,5.021757942670838,3877,100,1272,1963,310.3290723357776,179.16335476275597,0.003929404585905701,True
0.15000000000000002,0.6471154348034638,2.800000000000001,6865.0,54.348839999999996,0.3,68900.0,0.33,276.0,2700.0,28.498082621549383,2.130287613145628,5751.776555493196,16.64692241347274,4.818690529610868,11.851160208076642,2.68840291646524,2886,84,940,1470,245.0017087005458,141.45104816296467,0.002804176248442682,False
0.16,0.752778240156071,2.800000000000001,6866.0,54.348839999999996,0.3,68900.0,0.33,276.0,2700.0,35.20896227111504,2.8081383393497994,7581.973516244459,20.364615557498155,6.7715912673251255,14.844346713616886,3.963452927975326,3521,94,1148,1793,260.53371914135323,150.28582294000287,0.00320902012763027,False
0.17,0.7070627695782623,2.800000000000001,6867.0,54.348839999999996,0.3,68900.0,0.33,276.0,2700.0,31.794801773127332,2.692268387577482,7269.124646459201,18.721701112017787,5.878366687986448,13.073100661109546,3.186098300408966,3157,88,1036,1597,233.6532627253495,134.74233577484625,0.002796282473747199,False
0.18000000000000002,0.8126028370947349,2.800000000000001,6868.0,54.348839999999996,0.3,68900.0,0.33,276.0,2700.0,38.75214434828341,3.475478479108351,9383.791893592548,22.593923981976534,8.05613149043085,16.158220366306875,4.580653011322499,4029,102,1326,2034,247.44517383154522,142.77345197217016,0.0031827742085157656,False
0.19,0.5305237765703242,2.800000000000001,6869.0,54.348839999999996,0.1,68900.0,0.33,276.0,2700.0,20.318294397924987,1.915872511795558,5172.855781848007,12.870335596344392,3.101276911850416,7.4479588015805955,1.185404400054858,21954,198,5572,12308,164.12534941479882,94.58632087393846,0.0017969352290297348,False
0.2,0.7244516639068221,2.800000000000001,6870.0,54.348839999999996,0.3,68900.0,0.33,276.0,2700.0,32.023440435396296,3.185588882720487,8601.089983345315,19.340430311589714,6.2092848663974864,12.683010123806582,3.0236959836769994,3152,88,1034,1595,202.90104999075388,116.7372169472739,0.0024847943457867437,False
0.21000000000000002,0.6185900078349976,2.800000000000001,6871.0,54.348839999999996,0.3,68900.0,0.33,276.0,2700.0,24.977564323418328,2.603248060915662,7028.7697644722875,15.691370742300068,4.357507333057752,9.28619358111826,1.75425927214209,2516,78,826,1271,171.28762755129208,98.89237851094103,0.0019554993945602966,False
0.22,0.6561479767894216,2.800000000000001,6872.0,54.348839999999996,0.3,68900.0,0.33,276.0,2700.0,27.017314301967463,2.9496034541661302,7963.929326248552,16.953759760651064,4.97043877242233,10.0635545413164,2.0208353182562,2791,82,910,1420,171.35629027528714,98.73164874758935,0.002015707045549869,False
0.23,0.8774080280825698,2.800000000000001,6873.0,54.348839999999996,0.3,68900.0,0.33,276.0,2700.0,41.76715365078668,4.777740164629648,12899.89844450005,25.11032391756228,9.601302921211623,16.656829733224402,4.823562756581975,4060,104,1336,2050,210.99654523897237,121.81608963900689,0.0028090101647985145,False
0.24000000000000005,0.728238211264943,2.800000000000001,6874.0,54.348839999999996,0.3,68900.0,0.33,276.0,2700.0,31.06123362313924,3.6983951168812235,9985.666815579303,19.4761703030788,6.282775200944423,11.585063320060442,2.5843800840631994,3225,88,1056,1635,173.89078998106137,100.0183765773556,0.0021238148323267964,False
0.25,0.6299174862755597,2.800000000000001,6875.0,54.348839999999996,0.1,68900.0,0.33,276.0,2700.0,24.56602678481027,3.0380284246263902,8202.676746491254,16.06837331547031,4.537383197007818,8.497653469339959,1.499354772381428,27063,216,6602,15382,151.06766745580458,87.1491516420052,0.0017389668739640125,False
0.26,0.5802681032960157,2.800000000000001,6876.0,54.348839999999996,0.2,68900.0,0.33,276.0,2700.0,21.36324999895021,2.7404114115438674,7399.110811168442,14.439845775367473,3.7802824006139657,6.923404223582736,1.0398709890700983,4620,104,1532,2316,129.87607376749062,74.69432894864319,0.0015201811580571182,False
0.27,0.7912170633472047,2.800000000000001,6877.0,54.348839999999996,0.3,68900.0,0.33,276.0,2700.0,34.37027330340595,4.5987629171593944,12416.659876330365,21.78667273961845,7.581595275181025,12.583600563787503,2.9828323580216303,3279,92,1080,1653,167.85447393838416,96.72542471204417,0.002121014460844702,False
0.28,0.8899891417095809,2.800000000000001,6878.0,54.348839999999996,0.3,68900.0,0.33,276.0,2700.0,41.01835555640489,5.69659361660895,15380.802764844164,25.61108604182781,9.920364661455855,15.40726951457708,4.223771044846905,3945,102,1298,1992,179.00250071618615,103.34679830745102,0.0023915672652758276,False
0.29000000000000004,0.9306345533607964,2.800000000000001,6879.0,54.348839999999996,0.3,68900.0,0.33,276.0,2700.0,43.684097832536594,6.283113983565516,16964.407755626893,27.256068890826903,10.99462766406182,16.42802894170969,4.711513680496304,4140,106,1360,2094,181.95107123428343,104.99355440971394,0.0024606081960191926,False
0.3,0.6968362828699105,2.800000000000001,6880.0,54.348839999999996,0.1,68900.0,0.33,276.0,2700.0,27.321820991841108,4.041724481011551,10912.656098731188,18.361372543712534,5.688754148011616,8.960448448128574,1.6470296670000648,36823,230,7264,22361,142.85074032405882,82.43221898612782,0.0016851048726615147,False
0.31,0.920833844886568,2.800000000000001,6881.0,54.348839999999996,0.3,68900.0,0.33,276.0,2700.0,42.29070937101487,6.492665828011915,17530.19773563217,26.855620205221307,10.72946319077804,15.435089165793563,4.236797362766125,4071,104,1346,2046,169.56155799819504,97.8640530379709,0.00228308511276152,False
0.32,0.6359427365496559,2.800000000000001,6882.0,54.348839999999996,0.05,68900.0,0.33,276.0,2700.0,23.082948020372577,3.624642544544392,9786.534870269857,16.270220329785236,4.634806798995411,6.812727690587341,1.0101642544510194,210115,412,24410,140590,161.8221622327115,91.01319233865034,0.0014504710128554904,False
0.33,0.6560371685138301,2.800000000000001,6883.0,54.348839999999996,0.1,68900.0,0.33,276.0,2700.0,24.021736760751452,3.8883202887290924,10498.464779568549,16.949983157132646,4.968560364780836,7.071753603618806,1.0802400760517434,35110,216,6658,21515,131.15518209830563,75.66192313566452,0.0015137176533306996,False
0.34,0.9817339889387675,2.800000000000001,6884.0,54.348839999999996,0.3,68900.0,0.33,276.0,2700.0,45.84814314587541,7.711866229694354,20822.038820174756,29.383054828549266,12.441461839099759,16.465088317326146,4.729595609405405,4422,110,1462,2223,165.68838592376957,95.51661274017292,0.00228627770676761,False
0.3500000000000001,0.6903384438555786,2.800000000000001,6885.0,54.348839999999996,0.1,68900.0,0.33,276.0,2700.0,25.576900430310868,4.3861603852892905,11842.633040281084,18.13378787273414,5.570184884017252,7.443112557576729,1.1840244987279611,37564,222,6942,23137,127.0517231310563,73.29635091389626,0.001477926074855928,False
0.36000000000000004,1.0489047881744276,2.800000000000001,6886.0,54.348839999999996,0.3,68900.0,0.33,276.0,2700.0,50.36255099408692,8.967543081038393,24212.366318803663,32.27883354670678,14.511766255097525,18.08371744738014,5.544223174059132,4647,114,1538,2334,166.60708318771262,95.9513201105073,0.002372141692884323,False
0.37,0.9997793502279588,2.800000000000001,6887.0,54.348839999999996,0.3,68900.0,0.33,276.0,2700.0,46.21361910991087,8.44343214021147,22797.26677857097,30.149862679113888,12.978596034523273,16.063756430796985,4.535163894311802,4415,110,1458,2222,156.4891528322135,90.19560658634654,0.002174624771113167,False
0.38,0.9846820648695231,2.800000000000001,6888.0,54.348839999999996,0.3,68900.0,0.33,276.0,2700.0,44.740664423215755,8.385802592352471,22641.666999351673,29.507769147166577,12.52826909578939,15.232895276049177,4.1424665034369195,4309,108,1428,2161,149.13396171218844,86.0072874884344,0.0020853949567117783,False
0.39,0.9240864034342979,2.800000000000001,6889.0,54.348839999999996,0.3,68900.0,0.33,276.0,2700.0,39.96892380684746,7.669702719256394,20708.197341992265,26.988249363767558,10.817028287816182,12.980674443079899,3.147325568559788,3789,100,1256,1899,138.36020808138773,79.68479808610181,0.0018817258777198368,False
0.4,0.7625474031258598,2.800000000000001,6890.0,54.348839999999996,0.1,68900.0,0.33,276.0,2700.0,28.75250803813984,5.616460321074805,15164.442866901973,20.722509453420436,6.972282724742793,8.029998584719404,1.3558224036679878,44566,234,7634,27853,124.35923501011592,71.78215671209479,0.0014892075731523394,False
0.4100000000000001,0.8655671556217158,2.800000000000001,6891.0,54.348839999999996,0.2,68900.0,0.33,276.0,2700.0,35.26545786633554,7.085071057746744,19129.69185591621,24.642659293707233,9.306747033876091,10.622798572628305,2.2216759761293465,9691,136,2404,5469,135.44029393187833,78.19424453765222,0.0016866118761400027,False
0.42000000000000004,1.1160354555905978,2.800000000000001,6892.0,54.348839999999996,0.3,68900.0,0.33,276.0,2700.0,53.61944387444517,11.104913669287383,29983.266907075933,35.286177374218695,16.778974784399193,18.333266500226472,5.67406111511181,4933,118,1634,2476,154.10649098616452,88.20846990975157,0.002320575065237063,False
0.43,0.971056036405527,2.800000000000001,6893.0,54.348839999999996,0.3,68900.0,0.33,276.0,2700.0,42.13062186036086,8.891564628571613,24007.224497143357,28.933167039341512,12.130115464484739,13.197454821019349,3.2385508359131254,4075,104,1358,2028,134.57487486820523,77.20698214768606,0.0018421621305323313,False
0.44,1.0360621781746515,2.800000000000001,6894.0,54.348839999999996,0.3,68900.0,0.33,276.0,2700.0,46.66759302648955,10.088461513425443,27238.846086248697,31.716412163601102,14.100837700124242,14.951180862888446,4.012376186698798,4360,110,1448,2180,138.34427054557077,79.66167143806392,0.0019633990949425566,False
0.45,0.7907814453605522,2.800000000000001,6895.0,54.348839999999996,0.2,68900.0,0.33,276.0,2700.0,29.225046858837118,6.38478378953277,17238.91623173848,21.770348871049524,7.572108164324849,7.454697987787593,1.1873243747920785,7926,120,1978,4455,114.487490126464,66.06092664766446,0.0014093582628366573,False
0.46,1.0369167020967764,2.800000000000001,6896.0,54.348839999999996,0.3,68900.0,0.33,276.0,2700.0,46.085855995046444,10.395886837174135,28068.894460370164,31.75370592874056,14.12795606594237,14.332150066305886,3.7320692287682355,4566,110,1450,2339,133.3912417765251,76.72772888785298,0.0018943930159900744,False
0.4700000000000001,0.8409825373805537,2.800000000000001,6897.0,54.348839999999996,0.2,68900.0,0.33,276.0,2700.0,31.939074294643458,7.288236076525449,19678.23740661871,23.682923620206186,8.712745150941846,8.256150674437272,1.424509074416397,8576,126,2142,4821,118.02950132762078,67.91647178030117,0.0014631407449968786,False
0.4800000000000001,1.0833353590699382,2.800000000000001,6898.0,54.348839999999996,0.3,68900.0,0.33,276.0,2700.0,48.99587766947111,11.527387297509204,31123.94570327485,33.80711840480817,15.649369296760012,15.188759264662941,4.121981999250808,4686,112,1488,2398,132.54003653736578,76.32637208029523,0.0019312563426285053,False
0.49,1.100922255661599,2.800000000000001,6899.0,54.348839999999996,0.3,68900.0,0.33,276.0,2700.0,50.037253684631864,12.012723663333349,32434.353891000042,34.59925174108487,16.25088578305432,15.438001943546993,4.23816211972097,4966,114,1552,2560,140.10515146964178,80.7752195492972,0.0019435639635315763,False
0.5,1.1673539465530638,2.800000000000001,6900.0,54.348839999999996,0.3,68900.0,0.33,276.0,2700.0,54.99882682669146,13.487907318873708,36417.34976095901,37.66154796683686,18.650475315086698,17.337278859854607,5.1625679962129905,5350,120,1676,2752,140.56991407060116,80.99114964030471,0.0020610059298137888,False
0.01,0.3219375782132929,2.800000000000001,6901.0,57.36822,0.05,68900.0,0.33,276.0,2700.0,13.676912005632301,0.06838246563305897,184.6326572092592,6.966248147811121,1.0514651924466012,6.710663857821181,0.9830827268135423,44981,316,14906,22616,1792.6580692757316,1020.6477224727349,0.016185914185720095,True
0.02,0.3909594446270831,2.800000000000001,6902.0,57.36822,0.08,68900.0,0.33,276.0,2700.0,17.054407679607838,0.170527321635259,460.4237684151993,8.798878579809434,1.594845745976479,8.255529099798403,1.4243184243412201,21952,224,7234,11095,1126.67049284683,642.2855393605173,0.010421713552859407,True
0.03,0.6543960636425077,2.800000000000001,6903.0,57.36822,0.1,68900.0,0.33,276.0,2700.0,32.77829239769202,0.49161783729761677,1327.3681607035653,16.894086618900378,4.940789540150299,15.884205778791642,4.4491717028526825,27233,262,8980,13757,1373.209011744345,781.7944025912317,0.013409034422980127,True
0.04,0.6583718616757548,2.800000000000001,6904.0,57.36822,0.1,68900.0,0.33,276.0,2700.0,32.7137621952179,0.6541412026178047,1766.1812470680727,17.029620170954853,5.008226311895147,15.68414202426305,4.354085109277342,27014,260,8878,13691,1111.0651523325537,632.9437166299816,0.010283108045323475,True
0.05,0.4018993365671596,2.800000000000001,6905.0,57.36822,0.1,68900.0,0.33,276.0,2700.0,16.84741090854436,0.4209234733258097,1136.493377979686,9.100341263155203,1.6927507692322747,7.747069645389159,1.2718272959064651,14227,180,4666,7222,482.9013367635622,276.5343082214024,0.0045517819666608655,True
0.06000000000000001,0.7523351863724158,2.800000000000001,6906.0,57.36822,0.2,68900.0,0.33,276.0,2700.0,38.55205129274223,1.15610914944015,3121.4947034884053,20.34844111175908,6.762572230606524,18.203610180983148,5.606463081166374,7853,144,2578,3980,705.4165622808655,402.98618698733793,0.008374379638974569,True
0.06999999999999999,0.4111877549753943,2.800000000000001,6907.0,57.36822,0.1,68900.0,0.33,276.0,2700.0,16.82398475232951,0.5881210888114121,1587.9269397908126,9.358656568740672,1.778476538506567,7.465328183588836,1.190355449695155,14015,178,4596,7115,338.2767319380652,194.43657509328716,0.003426560156583701,True
0.08,0.6885098376359211,2.800000000000001,6908.0,57.36822,0.2,68900.0,0.33,276.0,2700.0,33.42852584686302,1.3360687035820933,3607.385499671652,18.069932875178893,5.537083722356231,15.358592971684125,4.201015018774138,6957,134,2280,3531,515.3453850108453,295.0990351629487,0.005727482763598434,True
0.09,0.7189987528532709,2.800000000000001,6909.0,57.36822,0.2,68900.0,0.33,276.0,2700.0,35.18326344495752,1.5817200409934442,4270.6441106822995,19.145587702160693,6.104354789461678,16.037675742796825,4.522634748468234,7193,136,2352,3659,459.1376591686419,262.8833358200995,0.005433974136959357,True
0.09999999999999999,0.40313399367354835,2.800000000000001,6910.0,57.36822,0.08,68900.0,0.33,276.0,2700.0,15.622290996564109,0.7790201547258128,2103.3544177596946,9.134552705390254,1.7040076860017013,6.487738291173855,0.9249875312758885,20033,210,6600,10127,232.70770712030318,134.26516760753526,0.002417610037096925,False
0.11,0.5441284338425978,2.800000000000001,6911.0,57.36822,0.1,68900.0,0.33,276.0,2700.0,23.299343750515483,1.2786762663970657,3452.4259192720774,13.293405022108985,3.2792460001148034,10.005938728406498,2.0005697337177377,19305,214,6354,9768,280.29731556245775,161.3786191459714,0.0031664030003605297,True
0.12,0.7471497560927618,2.800000000000001,6912.0,57.36822,0.3,68900.0,0.33,276.0,2700.0,36.13546441967657,2.1645087504436646,5844.173626197895,20.159504761759838,6.657546958077238,15.975959657916736,4.493038207633573,3622,96,1190,1831,360.5367620861233,208.0276457229163,0.004427759478304615,True
0.13,0.4931880994801544,2.800000000000001,6913.0,57.36822,0.1,68900.0,0.33,276.0,2700.0,19.78030647415616,1.28111853478019,3459.0200439065134,11.733193108579105,2.642091211404423,8.047113365577054,1.360972676624233,16139,192,5334,8132,219.21959487500212,126.45136600353514,0.0024148912007018247,False
0.14,0.4930271148368681,2.800000000000001,6914.0,57.36822,0.2,68900.0,0.33,276.0,2700.0,19.505266643479857,1.3596216448826237,3670.978441183084,11.72836581264197,2.6402027360662244,7.776900830837887,1.2805810911836006,4142,98,1362,2093,209.25748920104286,120.80523638084445,0.00226032463296706,False
0.15000000000000002,0.5374771673794096,2.800000000000001,6915.0,57.36822,0.2,68900.0,0.33,276.0,2700.0,21.789537863812797,1.627146756315383,4393.296242051534,13.085986769309415,3.1915184344149123,8.703551094503382,1.5643716780995294,4619,106,1516,2339,214.1397207695441,123.44604172971644,0.0023519296835241557,False
0.16,0.7234958375313051,2.800000000000001,6916.0,57.36822,0.3,68900.0,0.33,276.0,2700.0,33.20992838283341,2.648215628287274,7150.18219637564,19.306222849539473,6.190815123017976,13.903705533293937,3.542599494730702,3267,90,1072,1653,264.9319792100235,152.73589125942644,0.0032168496942286263,False
0.17,0.8469336961120268,2.800000000000001,6917.0,57.36822,0.3,68900.0,0.33,276.0,2700.0,41.58149535757708,3.524137342255986,9515.170824091161,23.91385178741236,8.854372692288962,17.667643570164724,5.330235350032976,4132,104,1360,2086,2170.353405771051,1146.7473747535714,0.003711731982578484,True
0.18000000000000002,0.7608144449074874,2.800000000000001,6918.0,57.36822,0.3,68900.0,0.33,276.0,2700.0,35.11627638383227,3.148250362307746,8500.275978230915,20.65884741639655,6.936426654405226,14.457428967435721,3.78817629209748,3521,94,1146,1796,247.07319439241522,142.34802004325397,0.003078093969058999,False
0.19,0.7286012401497507,2.800000000000001,6919.0,57.36822,0.3,68900.0,0.33,276.0,2700.0,32.61016572962544,3.0836002883071,8325.72077842917,19.489203077555963,6.289847978866462,13.12096265206948,3.2062476905593615,3373,90,1106,1708,226.30393581267037,130.65407993297646,0.00276984947051298,False
0.2,0.5174804813953502,2.800000000000001,6920.0,57.36822,0.1,68900.0,0.33,276.0,2700.0,19.32111215309734,1.9153560544905883,5171.461347124588,12.469090853253963,2.9360267499897486,6.852021299843376,1.0206706954991602,21191,190,5256,11959,163.18040092871433,94.18636250579587,0.001769555441432678,False
0.21000000000000002,0.5747066051001868,2.800000000000001,6921.0,57.36822,0.2,68900.0,0.33,276.0,2700.0,22.34900216706589,2.3272490344986547,6283.572393146368,14.261284092581038,3.700472119899448,8.087718074484853,1.3732230854007934,4807,106,1588,2419,165.09992338117124,95.31097777394494,0.001895206131322303,False
0.22,0.5561060734163834,2.800000000000001,6922.0,57.36822,0.2,68900.0,0.33,276.0,2700.0,21.002404707956234,2.287963398824849,6177.501176827092,13.66972896400006,3.440719751526321,7.332675743956175,1.1527563527014717,4405,102,1458,2212,153.37880983422284,88.54007890051992,0.0017551596360106394,False
0.23,0.7545177401703997,2.800000000000001,6923.0,57.36822,0.3,68900.0,0.33,276.0,2700.0,33.11321032537399,3.782536682207193,10212.84904195942,20.428166727209724,6.80707077898568,12.685043598164267,3.024534096778487,3147,88,1032,1593,196.12653990424243,113.04470159903103,0.002435045890990977,False
0.24000000000000005,0.641429181146097,2.800000000000001,6924.0,57.36822,0.2,68900.0,0.33,276.0,2700.0,25.542134596936258,3.0361032337368683,8197.478731089544,16.454810923142162,4.724578488553535,9.087323673794096,1.6884752548166664,5481,116,1818,2748,161.10799075892675,92.69944452797802,0.0019273577558714364,False
0.25,0.6571910429210722,2.800000000000001,6925.0,57.36822,0.3,68900.0,0.33,276.0,2700.0,26.23656534882906,3.246845745128738,8766.483511847591,16.989325002674516,4.988141211105708,9.247240346154545,1.74129546597697,2697,80,888,1359,161.16657861620664,93.02628731488991,0.002020665757204135,False
0.26,0.8181225546274304,2.800000000000001,6926.0,57.36822,0.3,68900.0,0.33,276.0,2700.0,36.53758277117352,4.713074671932894,12725.301614218813,22.80414363028259,8.18142339308971,13.73343914089093,3.4683487211568167,3660,96,1210,1839,188.37498047747846,108.54226609693637,0.002420835469672153,False
0.27,0.6119806896390678,2.800000000000001,6927.0,57.36822,0.1,68900.0,0.33,276.0,2700.0,22.95897384112789,3.058237489751862,8257.241222330027,15.472888319590064,4.254520685501706,7.4860855215378255,1.1962831957498445,27410,210,6334,15887,147.81337482951113,85.29006890469684,0.001670432538730122,False
0.28,0.8220554123395942,2.800000000000001,6928.0,57.36822,0.3,68900.0,0.33,276.0,2700.0,36.183033584973934,5.019648540608616,13553.051059643263,22.95439453837826,8.271404175552616,13.228639046595674,3.2517556349440007,3712,96,1222,1873,177.22362801443427,102.28386471004495,0.0022789081580690475,False
0.29000000000000004,0.6117163491834494,2.800000000000001,6929.0,57.36822,0.1,68900.0,0.33,276.0,2700.0,22.424739618342223,3.2005070425073554,8641.36901476986,15.464172922415795,4.250431727108289,6.960566695926428,1.0499246846009336,29745,208,6202,17784,494.7850642811179,278.79086012964706,0.001579512225618627,True
0.3,0.7523542484207562,2.800000000000001,6930.0,57.36822,0.3,68900.0,0.33,276.0,2700.0,30.87875411246735,4.5752644491054895,12353.214012584822,20.349136903285803,6.7629601202062375,10.529617209181549,2.187695671100748,3165,86,1034,1608,156.25149667895133,90.19996629109663,0.001921116791986164,False
0.31,0.9787365841339961,2.800000000000001,6931.0,57.36822,0.3,68900.0,0.33,276.0,2700.0,46.64129537608667,7.167006658798041,19350.91797875471,29.25647766485783,12.353578687279155,17.384817711228838,5.186572028481114,4361,110,1440,2195,187.85891422176576,108.45261474455302,0.0026122490000542796,False
0.32,0.7998473510764743,2.800000000000001,6932.0,57.36822,0.3,68900.0,0.33,276.0,2700.0,33.4464239271099,5.282798689622359,14263.556461980368,22.111057845249146,7.771018951708669,11.335366081860752,2.48822026208631,3429,92,1130,1728,154.54609387524164,88.9133914127111,0.0019553390134856566,False
0.33,0.7651616714007837,2.800000000000001,6933.0,57.36822,0.3,68900.0,0.33,276.0,2700.0,30.85409344957241,5.015659142384745,13542.279684438812,20.818690153850486,7.026582607440121,10.035403295721924,2.0109234650553756,3196,88,1056,1606,144.14004899529542,83.21884611264885,0.0018160867823902084,False
0.34,0.8132418882112733,2.800000000000001,6934.0,57.36822,0.3,68900.0,0.33,276.0,2700.0,33.75826711131001,5.6565873038182435,15272.785720309257,22.618223188933133,8.070577926449582,11.14004392237688,2.4139906226313386,3537,92,1170,1776,149.94898253477047,86.19800722107942,0.0019024485002136825,False
0.3500000000000001,0.7436555683580779,2.800000000000001,6935.0,57.36822,0.1,68900.0,0.33,276.0,2700.0,28.90546605170505,4.968659369033277,13415.380296389849,20.032571644737857,6.587327717222274,8.872894406967195,1.6186683481889963,42349,238,7798,26114,141.28894488762523,81.51709375385194,0.0016964466442261118,False
0.36000000000000004,0.8901386012305148,2.800000000000001,6936.0,57.36822,0.3,68900.0,0.33,276.0,2700.0,38.475484202747595,6.827871058597313,18435.251858212745,25.61705884241741,9.924192928445231,12.858425360330184,3.0963218698479187,3664,98,1214,1837,151.30884738365376,87.27129997844736,0.00202663242250737,False
0.37,1.0662072214433669,2.800000000000001,6937.0,57.36822,0.3,68900.0,0.33,276.0,2700.0,51.38241357578701,9.399659116399073,25379.079614277496,33.04312009411413,15.076869778269536,18.339293481672883,5.677210661870463,4823,116,1598,2420,174.64088793059267,100.74873200391617,0.002498421227872444,False
0.38,1.0377512336435752,2.800000000000001,6938.0,57.36822,0.3,68900.0,0.33,276.0,2700.0,48.79858189824878,9.156806912608715,24723.378664043532,31.7901448850272,14.154470738780025,17.008437013221577,4.99766382617131,4499,112,1490,2258,167.53424334956392,96.61278775458892,0.002354330065924069,False
0.39,0.9092513946071551,2.800000000000001,6939.0,57.36822,0.3,68900.0,0.33,276.0,2700.0,38.90880112355516,7.462978796014159,20150.04274923823,26.38548335671547,10.421135227682361,12.52331776683969,2.9581564316682023,3578,98,1190,1787,145.53139896980215,83.89154254533558,0.0019442693426412504,False
0.4,0.7049747417295855,2.800000000000001,6940.0,57.36822,0.1,68900.0,0.33,276.0,2700.0,25.18210515466685,4.902379744380204,13236.425309826553,18.647916251539705,5.839352306177515,6.534188903127145,0.9369725617973108,40204,220,6900,25124,125.01344845938428,71.91329426015128,0.0014412614505552395,False
0.4100000000000001,0.9045972640716271,2.800000000000001,6941.0,57.36822,0.3,68900.0,0.33,276.0,2700.0,37.97299593074904,7.640116360951515,20628.31417456909,26.19751971715307,10.29877135869604,11.775476213595972,2.6586549977445255,3579,96,1186,1794,137.39152037956708,79.22690484408463,0.0018484193936873447,False
0.42000000000000004,0.7946043600774931,2.800000000000001,6942.0,57.36822,0.2,68900.0,0.33,276.0,2700.0,30.26757041997103,6.201020243847807,16742.754658389076,21.913767292238813,7.6556083725981985,8.353803127732217,1.454588128750392,8071,122,2016,4535,129.95098615145687,75.00610137623838,0.0015808501692337103,False
0.43,0.7419267751063636,2.800000000000001,6943.0,57.36822,0.05,68900.0,0.33,276.0,2700.0,26.680272465303275,5.56973950863423,15038.296673312421,19.96988335889848,6.552749740912638,6.710389106404797,0.9830102322784082,310774,448,28488,213844,162.63053581110623,92.4489020685542,0.0014472601807464266,False
0.44,1.009665353240682,2.800000000000001,6944.0,57.36822,0.3,68900.0,0.33,276.0,2700.0,44.6735195304456,9.649765344295771,26054.36642959858,30.573422010107585,13.278749298630917,14.100097520338018,3.628983954335146,4118,106,1380,2042,144.01044728047916,82.85642945411925,0.002002447988656595,False
0.45,0.8697120675942556,2.800000000000001,6945.0,57.36822,0.2,68900.0,0.33,276.0,2700.0,34.403594840110884,7.549957085319369,20384.884130362298,24.80596501500122,9.409226982193909,9.597629825109664,1.8592698968745394,9190,134,2302,5159,131.85764504864872,76.12251986144398,0.0016589526195157536,False
0.46,1.0398242027422648,2.800000000000001,6946.0,57.36822,0.3,68900.0,0.33,276.0,2700.0,46.30629969494526,10.446588888150867,28205.78999800734,31.88073467479942,14.220464603029837,14.42556502014584,3.7738757148789706,4554,110,1454,2323,139.59948106348676,80.37865802167752,0.0020062015773752574,False
0.4700000000000001,1.0901005617545674,2.800000000000001,6947.0,57.36822,0.3,68900.0,0.33,276.0,2700.0,49.85236948686319,11.497860446696222,31044.2232060798,34.1109106441859,15.879108264502309,15.74145884267729,4.381247817806086,4608,112,1496,2330,144.62222771854678,83.16065728814478,0.002091212770584086,False
0.4800000000000001,0.8933130284733948,2.800000000000001,6948.0,57.36822,0.08,68900.0,0.33,276.0,2700.0,35.16211625869572,8.20728455892311,22159.668309092398,25.744050004405864,10.005713913022262,9.418066254289855,1.7984293540991523,120466,332,14790,79963,149.72594787537662,84.35060388214521,0.0016380609772131227,False
0.49,1.0354888673706883,2.800000000000001,6949.0,57.36822,0.3,68900.0,0.33,276.0,2700.0,45.027368398391644,10.7853017682045,29120.31477415215,31.691401596134508,14.082661508176832,13.335966802257136,3.2973597399723324,4281,106,1370,2180,133.66510294703488,76.86856664322953,0.00188751540158973,False
0.5,1.0786874741020251,2.800000000000001,6950.0,57.36822,0.3,68900.0,0.33,276.0,2700.0,47.98808900013784,11.735222862235284,31685.101728035268,33.599071176616235,15.492721399403125,14.389017823521606,3.757498537167841,5012,112,1494,2641,146.3021544879931,84.38770540258955,0.0019676398728009884,False
0.01,0.32947258520158934,2.800000000000001,6951.0,60.3876,0.05,68900.0,0.33,276.0,2700.0,14.063504832684584,0.07031542976832178,189.8516603744688,7.160491438241234,1.1046868371947107,6.9030133944433505,1.034371407426389,46590,322,15420,23454,1961.5613365972401,1116.084707676247,0.017507360960521547,True
0.02,0.5539675966186954,2.800000000000001,6952.0,60.3876,0.1,68900.0,0.33,276.0,2700.0,26.579265736702013,0.2657759022062043,717.5949359567516,13.602276025378295,3.4115594970601673,12.976989711323718,3.145783594853963,21631,230,7166,10876,1626.7344605904864,926.3994748020996,0.016841836760538152,True
0.03,0.5795645396142455,2.800000000000001,6953.0,60.3876,0.1,68900.0,0.33,276.0,2700.0,27.88096815087311,0.4181579735953318,1129.0265287073958,14.417213675553628,3.770131011847195,13.463754475319481,3.351973038251863,23245,238,7646,11770,1266.1835866730594,721.3823749548661,0.01208100599110089,True
0.04,0.5001379634931842,2.800000000000001,6954.0,60.3876,0.1,68900.0,0.33,276.0,2700.0,22.698022325486413,0.4538264052231777,1225.3312941025797,11.942213203756427,2.7243609355142633,10.755809121729985,2.2705345302910858,18621,210,6120,9435,860.106498971959,491.3715887374966,0.0076652724368917215,True
0.05,0.6180468530263195,2.800000000000001,6955.0,60.3876,0.2,68900.0,0.33,276.0,2700.0,29.721858238193537,0.7427846565670385,2005.518572731004,15.673374417939748,4.3489893773149815,14.04848382025379,3.606204720747943,6251,124,2056,3161,793.3715570823081,454.4065643958625,0.008122713750179276,True
0.06000000000000001,0.5812500525819401,2.800000000000001,6956.0,60.3876,0.1,68900.0,0.33,276.0,2700.0,27.056066828278816,0.8112296155062473,2190.3199618668677,14.471453727658272,3.7944771135820226,12.584613100620544,2.9832474980757753,22600,234,7416,11470,634.0882825958454,362.72941518191044,0.0063337447032630325,True
0.06999999999999999,0.7613671562482329,2.800000000000001,6957.0,60.3876,0.2,68900.0,0.33,276.0,2700.0,38.848891134500626,1.3589928121873995,3669.2805929059787,20.679143649479855,6.947850642284466,18.16974748502077,5.588857830097067,7827,144,2572,3963,656.958303960129,375.1904458493023,0.00776458046137596,True
0.08,0.6138371258158802,2.800000000000001,6958.0,60.3876,0.2,68900.0,0.33,276.0,2700.0,28.5070887795661,1.1392112208902208,3075.870296403596,15.534145143809646,4.283301961430439,12.972943635756454,3.1440907405402183,6100,122,2000,3094,467.1795253400758,267.67608484809233,0.0052075068118033535,True
0.09,0.710442584363028,2.800000000000001,6959.0,60.3876,0.3,68900.0,0.33,276.0,2700.0,34.5941740658906,1.5552110189354336,4199.06975112567,18.84136621404138,5.941844712280135,15.75280785184922,4.386633693344701,3349,92,1096,1699,481.4222259943483,277.8294066869544,0.0056432727086242725,True
0.09999999999999999,0.46021835656950216,2.800000000000001,6960.0,60.3876,0.1,68900.0,0.33,276.0,2700.0,18.726023453350805,0.9342067775651481,2522.3582994259,10.758153259827118,2.27139931709982,7.967870193523687,1.3371925395346718,15514,188,5106,7849,274.76239072728487,158.52916220450734,0.0029703536719328425,False
0.11,0.4827580663153226,2.800000000000001,6961.0,60.3876,0.2,68900.0,0.33,276.0,2700.0,19.72576511647771,1.0821294415249878,2921.749492117467,11.421783398950506,2.5213400013310734,8.303981717527204,1.4392105598060856,4201,98,1378,2128,272.17621860190445,157.14076176633608,0.0028843011585779,False
0.12,0.6605098654437741,2.800000000000001,6962.0,60.3876,0.3,68900.0,0.33,276.0,2700.0,30.28309109873803,1.8133663511873475,4896.089148205838,17.10266822418464,5.044713772026707,13.18042287455339,3.2313474208393598,3049,86,1006,1534,344.4267381765595,197.37118887731316,0.003928660284648339,True
0.13,0.46772308288562325,2.800000000000001,6963.0,60.3876,0.1,68900.0,0.33,276.0,2700.0,18.35251066269794,1.188311807035409,3208.4418789956044,10.977694834140399,2.35295922745242,7.3748158285575425,1.1646474204170107,15326,188,5066,7721,221.15043309293551,127.61313385688186,0.002389148268553314,False
0.14,0.7275343064735879,2.800000000000001,6964.0,60.3876,0.3,68900.0,0.33,276.0,2700.0,34.125220791131525,2.3830184352182426,6434.149775089255,19.450909485925347,6.269074722686418,14.674311305206178,3.8860562874681754,3534,94,1152,1800,320.2040083714529,184.79251763376186,0.003861300638947034,True
0.15000000000000002,0.705385433155516,2.800000000000001,6965.0,60.3876,0.3,68900.0,0.33,276.0,2700.0,32.309405558585944,2.41613683342315,6523.569450242505,18.6624202412393,5.847013823680672,13.646985317346644,3.430876990257522,3080,88,1012,1556,290.0574343510228,167.37571438234016,0.0034775269617565666,True
0.16,0.510962069106744,2.800000000000001,6966.0,60.3876,0.2,68900.0,0.33,276.0,2700.0,19.992472399651557,1.5908191496327215,4295.2117040083485,12.270170361614234,2.8553969779076565,7.7223020380373235,1.264577828274935,4431,102,1460,2235,199.5682284841559,115.13447389587506,0.0022036591931933755,False
0.17,0.5597887227989097,2.800000000000001,6967.0,60.3876,0.2,68900.0,0.33,276.0,2700.0,22.55295439230853,1.9067113602081673,5148.120672562051,13.786158378478596,3.4912748502085873,8.766796013829932,1.58456349000042,4821,108,1584,2439,206.46874694447135,118.96198310085275,0.0023283271719904642,False
0.18000000000000002,0.5246638228428564,2.800000000000001,6968.0,60.3876,0.1,68900.0,0.33,276.0,2700.0,20.245981060185784,1.809923783179565,4886.794214584826,12.6895396317917,3.0263874902373114,7.556441428394084,1.2164637070577464,19397,196,5498,10456,189.97249376540702,109.61926171538084,0.002060212830142855,False
0.19,0.49679015007867794,2.800000000000001,6969.0,60.3876,0.08,68900.0,0.33,276.0,2700.0,18.421458248700056,1.73567307761919,4686.317309571813,11.841374763726453,2.6845495066784344,6.580083484973603,0.9488764290592444,32316,234,7936,18330,172.68231465038207,99.68545816861871,0.001857626518519915,False
0.2,0.7119650364876486,2.800000000000001,6970.0,60.3876,0.3,68900.0,0.33,276.0,2700.0,31.19607177389003,3.1028520165698543,8377.700444738606,18.895363663262025,5.970570887178333,12.300708110628005,2.8677188706084786,2945,86,966,1490,224.45149974601796,129.52102203072369,0.002704336159807297,False
0.21000000000000002,0.652335860177685,2.800000000000001,6971.0,60.3876,0.3,68900.0,0.33,276.0,2700.0,27.06473898114303,2.82240139997676,7620.483779937252,16.824011277481908,4.906056487407862,10.240727703661122,2.083655087431102,2740,82,896,1390,200.39932995393391,115.60763076309289,0.0023172615827496256,False
0.22,0.5729011717677139,2.800000000000001,6972.0,60.3876,0.1,68900.0,0.33,276.0,2700.0,21.977052507727016,2.3951746567996897,6466.971573359162,14.203484618570752,3.674776511108783,7.773567889156265,1.2796018543090932,23831,204,5904,13455,171.65518828276598,99.07494634678784,0.0019275768022682287,False
0.23,0.6879175465260473,2.800000000000001,6973.0,60.3876,0.1,68900.0,0.33,276.0,2700.0,28.740397452653788,3.279663201844369,8855.090644979797,18.04926806609533,5.5263871819847745,10.691129386558458,2.2467239801404055,31694,240,7800,17958,191.77191628623453,110.61583588599304,0.0023006248476341988,False
0.24000000000000005,0.8683031821611766,2.800000000000001,6974.0,60.3876,0.3,68900.0,0.33,276.0,2700.0,40.76485658435794,4.862829872227468,13129.640655014162,24.750407783937316,9.374317362174724,16.014448800420627,4.511487489947256,4064,104,1338,2051,225.21174000670666,129.99891157279413,0.0029604796995717345,False
0.25,0.9028912940414906,2.800000000000001,6975.0,60.3876,0.3,68900.0,0.33,276.0,2700.0,42.971651242183746,5.33873148179808,14414.575000854815,26.128758053256934,10.254137838262132,16.842893188926812,4.915406356464052,4039,104,1336,2029,221.9755411708015,128.12906598412562,0.0030006563330110935,False
0.26,0.7594818327265712,2.800000000000001,6976.0,60.3876,0.3,68900.0,0.33,276.0,2700.0,32.53237174801689,4.192397238922529,11319.472545090826,20.609943847134325,6.908929012396931,11.922427900882568,2.7165317734744026,3123,88,1026,1578,189.84349138676495,109.52503017669565,0.002316240623161582,False
0.27,0.7772521166912312,2.800000000000001,6977.0,60.3876,0.3,68900.0,0.33,276.0,2700.0,33.42317163204252,4.470904191525336,12071.441317118408,21.265739956208787,7.280988655786773,12.157431675833731,2.810084464261437,3379,92,1116,1699,182.68791488179076,105.18759396011612,0.0023039309598464,False
0.28,0.6642167099243255,2.800000000000001,6978.0,60.3876,0.2,68900.0,0.33,276.0,2700.0,25.84416249677405,3.5722065882606353,9644.957788303715,17.229590297363178,5.10834583685223,8.614572199410873,1.5361392485915948,5356,116,1766,2693,151.95921568624638,87.52190434673184,0.0018562572584600904,False
0.29000000000000004,0.698561603763707,2.800000000000001,6979.0,60.3876,0.3,68900.0,0.33,276.0,2700.0,27.707381825874997,3.966490162599606,10709.523439018936,18.421979626176807,5.720485680276474,9.28540219969819,1.7539955176768682,2805,82,924,1413,160.04404029649862,92.26449956355506,0.0019079523913407195,False
0.3,0.9722256017664896,2.800000000000001,6980.0,60.3876,0.3,68900.0,0.33,276.0,2700.0,46.48729713925028,6.916545903122925,18674.673938431897,28.98230389076423,12.163983425465913,17.504993248486052,5.247437522342988,4555,112,1506,2290,203.23037414503523,117.24354064347861,0.0028081579983721943,False
0.31,0.7922119200154198,2.800000000000001,6981.0,60.3876,0.3,68900.0,0.33,276.0,2700.0,33.22952321419051,5.088181973704129,13738.091329001149,21.823970785919553,7.603288442877051,11.405552428270955,2.5151064691729212,3406,92,1120,1720,166.57284290478168,96.12506000415286,0.0020901343604692,False
0.32,0.9457539594041564,2.800000000000001,6982.0,60.3876,0.3,68900.0,0.33,276.0,2700.0,43.80799726411742,6.940650423543561,18739.756143567614,27.87856979865844,11.411421920024813,15.929427465458978,4.470771496481252,4184,106,1376,2114,187.63394199649468,108.24251682416454,0.002556939110638783,False
0.33,0.9087145665898766,2.800000000000001,6983.0,60.3876,0.3,68900.0,0.33,276.0,2700.0,40.753663525173145,6.649088204858859,17952.53815311892,26.363775023275284,10.406976588111618,14.389888501897861,3.7578883832527596,4035,104,1336,2025,176.4561903355025,101.86669813127556,0.00235958938590427,False
0.34,1.0366781598087282,2.800000000000001,6984.0,60.3876,0.3,68900.0,0.33,276.0,2700.0,50.09911518163014,8.434531475772655,22773.234984586168,31.743293443271828,14.120382706213599,18.355821738358312,5.685851230440944,4635,114,1530,2334,192.37500649650514,110.87575701793689,0.002729090351361033,False
0.3500000000000001,0.8699802677616837,2.800000000000001,6985.0,60.3876,0.3,68900.0,0.33,276.0,2700.0,37.36220612604173,6.448588882042195,17411.189981513926,24.816546728564823,9.415881365132416,12.545659397476904,2.9672924830902208,3495,96,1158,1752,162.71136954730608,93.67071430108177,0.002119642400215303,False
0.36000000000000004,0.8015788576614911,2.800000000000001,6986.0,60.3876,0.3,68900.0,0.33,276.0,2700.0,32.39536647689556,5.733449867943946,15480.314643448655,22.176365138179044,7.809360923100741,10.219001338716517,2.0759110551567943,3228,90,1062,1629,147.48075857906858,85.10639757990685,0.0018749732920675776,False
0.37,0.9929073879605961,2.800000000000001,6987.0,60.3876,0.3,68900.0,0.33,276.0,2700.0,45.69156710681459,8.346852519639175,22536.50180302577,29.856885096427252,12.772414660947039,15.834682010387336,4.425562141307864,4450,110,1468,2242,195.13264478552713,112.65564540738092,0.0023948613784313838,False
0.38,0.7390192365907462,2.800000000000001,6988.0,60.3876,0.1,68900.0,0.33,276.0,2700.0,27.800557918833732,5.16718235651989,13951.392362603705,19.864621639372913,6.49483961362571,7.935936279460819,1.3276572571058196,42997,232,7610,26684,139.71956894147712,80.66422077425995,0.0016630743813583235,False
0.39,0.7982972848027515,2.800000000000001,6989.0,60.3876,0.3,68900.0,0.33,276.0,2700.0,31.330696699867833,5.985248433395364,16160.170770167484,22.05265786352648,7.736790616387708,9.278038836341352,1.7515421829923437,3146,88,1044,1572,134.39105118911715,77.24882059633967,0.00175250101568667,False
0.4,0.7668762438709711,2.800000000000001,6990.0,60.3876,0.1,68900.0,0.33,276.0,2700.0,29.027698288145352,5.6714983710759075,15313.04560190495,20.881863705276633,7.062331907702683,8.14583458286872,1.3908335366267757,46489,240,7950,29058,138.67420553895928,79.96385235039432,0.00166602131322276,False
0.4100000000000001,0.7524022814067448,2.800000000000001,6991.0,60.3876,0.2,68900.0,0.33,276.0,2700.0,27.848018544267948,5.564495996722881,15024.139191151779,20.350890215209233,6.763937592122167,7.4971283290587145,1.1994415953992856,7491,116,1854,4226,133.06971971464083,76.8177377816728,0.0015883680206178448,False
0.42000000000000004,0.8024434409253034,2.800000000000001,6992.0,60.3876,0.2,68900.0,0.33,276.0,2700.0,30.77529416811923,6.307642230958928,17030.634023589104,22.20900286030091,7.828548344911998,8.566291307818322,1.5209061139530702,8461,126,2142,4726,138.65845754726786,79.97063851481623,0.0016791629699022545,False
0.43,0.9806991660044757,2.800000000000001,6993.0,60.3876,0.3,68900.0,0.33,276.0,2700.0,42.838733428267986,9.043808615671637,24418.28326231342,29.339329853676823,12.411078206207927,13.499403574591163,3.3672695905362904,4035,104,1346,2010,149.04786564070108,85.70254361597935,0.002072183638347484,False
0.44,1.1169259092607415,2.800000000000001,6994.0,60.3876,0.3,68900.0,0.33,276.0,2700.0,52.99420347757007,11.480315812663148,30996.8526941905,35.32682937933995,16.810413588432247,17.66737409823012,5.330097775769099,4910,118,1634,2453,163.47300186162423,94.14098450138296,0.002403964979355375,False
0.45,0.8389368406700219,2.800000000000001,6995.0,60.3876,0.2,68900.0,0.33,276.0,2700.0,32.34722079669946,7.087272925551801,19135.636898989862,23.603748185023598,8.664378074389958,8.743472611675863,1.5771051488381573,8891,130,2220,5003,135.14301032739206,78.01690517497985,0.0016792011095347638,False
0.46,1.028278043737896,2.800000000000001,6996.0,60.3876,0.3,68900.0,0.33,276.0,2700.0,45.43338865204528,10.24581934828387,27663.71224036645,31.377536229267662,13.855272799753138,14.055852422777619,3.6094534514692675,4160,106,1388,2070,148.5525721369619,85.41177691000512,0.0020774145374309865,False
0.4700000000000001,1.061214562857284,2.800000000000001,6997.0,60.3876,0.3,68900.0,0.33,276.0,2700.0,47.615382973906016,10.972168616151789,29624.855263609832,32.82181106888431,14.912449481871432,14.793571905021707,3.940280865719643,4787,112,1516,2451,158.3233073043286,91.28581091269359,0.0021278014146886483,False
0.4800000000000001,1.0536144123631697,2.800000000000001,6998.0,60.3876,0.3,68900.0,0.33,276.0,2700.0,46.712431375514086,10.979360186959521,29644.272504790708,32.48612273079276,14.664275338646277,14.226308644721328,3.6849151516867558,4647,110,1504,2355,156.1007258043484,89.99760009935784,0.0020513509296129708,False
0.49,0.9992394498856481,2.800000000000001,6999.0,60.3876,0.3,68900.0,0.33,276.0,2700.0,42.34458182378652,10.128019057426247,27345.651455050865,30.126801737642843,12.962324338976602,12.217780086143676,2.834305281550355,4066,102,1306,2065,150.3327097032768,86.76717730037487,0.0019076874974852905,False
0.5,1.0427858257980873,2.800000000000001,7000.0,60.3876,0.3,68900.0,0.33,276.0,2700.0,45.26179298531366,11.053648858529238,29844.85191802894,32.01034646007731,14.315075198099,13.251446525236354,3.2614263395697627,4373,106,1384,2243,150.84293510529182,87.02140505132553,0.0019746612940853146,False
0.01,0.6526393642627477,2.800000000000001,7001.0,63.40698,0.05,68900.0,0.33,276.0,2700.0,33.32995709331593,0.1666476910714798,449.9487658929955,16.834327903716222,4.911164209068269,16.49562918959971,4.744516517996789,107128,524,35466,53923,272466.82036008936,143632.79623197383,0.11499696733396929,True
0.02,0.3437364703335691,2.800000000000001,7002.0,63.40698,0.08,68900.0,0.33,276.0,2700.0,14.544596073615155,0.14542920557533204,392.6588550533965,7.532104348883398,1.209467508334015,7.012491724731757,1.0640383027586828,18657,204,6146,9432,23236.19653432549,12942.382112839963,0.012071121362827068,True
0.03,0.4668596350334286,2.800000000000001,7003.0,63.40698,0.1,68900.0,0.33,276.0,2700.0,21.036245624769826,0.3154871357037834,851.8152664002151,10.952363664471429,2.3434914978460935,10.083881960298397,2.02800436214231,17493,202,5756,8853,982.9693658633033,560.3239239918611,0.009696123260657993,True
0.04,0.39719581805816323,2.800000000000001,7004.0,63.40698,0.05,68900.0,0.33,276.0,2700.0,16.85780705044661,0.3370220997223787,909.9596692504224,8.970361200181571,1.6502530454139408,7.887445850265038,1.313230945691562,55305,352,18148,28077,703.5895225817674,402.77801530429747,0.006100120094906872,True
0.05,0.5558454731879818,2.800000000000001,7005.0,63.40698,0.2,68900.0,0.33,276.0,2700.0,25.776279616402917,0.6441451910222746,1739.1920157601414,13.66150282745578,3.4371584889396716,12.114776788947136,2.7930132979173967,5346,114,1766,2691,695.7398517761092,397.85657310915786,0.007463623012037966,True
0.06000000000000001,0.45573232376149786,2.800000000000001,7006.0,63.40698,0.1,68900.0,0.33,276.0,2700.0,19.557627294356752,0.5862764294885858,1582.9463596191817,10.627595822755424,2.223430920175868,8.930031471601328,1.6371544906872821,16416,194,5384,8334,507.0802383668121,290.6441748667921,0.004936604451993907,True
0.06999999999999999,0.7339535461333344,2.800000000000001,7007.0,63.40698,0.2,68900.0,0.33,276.0,2700.0,36.902304024355544,1.2908622633323215,3485.328110997268,19.68173582348662,6.394675083067389,17.220568200868925,5.103812819735067,7683,142,2526,3888,665.3279632712571,380.3275831475265,0.00777142708486871,True
0.08,0.7387900320406606,2.800000000000001,7008.0,63.40698,0.2,68900.0,0.33,276.0,2700.0,36.90023131455172,1.474936922289636,3982.329690182017,19.856332773619393,6.490287501908328,17.043898540932325,5.0153505796186915,7688,142,2532,3884,618.6311243020148,353.88229334090653,0.006930771541878687,True
0.09,0.40415780425489206,2.800000000000001,7009.0,63.40698,0.08,68900.0,0.33,276.0,2700.0,15.930143092019899,0.7153296251112519,1931.3899878003801,9.162950801672157,1.7133742726054613,6.767192290347742,0.9980446474942094,20603,214,6782,10424,282.73618030193364,163.115549847466,0.002947390121564863,True
0.09999999999999999,0.781579848490355,2.800000000000001,7010.0,63.40698,0.3,68900.0,0.33,276.0,2700.0,39.25535285955453,1.9606732478753324,5293.817769263397,21.42665272379506,7.3733690987160445,17.82870013575947,5.412695850840712,3979,102,1312,2005,491.2134115222652,283.6021861149899,0.006083265687092745,True
0.11,0.6813362052899778,2.800000000000001,7011.0,63.40698,0.3,68900.0,0.33,276.0,2700.0,31.973690662650924,1.7557653465645138,4740.566435724188,17.820240885966285,5.408353039830707,14.153449776684639,3.652587693266193,3094,88,1020,1558,401.7349681412371,231.93386243017227,0.004654975327617232,True
0.12,0.6840673948782816,2.800000000000001,7012.0,63.40698,0.3,68900.0,0.33,276.0,2700.0,31.83701219881913,1.906601617192217,5147.824366418986,17.915152691701117,5.457153064598176,13.921859507118015,3.5505514474059585,3093,88,1016,1563,517.5722716638422,294.55527112738304,0.004620240759332786,True
0.13,0.5601732232128025,2.800000000000001,7013.0,63.40698,0.3,68900.0,0.33,276.0,2700.0,23.691731219195365,1.5353611432077412,4145.475086660901,13.79833426686022,3.496577974509109,9.893396952335145,1.9612168313013676,2333,74,760,1187,290.1930586974259,167.27642179420425,0.003120743774977862,True
0.14,0.7397063816362917,2.800000000000001,7014.0,63.40698,0.3,68900.0,0.33,276.0,2700.0,34.95953175873472,2.441420202950468,6591.834547966263,19.889479202796593,6.508498029663093,15.070052555938126,4.067077826712625,3579,94,1168,1821,341.59692449601226,197.12664390380002,0.0041403804185981795,True
0.15000000000000002,0.6610238251628389,2.800000000000001,7015.0,63.40698,0.2,68900.0,0.33,276.0,2700.0,29.39229548682523,2.1973535780413114,5932.85466071154,17.120245544296424,5.053508371315375,12.272049942528806,2.8561547932740634,6304,126,2078,3181,280.0527620921419,161.52650296210442,0.0033553962258293653,True
0.16,0.8147831069402482,2.800000000000001,7016.0,63.40698,0.3,68900.0,0.33,276.0,2700.0,39.584131874602534,3.1581519076288065,8527.010150597778,22.676868540986533,8.105482740634518,16.907263333616,4.9473308330057115,4069,102,1334,2062,324.06095800607045,186.97119484665137,0.0041582643215186885,True
0.17,0.5930426346769097,2.800000000000001,7017.0,63.40698,0.1,68900.0,0.33,276.0,2700.0,24.544434202920105,2.0759871441101514,5605.165289097409,14.852938050560534,3.967378827624325,9.691496152359571,1.8913916835141737,21415,220,6764,11009,231.1705751642858,133.3042430070158,0.002620196032293803,False
0.18000000000000002,0.5714684461045381,2.800000000000001,7018.0,63.40698,0.1,68900.0,0.33,276.0,2700.0,22.970513422584023,2.055131695795393,5548.855578647562,14.157675376617815,3.6544596363874637,8.812838045966208,1.5993279405920706,22120,210,6192,11988,214.39641027985854,123.71428460818993,0.0023892034762273435,False
0.19,0.7855323949506039,2.800000000000001,7019.0,63.40698,0.3,68900.0,0.33,276.0,2700.0,36.507954153037765,3.4538901885312723,9325.503509034435,21.574026707501016,7.458350061026173,14.93392744553675,4.0044598724949,3760,98,1230,1909,269.4647888404608,155.56993544595252,0.0033757182473527943,False
0.2,0.6196893452711643,2.800000000000001,7020.0,63.40698,0.2,68900.0,0.33,276.0,2700.0,25.32480812452539,2.515725651633393,6792.4592594101605,15.727817731675202,4.3747774753268525,9.596990392850188,1.8590518236934597,5286,114,1738,2673,203.49896783523755,117.45797328433518,0.0023921560717871334,False
0.21000000000000002,0.713597845597226,2.800000000000001,7021.0,63.40698,0.3,68900.0,0.33,276.0,2700.0,31.000063147005402,3.2356104373923027,8736.148180959217,18.95333993121731,6.0014707320684435,12.046723215788091,2.765860294676141,3046,86,998,1543,226.8626879449179,130.65209693641268,0.002723855395935518,False
0.22,0.5984096986035016,2.800000000000001,7022.0,63.40698,0.1,68900.0,0.33,276.0,2700.0,23.484476035289767,2.5609912448315164,6914.676361045094,15.027717294801901,4.047564197533798,8.456758740487865,1.4865729527022813,25764,212,6352,14586,187.20628162095088,107.99337030806228,0.002127556695134456,False
0.23,0.694717173843044,2.800000000000001,7023.0,63.40698,0.08,68900.0,0.33,276.0,2700.0,29.176625556858237,3.32982943382788,8990.539471335276,18.287034844685678,5.649923182483611,10.88959071217256,2.3200937486557307,57739,302,12160,34465,203.3027247340836,117.330648881838,0.0024467941253064323,False
0.24000000000000005,0.6376525906021044,2.800000000000001,7024.0,63.40698,0.3,68900.0,0.33,276.0,2700.0,25.310626533755446,3.008322266155173,8122.470118618968,16.327666962807474,4.662675603369923,8.982959570947973,1.6543533372147499,2706,80,886,1371,319.95937179323255,174.09104888960547,0.002094602299658148,True
0.25,0.8059305025380512,2.800000000000001,7025.0,63.40698,0.3,68900.0,0.33,276.0,2700.0,36.00501561582845,4.467902028503663,12063.33547695989,22.34082892980583,7.906222260251812,13.664186686022617,3.4383202317481487,3430,94,1130,1729,213.2296360900096,123.10803701599642,0.0027150808016159597,False
0.26,0.6257792656613914,2.800000000000001,7026.0,63.40698,0.05,68900.0,0.33,276.0,2700.0,24.046706526312583,3.08926076010097,8341.00405227262,15.930270673725788,4.471174621339483,8.116435852586795,1.3819138612385133,185361,426,25546,121016,210.25659692199045,118.67268997521157,0.001956642530859856,False
0.27,0.6266714546446215,2.800000000000001,7027.0,63.40698,0.1,68900.0,0.33,276.0,2700.0,23.83352567987257,3.176301987982319,8576.015367552262,15.960008830332736,4.485400697874908,7.873516849539833,1.3090987098925893,27626,214,6456,15962,701.4936914378846,397.74638000793936,0.0030922845770239194,True
0.28,0.9484613205548802,2.800000000000001,7028.0,63.40698,0.3,68900.0,0.33,276.0,2700.0,45.36599418261091,6.305263024277787,17024.210165550026,27.990644614530567,11.487050948774606,17.375349568080345,5.181787924496819,4140,106,1362,2091,222.06457037746594,128.14886972266365,0.0030400892942804214,False
0.29000000000000004,0.9067641245290798,2.800000000000001,7029.0,63.40698,0.3,68900.0,0.33,276.0,2700.0,41.91586697492153,6.026720509211337,16272.14537487061,26.284963711946695,10.355632446413363,15.630903262974833,4.328911937202026,3902,102,1286,1967,208.8174715267314,120.5516692174696,0.0027727829861783205,False
0.3,0.6221109056267282,2.800000000000001,7030.0,63.40698,0.08,68900.0,0.33,276.0,2700.0,22.778908590122533,3.360287620753763,9072.77657603516,15.808208307432558,4.412960640800779,6.970700282689975,1.0526730200470156,54543,260,9630,33878,152.88784162608303,88.21776438658058,0.0017338573330663231,False
0.31,0.8690814760614716,2.800000000000001,7031.0,63.40698,0.3,68900.0,0.33,276.0,2700.0,38.54486429754599,5.912059841624237,15962.56157238544,24.781092439970433,9.393592393435693,13.76377185757556,3.4815325518114557,3702,98,1228,1854,192.4840629656115,110.85593294738445,0.0024693116600494154,False
0.32,0.9715144684666595,2.800000000000001,7032.0,63.40698,0.3,68900.0,0.33,276.0,2700.0,45.74852538090579,7.251134922229716,19578.064290020233,28.95242301036271,12.14338376946113,16.79610237054308,4.892248847231413,4438,110,1464,2236,201.60164318393004,116.26033579765146,0.0027774949859435036,False
0.33,0.8854593187837076,2.800000000000001,7033.0,63.40698,0.2,68900.0,0.33,276.0,2700.0,39.07964518379214,6.372875178531,17206.762982033702,25.430328611906628,9.804760570993572,13.64931657188551,3.431885392462572,8106,144,2614,4127,186.32451311760545,107.15135948410028,0.0024010695140318284,False
0.34,0.8707774070865648,2.800000000000001,7034.0,63.40698,0.3,68900.0,0.33,276.0,2700.0,37.72618845617493,6.331133932445275,17094.06161760224,24.848008163615553,9.435676148950188,12.878180292559378,3.104542216504913,3718,98,1230,1867,173.632789614436,100.13293699146195,0.002285485253314765,False
0.3500000000000001,0.9729416586378228,2.800000000000001,7035.0,63.40698,0.3,68900.0,0.33,276.0,2700.0,44.8482259618489,7.758642353308459,20948.334353932838,29.01240449532023,12.184747179417364,15.835821466528667,4.426104826108905,4470,110,1472,2256,186.10096315927865,107.3918044186345,0.0025698685333197958,False
0.36000000000000004,0.8092584850523876,2.800000000000001,7036.0,63.40698,0.3,68900.0,0.33,276.0,2700.0,32.90700482554963,5.825544770701675,15728.970880894522,22.466926128336784,7.980781895724666,10.440078697212844,2.1552371250229916,3360,90,1110,1689,156.60383549523803,90.00863665915941,0.0019904831141100525,False
0.37,0.9454230247856594,2.800000000000001,7037.0,63.40698,0.3,68900.0,0.33,276.0,2700.0,42.14912534273643,7.691500793284719,20767.052141868742,27.864882955152236,11.402198200965326,14.284242387584197,3.710697407680607,4054,104,1342,2035,172.7948298056159,99.62215107451591,0.0023595216707497815,False
0.38,0.8010234278968346,2.800000000000001,7038.0,63.40698,0.2,68900.0,0.33,276.0,2700.0,31.789962760101748,5.925169276360816,15997.957046174204,22.155407766093376,7.797049330364105,9.634554994008372,1.871880054003289,8744,130,2248,4866,157.28912668152051,90.80834842251379,0.0019067884418153787,False
0.39,0.6960435442434544,2.800000000000001,7039.0,63.40698,0.1,68900.0,0.33,276.0,2700.0,24.894749127507797,4.73023865678516,12771.644373319934,18.333550301123125,5.674209407688044,6.561198826384672,0.9439707509028832,38211,216,6650,23804,139.29748384568592,80.4165766836074,0.001602981125815897,False
0.4,0.841273952512175,2.800000000000001,7040.0,63.40698,0.3,68900.0,0.33,276.0,2700.0,33.90446540912566,6.646851795271971,17946.49984723432,23.694210937624582,8.71964835784152,10.21025447150108,2.0727965625695486,3362,92,1116,1682,146.33282541926354,84.13367251756961,0.001913756939879746,False
0.4100000000000001,0.7542465100387745,2.800000000000001,7041.0,63.40698,0.2,68900.0,0.33,276.0,2700.0,27.96373951644402,5.588218796018985,15088.19074925126,20.418252558097233,6.801531389187884,7.545486958346785,1.213312593168899,7444,116,1848,4194,142.80802556676272,82.44542273274443,0.0016740528084885375,False
0.42000000000000004,0.9883875388446561,2.800000000000001,7042.0,63.40698,0.3,68900.0,0.33,276.0,2700.0,43.724176735287394,9.026907570064251,24372.650439173478,29.66483397204805,12.63790025968,14.059342763239343,3.610992689615749,4003,104,1332,1999,162.16873128673478,93.48898919191303,0.0022420828155235396,False
0.43,0.9581320674309515,2.800000000000001,7043.0,63.40698,0.3,68900.0,0.33,276.0,2700.0,41.18892274935658,8.689099319705344,23460.56816320443,28.39248230874365,11.75968252879709,12.79644044061293,3.0705832090917458,4101,104,1366,2044,153.5946983194407,88.2627510554944,0.002113493792354129,False
0.44,0.8879956870206385,2.800000000000001,7044.0,63.40698,0.3,68900.0,0.33,276.0,2700.0,35.935100020902325,7.727313052196251,20863.74524092988,25.53147596330751,9.869389488030222,10.403624057594815,2.142076435833971,3636,94,1186,1839,140.64690549331115,80.6381759579308,0.0018869623939901507,False
0.45,1.0306878684160128,2.800000000000001,7045.0,63.40698,0.3,68900.0,0.33,276.0,2700.0,45.935637852978005,10.144666763214472,27390.600260679075,31.48228322931604,13.931013342539826,14.453354623661966,3.786346579325354,4525,110,1464,2293,156.66796679885218,90.04453512457587,0.0022284224997963227,False
0.46,0.7668220566184814,2.800000000000001,7046.0,63.40698,0.08,68900.0,0.33,276.0,2700.0,27.460756882859517,6.112114041371147,16502.7079117021,20.879866041271374,7.061200431005925,6.580890841588143,0.9490863896347772,92781,288,11756,61291,136.76857704041524,77.51063329234634,0.0015753106392031575,False
0.4700000000000001,1.1079008995579571,2.800000000000001,7047.0,63.40698,0.3,68900.0,0.33,276.0,2700.0,51.25174751632519,11.826714283620651,31932.128565775758,34.91573191060958,16.493445229414956,16.33601560571561,4.6667309457943045,4912,116,1584,2496,160.31100400640327,92.2390848958766,0.002356919028569766,False
0.4800000000000001,1.142492566674611,2.800000000000001,7048.0,63.40698,0.3,68900.0,0.33,276.0,2700.0,53.67304049147395,12.649906374789884,34154.747211932685,36.50252768553962,17.728596869599,17.17051280593433,5.0786904948091145,4836,116,1568,2452,168.05300003197866,96.84988944008899,0.0024088967798591454,False
0.49,1.1820560820063746,2.800000000000001,7049.0,63.40698,0.3,68900.0,0.33,276.0,2700.0,56.5481051841396,13.607882280712738,36741.2821579244,38.354260779131394,19.20926601768078,18.193844405008207,5.601383736968041,5526,122,1742,2839,182.3878558671029,104.35109885972822,0.0037917495885284617,False
0.5,1.1112911025720493,2.800000000000001,7050.0,63.40698,0.3,68900.0,0.33,276.0,2700.0,50.520074788000926,12.368219309201075,33394.1921348429,35.06991870991138,16.612077929644844,15.450156078089549,4.243858620443769,5104,114,1552,2668,162.25613745408037,93.52311103523266,0.002258463497557809,False
0.01,0.5963862468032846,2.800000000000001,7051.0,66.42636,0.05,68900.0,0.33,276.0,2700.0,29.598915762300216,0.1479924844164002,399.5797079242805,14.961738262986275,4.017223105967284,14.63717749931394,3.869230621550884,94758,486,31408,47640,4408.858897646533,2507.8912694909927,0.040046516669538186,True
0.02,0.5233743997434908,2.800000000000001,7052.0,66.42636,0.1,68900.0,0.33,276.0,2700.0,24.689837836469994,0.24688162320387924,666.580382650474,12.649873166258041,3.010050882634214,12.039964670211953,2.7631692594303345,19936,220,6608,10018,1705.9065616381715,972.7147126747816,0.017253893282597747,True
0.03,0.4422145902990001,2.800000000000001,7053.0,66.42636,0.1,68900.0,0.33,276.0,2700.0,19.624592674626278,0.2943123414516303,794.6433219194018,10.23724622642145,2.082413406727736,9.387346448204829,1.7881010652761056,15954,192,5244,8082,1005.6368599683395,574.07528294507,0.00951509042196969,True
0.04,0.7137230156254253,2.800000000000001,7054.0,66.42636,0.1,68900.0,0.33,276.0,2700.0,36.51445103895147,0.7301549794924768,1971.4184446296872,18.95778711740019,6.003843400485207,17.55666392155128,5.2736884209927295,29939,278,9848,15161,1413.289964413659,805.5420382967857,0.013268886191084352,True
0.05,0.4793625316822104,2.800000000000001,7055.0,66.42636,0.1,68900.0,0.33,276.0,2700.0,21.191370828235357,0.5295224713180845,1429.710672558828,11.320992783940106,2.4827281412342055,9.87037804429525,1.9532056699161209,17563,202,5770,8902,677.1539327836846,387.5534100694154,0.006506920246065797,True
0.06000000000000001,0.47873667035068057,2.800000000000001,7056.0,66.42636,0.1,68900.0,0.33,276.0,2700.0,20.87263949643949,0.6257267955510709,1689.4623479878915,11.302446792495646,2.4756485737391065,9.570192703943844,1.8499217781880355,17510,202,5756,8870,1412.4590141108483,783.7356274996806,0.022847815740227772,True
0.06999999999999999,0.5115179195471726,2.800000000000001,7057.0,66.42636,0.2,68900.0,0.33,276.0,2700.0,22.504344448757625,0.7869336781863959,2124.720931103269,12.287091439181333,2.862222059941809,10.217253009576291,2.075288381755413,4822,108,1586,2437,485.9506307618941,280.50787124146666,0.005162965698718032,True
0.08,0.5656681294975345,2.800000000000001,7058.0,66.42636,0.2,68900.0,0.33,276.0,2700.0,25.481140427553946,1.0181732868097302,2749.0678743862713,13.97274621101492,3.5728773693472093,11.508394216539026,2.554704082537479,5473,114,1796,2773,477.70800344916773,274.0707621881291,0.005171376569912112,True
0.09,0.4927582943088243,2.800000000000001,7059.0,66.42636,0.1,68900.0,0.33,276.0,2700.0,20.844444691254736,0.936473197076819,2528.4776321074114,11.720306394806416,2.6370509938845434,9.12413829644832,1.7005777968077245,17133,200,5632,8679,371.0435768869968,213.3990575416684,0.003908938353915059,True
0.09999999999999999,0.7337349685721063,2.800000000000001,7060.0,66.42636,0.3,68900.0,0.33,276.0,2700.0,35.87001284465733,1.7914062471304726,4836.796867252276,19.67385906704124,6.390373958113333,16.196153777616093,4.59896771098286,3650,96,1198,1847,488.4898746905272,282.0250316153556,0.005871310700082012,True
0.11,0.4183446425875137,2.800000000000001,7061.0,66.42636,0.1,68900.0,0.33,276.0,2700.0,16.178619813218933,0.8870364498457555,2394.9984145835397,9.559172022259744,1.8461721572820127,6.619447790959189,0.9591357074362572,13340,174,4392,6746,255.05455758039264,147.05024832646157,0.0026815331356952977,False
0.12,0.7532798218123171,2.800000000000001,7062.0,66.42636,0.3,68900.0,0.33,276.0,2700.0,36.56383229088526,2.190210822716179,5913.569221333683,20.38293261869086,6.781810378411914,16.1808996721944,4.591599555695735,3615,96,1190,1824,422.2189443284086,243.76142493911829,0.005130309578354029,True
0.13,0.7270522885867784,2.800000000000001,7063.0,66.42636,0.3,68900.0,0.33,276.0,2700.0,34.41706327785971,2.2325077270209244,6027.770862956496,19.43361864001714,6.259703203882548,14.98344463784257,4.027195476861624,3551,94,1160,1805,377.7592688109796,218.04154476519304,0.004545402272360492,True
0.14,0.8081179681811093,2.800000000000001,7064.0,66.42636,0.3,68900.0,0.33,276.0,2700.0,39.78722268126594,2.7793585675276526,7504.2681323246625,22.4236806131796,7.955182651656513,17.36354206808634,5.175824084128861,3771,100,1240,1905,387.2733159816472,223.40195817943317,0.004877365698364993,True
0.15000000000000002,0.6116660100221039,2.800000000000001,7065.0,66.42636,0.3,68900.0,0.33,276.0,2700.0,26.262905821043347,1.9626493531076752,5299.153253390723,15.462513421739462,4.249653315381674,10.800392399303885,2.2870039622739986,2743,80,896,1393,289.5667843827102,166.40362212810902,0.0031927339838744976,True
0.16,0.5618331575387872,2.800000000000001,7066.0,66.42636,0.2,68900.0,0.33,276.0,2700.0,22.94945025316275,1.827377377913617,4933.9189203667665,13.85094168049669,3.519525956046684,9.098508572666058,1.6921485781330667,4867,108,1596,2467,240.42956922471842,138.71323213445305,0.0027134872471182483,False
0.17,0.5480788637922546,2.800000000000001,7067.0,66.42636,0.2,68900.0,0.33,276.0,2700.0,21.864917959801243,1.8482282634450495,4990.216311301634,13.417124589444635,3.332004909069679,8.447793370356608,1.4837766456246295,4635,104,1534,2328,227.11801842786846,130.51939350810736,0.002498942265716228,False
0.18000000000000002,0.840333816830966,2.800000000000001,7068.0,66.42636,0.3,68900.0,0.33,276.0,2700.0,40.75445345878303,3.6556862990533183,9870.353007443959,23.657804535622002,8.697389699920064,17.09664892316103,5.041703400866746,4026,102,1318,2043,314.2725321329856,181.43524640729643,0.0040668032671218515,True
0.19,0.6550064472822302,2.800000000000001,7069.0,66.42636,0.1,68900.0,0.33,276.0,2700.0,27.812928098722455,2.627862713371321,7095.229326102567,16.91486856803703,4.951107756235123,10.898059530685426,2.323245042863802,30380,238,7688,17052,251.57698785699776,141.6179916459041,0.003589140631335028,False
0.2,0.7307372154746363,2.800000000000001,7070.0,66.42636,0.3,68900.0,0.33,276.0,2700.0,32.44288896270977,3.2275337354518343,8714.341085719952,19.565951889349815,6.331558382115706,12.876937073359958,3.104024646663872,3286,90,1078,1663,251.83654644891456,144.99712066925792,0.0030717300116313655,False
0.21000000000000002,0.7261072491635394,2.800000000000001,7071.0,66.42636,0.3,68900.0,0.33,276.0,2700.0,31.826830865347873,3.322421047818263,8970.536829109311,19.39973532867811,6.241353680431744,12.427095536669764,2.918932632613481,3054,88,1004,1542,238.35625620205312,137.23313542595582,0.002914923330908826,False
0.22,0.8428468436887678,2.800000000000001,7072.0,66.42636,0.3,68900.0,0.33,276.0,2700.0,39.58783929342463,4.33236120322613,11697.37524871055,23.75517023042195,8.75696470617972,15.83266906300268,4.424603502953589,4051,102,1326,2056,261.08255596189946,150.722664688742,0.003391825652636947,False
0.23,0.7504641535049117,2.800000000000001,7073.0,66.42636,0.3,68900.0,0.33,276.0,2700.0,32.84068920290119,3.751196753122823,10128.231233431621,20.280190225331456,6.724563492028203,12.560498977569733,2.97336673890538,3079,88,1010,1558,224.7965861602076,129.708249401383,0.002800379498238908,False
0.24000000000000005,0.6429061454272293,2.800000000000001,7074.0,66.42636,0.1,68900.0,0.33,276.0,2700.0,25.63286871799637,3.0469913282640784,8226.876586313012,16.50463240300202,4.748918442064962,9.12823631499435,1.7019271138008838,28810,226,7074,16339,193.42864062186945,111.61229754467271,0.002252277677344392,False
0.25,0.6223274071041902,2.800000000000001,7075.0,66.42636,0.2,68900.0,0.33,276.0,2700.0,24.10777576035513,2.980747046569492,8048.017025737628,15.815402866277848,4.416383920050614,8.29237289407728,1.4356368734811222,4916,108,1626,2471,178.1790860183337,102.65542384413753,0.0020794985487609867,False
0.26,0.8849809791943131,2.800000000000001,7076.0,66.42636,0.3,68900.0,0.33,276.0,2700.0,41.31495052260059,5.334132479618415,14402.15769496972,25.411271118864022,9.792600796253112,15.903679403736568,4.458468316634697,4035,104,1332,2031,232.8790988634976,134.35751186129596,0.003101284973430845,False
0.27,0.6376954927453891,2.800000000000001,7077.0,66.42636,0.2,68900.0,0.33,276.0,2700.0,24.49691927462878,3.2658601232744804,8817.822332841097,16.32910930779002,4.663376126217146,8.16780996683876,1.3975160029426652,5072,110,1680,2546,170.7219076449121,98.11242212874691,0.0020056949134164177,False
0.28,0.8217360830321145,2.800000000000001,7078.0,66.42636,0.3,68900.0,0.33,276.0,2700.0,36.16085244231911,5.016543180636941,13544.666587719741,22.942180380131617,8.264076114878605,13.218672062187494,3.247532934241664,3718,96,1226,1873,207.1229854693894,119.5480352810116,0.0026374293895375604,False
0.29000000000000004,0.9355273951962932,2.800000000000001,7079.0,66.42636,0.3,68900.0,0.33,276.0,2700.0,44.050078037945255,6.336181113349732,17107.68900604428,27.456889720051304,11.128478345154434,16.59318831789395,4.792297231804702,4137,106,1362,2088,224.0641921436644,129.3466856042551,0.003028126765839323,False
0.3,0.8981082362423339,2.800000000000001,7080.0,66.42636,0.3,68900.0,0.33,276.0,2700.0,40.95424074719457,6.0865874443145715,16433.786099649344,25.936359809495436,10.129622833412762,15.017880937699132,4.043035389098191,3967,102,1306,2002,1347.7480976404686,726.3091752506812,0.00278081046290744,True
0.31,0.791895896248511,2.800000000000001,7081.0,66.42636,0.3,68900.0,0.33,276.0,2700.0,33.20828399638679,5.084889894944559,13729.20271635031,21.81212008276654,7.596393422038402,11.39616391362025,2.5115035270938435,3410,92,1120,1724,183.18294123251977,105.71026757444554,0.0022980113271480725,False
0.32,0.9110892914180173,2.800000000000001,7082.0,66.42636,0.3,68900.0,0.33,276.0,2700.0,41.24936617822947,6.531269449801172,17634.427514463165,26.45985935487044,10.469697358100412,14.789506823359034,3.9384279082992393,4026,104,1330,2025,198.66363024651307,114.41018050474882,0.0026753386876547766,False
0.33,0.6690150601825811,2.800000000000001,7083.0,66.42636,0.08,68900.0,0.33,276.0,2700.0,24.802930929431355,4.017217326561469,10846.486781715967,17.39439829031869,5.191414617758383,7.408532639112664,1.174197291196914,62604,272,10434,39365,159.45665100154432,91.19589813071062,0.001828481401817891,False
0.34,0.7400784109627745,2.800000000000001,7084.0,66.42636,0.2,68900.0,0.33,276.0,2700.0,28.952897035150645,4.839674390871151,13067.120855352108,19.90294236486989,6.515900003452719,9.049954670280755,1.6762256125815682,6539,122,1986,3416,171.51221186321354,98.98541797848088,0.0019840354437255223,False
0.3500000000000001,0.9364761727938125,2.800000000000001,7085.0,66.42636,0.3,68900.0,0.33,276.0,2700.0,42.135985752601464,7.284000316690153,19666.800855063415,27.49590080728453,11.15454733165215,14.640084945316932,3.870547014961997,3985,104,1318,2002,189.80006286664153,109.52693830141388,0.0025612175290690635,False
0.36000000000000004,0.750458854928208,2.800000000000001,7086.0,66.42636,0.1,68900.0,0.33,276.0,2700.0,29.065153229900144,5.1340114834847705,13861.83100540888,20.27999707062608,6.724456036396453,8.785156159274063,1.5904445529116824,43244,240,7852,26728,164.58758316817222,92.96122149161299,0.0019410191396154754,False
0.37,0.8628511444412141,2.800000000000001,7087.0,66.42636,0.3,68900.0,0.33,276.0,2700.0,36.2589750141779,6.601822982501262,17824.92205275341,24.535885116101735,9.239962337609002,11.723089898076164,2.6381393551077403,3588,96,1190,1797,167.8015762106873,96.69007125449195,0.002201448383426239,False
0.38,0.8268439431994195,2.800000000000001,7088.0,66.42636,0.1,68900.0,0.33,276.0,2700.0,33.50827068435215,6.251647781968388,16879.44901131465,23.13786039082206,8.381761038149337,10.370410293530089,2.130113256180949,51194,260,8940,31872,166.7192389427301,96.20229500020534,0.002080691066611012,False
0.39,0.8689891317216747,2.800000000000001,7089.0,66.42636,0.3,68900.0,0.33,276.0,2700.0,36.087377650852524,6.912801218837298,18664.563290860704,24.777450918659486,9.391304167953512,11.309926732193038,2.4785029491162147,3612,96,1198,1809,160.44798360592395,92.1698948780406,0.0021253857668181086,False
0.4,1.0889309556677695,2.800000000000001,7090.0,66.42636,0.3,68900.0,0.33,276.0,2700.0,52.142937984184826,10.294546310283804,27795.27503776627,34.058307099912064,15.839242701849978,18.084630884272762,5.544696391566173,4741,116,1570,2380,192.1880036289117,110.5768270693733,0.0027753395105513216,False
0.4100000000000001,0.7306961367056741,2.800000000000001,7091.0,66.42636,0.05,68900.0,0.33,276.0,2700.0,26.498857001920065,5.287917880541571,14277.378277462243,19.56447478587705,6.330754667237462,6.934382216043016,1.042836786695891,295443,446,28054,202582,192.59181928859283,108.2872009772396,0.0017081952250036598,False
0.42000000000000004,0.7747053583231587,2.800000000000001,7092.0,66.42636,0.1,68900.0,0.33,276.0,2700.0,28.99261866356902,5.933280375003171,16019.85701250856,21.17126695705929,7.226950289146359,7.821351706509727,1.2936699141431882,47739,238,7852,30115,153.17801055448527,86.78061934793543,0.0017858962724309438,False
0.43,0.889634155897441,2.800000000000001,7093.0,66.42636,0.1,68900.0,0.33,276.0,2700.0,36.33802468139746,7.6461562350945345,20644.621834755242,25.59690211342943,9.911275606918409,10.741122567968027,2.2651193718238742,59689,270,9504,37933,161.5605015401351,92.74851017017929,0.0020557006339062133,False
0.44,0.7418184244075592,2.800000000000001,7094.0,66.42636,0.08,68900.0,0.33,276.0,2700.0,26.42054947962977,5.634111933116291,15212.102219413986,19.965956923420308,6.550586202814336,6.454592556209462,0.9164742696980452,82964,278,11126,54303,649.286256911911,334.4766330378786,0.0016646433404971658,True
0.45,1.0622547338774277,2.800000000000001,7095.0,66.42636,0.3,68900.0,0.33,276.0,2700.0,48.34979245898211,10.68785154956539,28857.199183826557,32.867866951052875,14.946613729213462,15.481925507929233,4.2587621796480715,4607,112,1522,2308,168.75339422159436,97.19989799059361,0.0024291215642369838,False
0.46,0.7687949165098402,2.800000000000001,7096.0,66.42636,0.05,68900.0,0.33,276.0,2700.0,27.58350633286767,6.1403464148730205,16578.935320157154,20.952644943015354,7.102465256461517,6.630861389852317,0.9621188415884969,336852,454,29134,233127,362.36676997769814,202.39506779196054,0.00165664410052715,True
0.4700000000000001,1.1104507709885927,2.800000000000001,7097.0,66.42636,0.3,68900.0,0.33,276.0,2700.0,51.453510448028425,11.874128572570916,32060.14714594147,35.03167341228688,16.58262363993223,16.421837035741547,4.708495067361314,4891,116,1584,2479,167.8183552772465,96.57850145151005,0.0024757100865811774,False
0.4800000000000001,0.993286900227579,2.800000000000001,7098.0,66.42636,0.2,68900.0,0.33,276.0,2700.0,42.21402821031496,9.899743427311725,26729.307253741656,29.87303416783891,12.7837487793659,12.340994042476048,2.884005352054176,11690,152,2886,6607,161.45401806001755,93.12485012342704,0.0021401542155469197,False
0.49,0.9187364059977595,2.800000000000001,7099.0,66.42636,0.3,68900.0,0.33,276.0,2700.0,36.62284525645613,8.726193598430292,23560.72271576179,26.770234222288824,10.673224733842424,9.852611034167307,1.9470311354121321,3774,94,1160,1958,155.1635025408199,89.39207979656327,0.0018974582668295395,False
0.5,0.9739270031158509,2.800000000000001,7100.0,66.42636,0.2,68900.0,0.33,276.0,2700.0,40.214097762043544,9.791725052711733,26437.65764232168,29.053846105495545,12.213354807108365,11.160251656547999,2.4216297543966316,10707,144,2622,6062,155.92936185548453,89.87429713266798,0.0020222749045819294,False
0.01,0.566042608987286,2.800000000000001,7101.0,69.44574,0.05,68900.0,0.33,276.0,2700.0,27.652385538441745,0.13825983329710365,373.30154990217983,13.984660057071196,3.5781121068542445,13.66772548137055,3.439852273557141,88878,468,29438,44715,4463.130011990704,2530.162426270149,0.039062116183098565,True
0.02,0.3304892013630924,2.800000000000001,7102.0,69.44574,0.05,68900.0,0.33,276.0,2700.0,13.860661802511522,0.13858986286429553,374.1926297335979,7.186807811501361,1.1119796831397732,6.673853991010161,0.9733898202754777,45861,318,15060,23265,1316.4190024158836,750.8317082859002,0.010343200442197066,True
0.03,0.6106374564148578,2.800000000000001,7103.0,69.44574,0.1,68900.0,0.33,276.0,2700.0,29.880351696741123,0.44814872678335,1210.001562315045,15.4286196621452,4.233766724477973,14.451732034595922,3.7856179976946227,25071,248,8242,12702,1542.161036165436,879.4492105579467,0.014849920240035836,True
0.04,0.5711283353942904,2.800000000000001,7104.0,69.44574,0.1,68900.0,0.33,276.0,2700.0,27.035845465518992,0.54058286802383,1459.573743664341,14.146808426707135,3.6496463074246726,12.889037038811857,3.1090634394008427,22266,232,7308,11298,1126.4786908126312,643.0123915208766,0.010389213105779853,True
0.05,0.42743755032575187,2.800000000000001,7105.0,69.44574,0.1,68900.0,0.33,276.0,2700.0,18.246208085389075,0.4558934027469298,1230.9121874167104,9.815785984523524,1.9342579354878644,8.43042210086555,1.4783645327409345,14899,184,4882,7570,626.7314634552331,358.21682925368845,0.005926064551304047,True
0.06000000000000001,0.5251824454621808,2.800000000000001,7106.0,69.44574,0.2,68900.0,0.33,276.0,2700.0,23.608718892220047,0.707809177424485,1911.0847790461096,12.705505779797255,3.0329727124297667,10.903213112422792,2.3251635350052817,4940,110,1628,2492,600.9149111588745,346.92566434974486,0.006429500825821204,True
0.06999999999999999,0.5454475050444193,2.800000000000001,7107.0,69.44574,0.2,68900.0,0.33,276.0,2700.0,24.539813680925896,0.8581751013124044,2317.0727735434916,13.334672077496212,3.296808160139559,11.205141603429684,2.4386330588271545,5282,112,1736,2672,545.3622485313077,314.8650216476146,0.005845836829536752,True
0.08,0.6606503163962429,2.800000000000001,7108.0,69.44574,0.1,68900.0,0.33,276.0,2700.0,31.55961690671338,1.2613123459761093,3405.543334135495,17.10747095958116,5.0471161953371295,14.45214594713222,3.78580384936102,26405,256,8690,13364,619.7885072615578,354.7937961056756,0.006570948419741105,True
0.09,0.4798067970076888,2.800000000000001,7109.0,69.44574,0.2,68900.0,0.33,276.0,2700.0,20.101454620182107,0.9030386438785487,2438.2043384720814,11.334163560911378,2.4877605912542124,8.767291059270729,1.5847219473756637,4439,102,1452,2255,379.55445499065223,219.13435454664122,0.003959087124210448,True
0.09999999999999999,0.611969429363362,2.800000000000001,7110.0,69.44574,0.2,68900.0,0.33,276.0,2700.0,27.773358946435714,1.3865735522193932,3743.7485909923616,15.472517028554998,4.254346458603685,12.300841917880716,2.8677729063842916,6138,122,2012,3114,436.2653354568161,250.636544540732,0.004851782052123299,True
0.11,0.7478424909691399,2.800000000000001,7111.0,69.44574,0.2,68900.0,0.33,276.0,2700.0,36.51875779466411,2.005744038825241,5415.508904828152,20.184706141716052,6.671520878357393,16.33405165294806,4.6657768395321515,7530,140,2474,3813,472.6701689669174,271.1764121373187,0.005752570808357843,True
0.12,0.7249098497182269,2.800000000000001,7112.0,69.44574,0.3,68900.0,0.33,276.0,2700.0,34.597201220776974,2.0722129585097204,5594.974987976245,19.356836173598403,6.218150135418366,15.240365047178571,4.145937176908646,3564,94,1162,1815,422.2172241722152,243.73424014396232,0.005100407941467735,True
0.13,0.6023070785390924,2.800000000000001,7113.0,69.44574,0.2,68900.0,0.33,276.0,2700.0,26.267580165561725,1.702791324721555,4597.536576748198,15.155089793430854,4.106381006919289,11.112490372130871,2.403589682197734,5310,114,1742,2691,326.561874879402,188.1671842173548,0.003730887844989897,True
0.14,0.7111125564656482,2.800000000000001,7114.0,69.44574,0.3,68900.0,0.33,276.0,2700.0,33.011425560347234,2.305052769063299,6223.642476470907,18.865121218990122,5.954475858984407,14.146304341357112,3.6494230899211075,3100,88,1020,1564,360.71072395711394,208.22370488570272,0.004308746618524841,True
0.15000000000000002,0.6972395436499106,2.800000000000001,7115.0,69.44574,0.3,68900.0,0.33,276.0,2700.0,31.766337538425798,2.375406731911358,6413.598176160667,18.375531591182785,5.6961614241823835,13.390805947243013,3.3207546922710254,3115,88,1018,1582,330.9481946838192,191.00707730943523,0.00393825953058464,True
0.16,0.7385429727645116,2.800000000000001,7116.0,69.44574,0.3,68900.0,0.33,276.0,2700.0,34.23177395279311,2.7299632738839925,7370.90083948678,19.847399695003254,6.485382914237944,14.384374257789858,3.755419640353952,3570,94,1162,1821,326.579772898592,188.4091098414831,0.003999795836710941,True
0.17,0.685790911100246,2.800000000000001,7117.0,69.44574,0.3,68900.0,0.33,276.0,2700.0,30.392571437828977,2.573078809077403,6947.312784508988,17.975143234629343,5.488081807495527,12.417428203199634,2.9150029984181236,2884,86,948,1456,295.86124498335016,170.13172091505868,0.003441554653679851,True
0.18000000000000002,0.8654249426687537,2.800000000000001,7118.0,69.44574,0.3,68900.0,0.33,276.0,2700.0,42.59946259967364,3.821737121733472,10318.690228680374,24.637063895620955,9.30324292640416,17.96239870405269,5.481505804670688,4190,106,1378,2117,340.12952156090256,196.12442264719627,0.004422331983123524,True
0.19,0.5514991884843059,2.800000000000001,7119.0,69.44574,0.1,68900.0,0.33,276.0,2700.0,21.526579227146037,2.030659570571315,5482.78084054255,13.524559122935594,3.3780794782900334,8.002020104210443,1.3474199077187183,23272,202,5856,13082,216.54272287319475,124.91450753022592,0.00240031404922976,False
0.2,0.7945618729500625,2.800000000000001,7120.0,69.44574,0.3,68900.0,0.33,276.0,2700.0,36.81451016297286,3.6646958554781355,9894.678809790967,21.912171349515493,7.654677353478442,14.902338813457366,3.989981498000306,3710,98,1214,1883,282.1645081208228,162.83280170079152,0.0035794977336523603,True
0.21000000000000002,0.6112995546391853,2.800000000000001,7121.0,69.44574,0.2,68900.0,0.33,276.0,2700.0,24.534170200646628,2.5566916780246323,6903.067530666507,15.450434628185121,4.2439892073773535,9.083735572461507,1.6872975293527213,5225,112,1724,2633,214.10634558919529,123.45122204428314,0.002469076872945925,False
0.22,0.7385537426290366,2.800000000000001,7122.0,69.44574,0.3,68900.0,0.33,276.0,2700.0,32.34973471883744,3.5361697000218317,9547.658190058946,19.84778907583221,6.485596670140532,12.501945643005229,2.9494269701187,3097,88,1016,1567,242.00041294657018,139.50216726394186,0.002985365610285262,False
0.23,0.9025770059784961,2.800000000000001,7123.0,69.44574,0.3,68900.0,0.33,276.0,2700.0,43.63321213877786,4.992336890748641,13479.30960502133,26.116098183529584,10.245927870993105,17.517113955248274,5.253590980244464,4179,106,1376,2109,275.59454576061137,159.0306404889016,0.0037243855728723314,False
0.24000000000000005,0.6769001266320559,2.800000000000001,7124.0,69.44574,0.3,68900.0,0.33,276.0,2700.0,27.751520797946423,3.3012295778580873,8913.319860216836,17.666481874931627,5.329642275924836,10.085038923014796,2.0284126980667483,2878,84,944,1456,209.21140301589244,120.78791450519718,0.002478761512646364,False
0.25,0.5685559717109312,2.800000000000001,7125.0,69.44574,0.1,68900.0,0.33,276.0,2700.0,20.94425078471016,2.585306424613876,6980.327346457466,14.06471243205088,3.61336119721966,6.87953835265928,1.0280547726057838,22983,198,5620,13057,522.9319082241971,285.7024987763637,0.0019806466267283974,True
0.26,0.7927704721565425,2.800000000000001,7126.0,69.44574,0.3,68900.0,0.33,276.0,2700.0,34.78480361072104,4.485213381074074,12110.0761289,21.844922297370857,7.6154841193781495,12.939881313350185,3.130270738304075,3486,94,1148,1758,222.03423155216564,128.0010359364824,0.0028119149110353014,False
0.27,0.8377260368893006,2.800000000000001,7127.0,69.44574,0.3,68900.0,0.33,276.0,2700.0,37.59519636668834,5.034127530702364,13592.144332896381,23.556935500833905,8.63582691105403,14.038260865854436,3.6016993803516666,3617,96,1192,1823,225.17593493700812,129.9894625559915,0.002918909662938181,False
0.28,0.7368685423159793,2.800000000000001,7128.0,69.44574,0.3,68900.0,0.33,276.0,2700.0,30.447512154222615,4.216675540303434,11385.023958819273,19.78689668454829,6.452200487738228,10.660615469674326,2.2355249474347936,3184,86,1042,1615,198.45153381317567,114.42703619393258,0.0024048182851759917,False
0.29000000000000004,0.7811468763171123,2.800000000000001,7129.0,69.44574,0.3,68900.0,0.33,276.0,2700.0,33.0825659453637,4.7458918599252735,12813.90802179824,21.41053285715734,7.364095444218286,11.672033088206359,2.6182035842930125,3410,92,1120,1724,199.6625266988225,115.18977590236496,0.0025027071881468057,False
0.3,0.735283258318929,2.800000000000001,7130.0,69.44574,0.3,68900.0,0.33,276.0,2700.0,29.768552106637753,4.408734148230438,11903.582200222181,19.729679783858355,6.420877997935887,10.038872322779397,2.012143849705449,3069,86,1010,1548,182.54876075653388,105.38344397788863,0.002263221454503118,False
0.31,0.6941817255421645,2.800000000000001,7131.0,69.44574,0.1,68900.0,0.33,276.0,2700.0,26.881888256529926,4.1042985552666895,11081.606099220062,18.26826934299316,5.640136445047542,8.613618913536765,1.5358378897808524,37868,230,7312,23112,177.3594217323127,102.24588584784759,0.00208920776627273,False
0.32,0.9793337223000413,2.800000000000001,7132.0,69.44574,0.3,68900.0,0.33,276.0,2700.0,46.34414549483133,7.346434140457793,19835.37217923604,29.281676152636845,12.371056369740334,17.062469342194486,5.02462222928254,4449,110,1462,2250,222.00111374228808,128.00796012889504,0.003071423639439112,False
0.33,0.7323067544167345,2.800000000000001,7133.0,69.44574,0.1,68900.0,0.33,276.0,2700.0,28.73404715127563,4.665851503165777,12597.799058547596,19.622420873804664,6.362312212582378,9.111626277470965,1.696460709416601,41962,240,7884,25782,178.85289102128684,101.97396414362481,0.0021134764378269322,False
0.34,1.0158418596617522,2.800000000000001,7134.0,69.44574,0.3,68900.0,0.33,276.0,2700.0,48.469171427970835,8.157441037650582,22025.09080165657,30.839297098683346,13.468406832086163,17.62987432928749,5.310965794435582,4701,114,1554,2364,218.05457440350094,125.68102314374326,0.0030553645077069313,False
0.3500000000000001,0.8302082610136536,2.800000000000001,7135.0,69.44574,0.3,68900.0,0.33,276.0,2700.0,34.613173903733646,5.967508243138283,16112.272256473365,23.267104195505393,8.459821482909199,11.346069708228253,2.4923132397709153,3549,94,1176,1779,177.8687439019367,102.53300774805302,0.002298355432074476,False
0.36000000000000004,0.7752168050252268,2.800000000000001,7136.0,69.44574,0.2,68900.0,0.33,276.0,2700.0,30.661606817083705,5.421373129177811,14637.70744878009,21.190226191783402,7.237783111848898,9.471380625300302,1.8164099826710878,7858,128,2178,4263,175.34889763812566,101.12622560941138,0.002097817248455699,False
0.37,0.7457057660538933,2.800000000000001,7137.0,69.44574,0.2,68900.0,0.33,276.0,2700.0,28.490576705674144,5.164669295427833,13944.60709765515,20.107011832837337,6.628474739953087,8.383564872836807,1.4638054445252537,6936,118,1900,3778,168.8511533694125,97.3487483650491,0.0019629336616773223,False
0.38,0.988777849465889,2.800000000000001,7138.0,69.44574,0.3,68900.0,0.33,276.0,2700.0,45.048806081119366,8.444349507354161,22799.743669856234,29.6813982520523,12.649481991939075,15.367407829067066,4.205132484584913,4295,108,1420,2159,191.3902540011858,109.96645206121457,0.0026799550274748812,False
0.39,0.8809547155785828,2.800000000000001,7139.0,69.44574,0.2,68900.0,0.33,276.0,2700.0,36.91736983089184,7.074649693945042,19101.554173651613,25.251088953610818,9.690610924428666,11.666280877281025,2.6159612304836246,9911,138,2476,5571,179.4084988864899,103.49407725252985,0.002292206035231181,False
0.4,0.7147267512048006,2.800000000000001,7140.0,69.44574,0.1,68900.0,0.33,276.0,2700.0,25.775161240211446,5.020990961489122,13556.67559602063,18.993463240432117,6.022889908500217,6.781697999779329,1.001898947011095,40434,220,6926,25269,153.49333045455688,88.56253173350525,0.0017719099502268225,False
0.4100000000000001,0.8838519894758334,2.800000000000001,7141.0,69.44574,0.2,68900.0,0.33,276.0,2700.0,36.524352449232055,7.343144447240535,19826.490007549444,25.366313924676945,9.76393711354532,11.15803852455511,2.4207926663047843,9617,136,2380,5429,173.52926569064988,100.10422928263486,0.0022086275278477376,False
0.42000000000000004,0.8877802779281514,2.800000000000001,7142.0,69.44574,0.3,68900.0,0.33,276.0,2700.0,36.50225286208491,7.510303556691724,20277.819603067655,25.52287942203443,9.863890701870618,10.97937344005048,2.353587145178894,3563,94,1174,1794,161.56341597483134,92.65033484505625,0.002147813113919598,False
0.43,1.0136324738038416,2.800000000000001,7143.0,69.44574,0.3,68900.0,0.33,276.0,2700.0,45.292323481247664,9.571330477062272,25842.592288068136,30.74408130525302,13.400376132009919,14.548242175994645,3.829045654947647,4494,110,1490,2247,175.08505605733203,100.86284567430681,0.0024882332782757348,False
0.44,0.9527668347004858,2.800000000000001,7144.0,69.44574,0.3,68900.0,0.33,276.0,2700.0,40.49439549451726,8.730358056391538,23571.96675225715,28.169256528734415,11.607949406008172,12.325138965782848,2.877591349616635,3572,98,1186,1787,164.73720001178495,94.87196928919761,0.0022533305770163865,False
0.45,1.0604080207812105,2.800000000000001,7145.0,69.44574,0.3,68900.0,0.33,276.0,2700.0,48.207181078171644,10.655763988883038,28770.562769984204,32.78611834411419,14.885991705172117,15.42106273405745,4.230227716289079,4642,112,1530,2329,175.3500687826163,101.01470581530324,0.0025338159139183594,False
0.46,0.9032746996869908,2.800000000000001,7146.0,69.44574,0.3,68900.0,0.33,276.0,2700.0,36.411898308778845,8.170876569332595,22061.36673719801,26.144205416920602,10.264158712794831,10.267692891858243,2.093282143462236,3565,94,1146,1812,163.21516311053182,93.87897636877199,0.002040343637862654,False
0.4700000000000001,1.1513343098522615,2.800000000000001,7147.0,69.44574,0.3,68900.0,0.33,276.0,2700.0,54.733118780939314,12.644836530804977,34141.05863317344,36.91294369839441,18.053155793541357,17.820175082544907,5.408319262736381,5398,122,1738,2741,183.13869351893223,105.40245117451681,0.002719640681887664,False
0.4800000000000001,0.893200525659612,2.800000000000001,7148.0,69.44574,0.2,68900.0,0.33,276.0,2700.0,35.154463580507645,8.205447916157969,22154.709373626516,25.739545064326308,10.002817888370805,9.414918516181338,1.7973699722128362,9925,136,2464,5591,155.37082867637974,89.65293344160793,0.0019702197730427184,False
0.49,0.7955489639602581,2.800000000000001,7149.0,69.44574,0.2,68900.0,0.33,276.0,2700.0,28.497957756985727,6.7355961610600446,18186.10963486212,21.949261137231332,7.676324964315097,6.548696619754395,0.9407288032550527,7919,118,1936,4489,139.08871929654063,80.26118788314001,0.00171290002323031,False
0.5,0.9631297182863299,2.800000000000001,7150.0,69.44574,0.3,68900.0,0.33,276.0,2700.0,39.44421882763183,9.599255319108805,25917.989361593773,28.601065296891413,11.902099193337452,10.843153530740416,2.302843874228648,4534,100,1310,2415,163.10198102204475,94.15466272348301,0.0020703324582366793,False
0.01,0.46352809580556315,2.800000000000001,7151.0,72.46512,0.05,68900.0,0.33,276.0,2700.0,21.418432433576402,0.10709006777277738,289.1431829864989,10.854801150978602,2.3071658627754985,10.5636312825978,2.200075795002721,69269,404,22942,34850,3573.0174763100053,2033.644995884836,0.03171439005155975,True
0.02,0.687654410321519,2.800000000000001,7152.0,72.46512,0.1,68900.0,0.33,276.0,2700.0,35.38769571147638,0.35386020195393614,955.4225452756276,18.040090173710315,5.521638973647391,17.347605537766068,5.167778771693455,28796,272,9536,14486,2463.464953145521,1402.0901144423447,0.027287199190297505,True
0.03,0.4279925585271712,2.800000000000001,7153.0,72.46512,0.1,68900.0,0.33,276.0,2700.0,18.8238560684704,0.28230129235928986,762.2134893700826,9.831516343679487,1.9397101420937615,8.992339724790911,1.6574088497344717,15443,188,5066,7838,1076.6726859427374,613.7313600335094,0.009976210326302406,True
0.04,0.36713240323585344,2.800000000000001,7154.0,72.46512,0.1,68900.0,0.33,276.0,2700.0,15.25271557682203,0.3049202702498873,823.2847296746958,8.152703942865669,1.3929210482302032,7.1000116339563615,1.0880007779803158,13019,170,4260,6623,657.1355667226921,375.95925117975304,0.006359175638349921,True
0.05,0.7369487795940088,2.800000000000001,7155.0,72.46512,0.1,68900.0,0.33,276.0,2700.0,37.80528149423494,0.9448702379680722,2551.1496425137952,19.78979432976099,6.4537882507173485,18.01548716447395,5.508918012749277,31309,284,10278,15886,1257.4872615089553,716.8850763143458,0.01219450175414594,True
0.06000000000000001,0.6191557437924387,2.800000000000001,7156.0,72.46512,0.2,68900.0,0.33,276.0,2700.0,29.476245197760274,0.8838349665906904,2386.354409794864,15.710123130247695,4.366389809779271,13.76612206751258,3.4825548431885807,6254,124,2052,3170,734.4330941298048,419.9427653271458,0.008249919264931247,True
0.06999999999999999,0.3974162920652208,2.800000000000001,7157.0,72.46512,0.08,68900.0,0.33,276.0,2700.0,16.08378263881145,0.5622140148382804,1517.977840063357,8.976441500503464,1.6522314471441413,7.107341138307985,1.090017432305861,20816,216,6838,10553,410.79397535563726,236.13799232089124,0.004159098457099131,True
0.08,0.70178781422227,2.800000000000001,7158.0,72.46512,0.2,68900.0,0.33,276.0,2700.0,34.3329845602221,1.3722470521164627,3705.0670407144494,18.535510709841866,5.78010193086926,15.797473850380236,4.407854878752797,7271,136,2384,3689,645.0847321039618,368.87669495748264,0.007412525512840623,True
0.09,0.5055319724318507,2.800000000000001,7159.0,72.46512,0.2,68900.0,0.33,276.0,2700.0,21.58549253580293,0.9698203500814889,2618.5149452200203,12.10527700668674,2.789216795392695,9.480215529116192,1.819396445311206,4539,104,1484,2307,413.32621418599564,238.61910200609458,0.0044013516774491284,True
0.09999999999999999,0.7721160588370435,2.800000000000001,7160.0,72.46512,0.3,68900.0,0.33,276.0,2700.0,38.57659850164889,1.9267355299800475,5202.185930946128,21.075382996022245,7.1722557109979235,17.501215505626643,5.245520181017876,3941,102,1300,1985,556.0648228609573,320.92752968320224,0.006839828551789371,True
0.11,0.5287224292360613,2.800000000000001,7161.0,72.46512,0.2,68900.0,0.33,276.0,2700.0,22.38445941016219,1.2283576276776338,3316.5655947296113,12.814667119939388,3.0781431185056203,9.569792290222802,1.8497854908279865,4755,108,1562,2406,353.154512532245,203.38456085288308,0.003862705072329335,True
0.12,0.7158993153649533,2.800000000000001,7162.0,72.46512,0.3,68900.0,0.33,276.0,2700.0,33.981048332918554,2.035243785238176,5495.158220143076,19.0351721639751,6.045185412591067,14.945876168943453,4.009941627352891,3380,92,1108,1712,439.10553126720185,253.50800912431066,0.0052386628428829785,True
0.13,0.7162539811105681,2.800000000000001,7163.0,72.46512,0.3,68900.0,0.33,276.0,2700.0,33.68069619285115,2.1846438664953634,5898.538439537481,19.047794678124852,6.051938774412772,14.6329015147263,3.8672949079174086,3356,92,1100,1700,407.5643241351892,235.2828389550485,0.004866924581281743,True
0.14,0.47380938683660656,2.800000000000001,7164.0,72.46512,0.2,68900.0,0.33,276.0,2700.0,18.42971756259444,1.284333209220644,3467.6996648957393,11.156781679260849,2.4203173311876713,7.2729358833335915,1.1359841219670272,3734,94,1224,1892,257.1065515666277,148.44052988171734,0.002726740757473464,False
0.15000000000000002,0.5683125929130293,2.800000000000001,7165.0,72.46512,0.3,68900.0,0.33,276.0,2700.0,23.615224916068996,1.764073285234597,4762.997870133412,14.056953703233555,3.6099390886003495,9.558271212835441,1.8458658033657525,2365,74,770,1204,293.03426221439616,168.91802523430164,0.003187565478051345,True
0.16,0.46367852751887784,2.800000000000001,7166.0,72.46512,0.08,68900.0,0.33,276.0,2700.0,17.36067099359001,1.3802750371477965,3726.7426002990505,10.85920045737504,2.308799100000802,6.501470536214969,0.9285240628530054,29672,224,7320,16784,224.2072109649953,129.4043639359111,0.002381067139178709,False
0.17,0.6866220835099595,2.800000000000001,7167.0,72.46512,0.3,68900.0,0.33,276.0,2700.0,30.446934911253756,2.577699704318511,6959.78920165998,18.004100590834366,5.503034283687935,12.44283432041939,2.925334579369424,2884,86,948,1456,309.3046136075042,177.8655354728682,0.0035967158706880237,True
0.18000000000000002,0.49977632165830943,2.800000000000001,7168.0,72.46512,0.08,68900.0,0.33,276.0,2700.0,18.84210366449183,1.6835748175671084,4545.652007431193,11.931306732505664,2.720044103835987,6.910796931986166,1.0364692862688787,32691,236,8064,18503,216.6325931366673,124.96348610544817,0.0023463434308443627,False
0.19,0.6137040039303427,2.800000000000001,7169.0,72.46512,0.3,68900.0,0.33,276.0,2700.0,25.23991852684064,2.3834268040425433,6435.252370914867,15.52974963811282,4.281234319312625,9.71016888872782,1.8978075152700815,2601,78,852,1317,248.06009781565814,143.17969532995264,0.002822450104175081,False
0.2,0.7006548577243474,2.800000000000001,7170.0,72.46512,0.3,68900.0,0.33,276.0,2700.0,30.45341942593163,3.0285867817740204,8177.184310789855,18.495611909671968,5.7591246084164665,11.957807516259663,2.730537826642446,3009,86,984,1527,267.66035303209856,154.53348755707088,0.003178960443970381,False
0.21000000000000002,0.8229367075341498,2.800000000000001,7171.0,72.46512,0.3,68900.0,0.33,276.0,2700.0,38.49254008248965,4.022320515618155,10860.265392169018,22.98811685790628,8.291648631378713,15.504423224583366,4.269328115760558,3963,100,1306,1998,288.0443957978527,166.06580556263737,0.0037400971944222196,True
0.22,0.8686175502801816,2.800000000000001,7172.0,72.46512,0.3,68900.0,0.33,276.0,2700.0,41.4606075296803,4.538365709214366,12253.587414878788,24.76280008355453,9.382100049121666,16.697807446125772,4.8437343399073,4073,104,1340,2057,292.80761039938574,169.02573418697176,0.0038507672294290523,True
0.23,0.9144427161817816,2.800000000000001,7173.0,72.46512,0.3,68900.0,0.33,276.0,2700.0,44.52399466066885,5.094776880765913,13755.897578067965,26.59578449423889,10.558656334088608,17.928210166429956,5.463879453322695,4308,108,1420,2172,291.17889792222167,168.10732650223815,0.003961350891457316,True
0.24000000000000005,0.8839502142586017,2.800000000000001,7174.0,72.46512,0.3,68900.0,0.33,276.0,2700.0,41.91010841215415,5.000260091562437,13500.702247218578,25.370224034879215,9.766428906253486,16.539884377274937,4.766168814691049,4039,104,1332,2035,271.45268827365834,156.64827464535625,0.0036369989712660227,False
0.25,0.8102378161621855,2.800000000000001,7175.0,72.46512,0.3,68900.0,0.33,276.0,2700.0,36.30446605712343,4.505333333665534,12164.400000896941,22.504085975291606,8.00280264935356,13.800380081831822,3.4974693156880265,3439,94,1134,1732,244.74504530801886,141.30293785651708,0.003123739243175806,False
0.26,0.7837105533947293,2.800000000000001,7176.0,72.46512,0.3,68900.0,0.33,276.0,2700.0,34.1662592681751,4.404802616543055,11892.967064666249,21.506049048904735,7.419107537569662,12.660210219270361,3.014304921026607,3375,92,1112,1701,228.50812344733674,131.7832081407309,0.002890537066447499,False
0.27,0.7856711811103556,2.800000000000001,7177.0,72.46512,0.3,68900.0,0.33,276.0,2700.0,33.992978495203744,4.547828118052101,12279.135918740674,21.57920860039296,7.461344596925196,12.413769894810784,2.9135164788730945,3256,92,1076,1636,221.05768993479901,127.43295568882439,0.0028040180311973313,False
0.28,0.6467609279802606,2.800000000000001,7178.0,72.46512,0.1,68900.0,0.33,276.0,2700.0,24.777664284810605,3.42289683858575,9241.821464181525,16.634921560305134,4.812791209315434,8.14274272450547,1.3898943707296842,30693,220,6846,17998,189.73794606439833,109.4943785178825,0.002179060268263235,False
0.29000000000000004,0.7200408941076977,2.800000000000001,7179.0,72.46512,0.2,68900.0,0.33,276.0,2700.0,29.072406025844955,4.164418671595254,11243.930413307186,19.18276757583063,6.12432656721595,9.889638450014324,1.9599078956206961,5934,122,1972,2970,190.97224474835528,110.20288245334038,0.0023758265771578503,False
0.3,0.8140013201612346,2.800000000000001,7180.0,72.46512,0.3,68900.0,0.33,276.0,2700.0,35.00989851373399,5.194936109295483,14026.327495097805,22.647113089153375,8.087765896829916,12.362785424580611,2.892829787534433,3509,94,1156,1769,208.9658708322637,120.61848182241943,0.0026725515489820287,False
0.31,0.7481709591072092,2.800000000000001,7181.0,72.46512,0.3,68900.0,0.33,276.0,2700.0,30.31803112220621,4.636900699446564,12519.63188850572,20.196659878462025,6.678152874337844,10.121371243744186,2.04125217489128,3055,86,1006,1540,191.27169817502195,110.41403490294034,0.0023461255446254555,False
0.32,0.9618659762672687,2.800000000000001,7182.0,72.46512,0.3,68900.0,0.33,276.0,2700.0,45.01780154286517,7.13421910814321,19262.391591986667,28.548262202111257,11.865988194303677,16.469539340753915,4.731769086160467,4451,110,1470,2240,228.7018433154626,131.90068442652935,0.0031320607222577396,False
0.33,1.0209705805921814,2.800000000000001,7183.0,72.46512,0.3,68900.0,0.33,276.0,2700.0,49.21667928435434,8.045485805123763,21722.81167383416,31.060797625828293,13.627140705246914,18.15588165852605,5.5816549001231515,4692,114,1550,2361,234.53350225776504,135.20943781125038,0.0032958295224514416,False
0.34,0.6400696465447961,2.800000000000001,7184.0,72.46512,0.05,68900.0,0.33,276.0,2700.0,22.819598565435967,3.797013651019652,10251.93685775306,16.408999082569995,4.702238750399781,6.4105994828659725,0.9052250993801287,218457,412,24476,146827,213.24179252020463,119.82100094423112,0.00186027223737512,False
0.3500000000000001,0.88942342513444,2.800000000000001,7185.0,72.46512,0.3,68900.0,0.33,276.0,2700.0,38.73504889330766,6.6888363663137325,18059.858189047078,25.58848358470857,9.90588243924614,13.146565308599094,3.2170460729324075,3766,98,1242,1897,198.98904080295054,114.79616467967666,0.0026187493055787148,False
0.36000000000000004,0.6694416172914026,2.800000000000001,7186.0,72.46512,0.08,68900.0,0.33,276.0,2700.0,24.056340126165516,4.2324251248125355,11427.547836993846,17.40907717041231,5.198837452530568,6.647262955753206,0.9664123277180323,65425,268,10202,41772,163.25964458103985,94.14617705557605,0.001866280829970049,False
0.37,0.7225070346795719,2.800000000000001,7187.0,72.46512,0.08,68900.0,0.33,276.0,2700.0,27.03399944695033,4.895202502564288,13217.046756923579,19.270859376669414,6.171742560584393,7.763140070280915,1.276540058020105,74796,284,11340,48054,186.08852427578657,104.78503394901317,0.001987333004395643,False
0.38,0.7793570960741503,2.800000000000001,7188.0,72.46512,0.2,68900.0,0.33,276.0,2700.0,30.37396634294819,5.656129957101635,15271.550884174416,21.343948038412332,7.325834893622899,9.030018304535858,1.6697049365212635,8203,126,2122,4556,174.66294601893458,100.81370452943827,0.0021105915979921577,False
0.39,1.0282733766734942,2.800000000000001,7189.0,72.46512,0.3,68900.0,0.33,276.0,2700.0,47.72587544501945,9.18230828869993,24792.23237948981,31.377333509229256,13.855126359243837,16.34854193579019,4.672818070543906,4538,112,1504,2276,203.1544398495607,116.99958739742209,0.002872577220957146,False
0.4,0.8032915854067526,2.800000000000001,7190.0,72.46512,0.2,68900.0,0.33,276.0,2700.0,31.379960492238784,6.141950811894592,16583.2671921154,22.24103827843819,7.847398372180186,9.138922213800594,1.7054475602855943,8685,128,2178,4878,171.61027680595973,99.07616180823024,0.0020973713345829826,False
0.4100000000000001,0.8104963048817626,2.800000000000001,7191.0,72.46512,0.1,68900.0,0.33,276.0,2700.0,31.575408910410747,6.328611021782156,17087.24975881182,22.51389812036184,8.008620969850803,9.061510790048906,1.6800099480686468,50527,250,8406,31798,169.48184233418968,97.81207268688523,0.002088049275655977,False
0.42000000000000004,0.8609068156404462,2.800000000000001,7192.0,72.46512,0.3,68900.0,0.33,276.0,2700.0,34.6592873021243,7.1232807890999945,19232.858130569984,24.45956184959883,9.192330723682513,10.199725452525467,2.0690499345825186,3474,94,1150,1737,165.15033011344545,95.23837914685393,0.0021598274665055287,False
0.43,0.91827203380646,2.800000000000001,7193.0,72.46512,0.3,68900.0,0.33,276.0,2700.0,38.33741814685735,8.076025830168355,21805.26974145456,26.751344746747016,10.660797767598329,11.586073400110337,2.5847719374299736,3715,98,1234,1858,176.200502982528,101.5349320750615,0.0022881153736525176,False
0.44,1.046446783691092,2.800000000000001,7194.0,72.46512,0.3,68900.0,0.33,276.0,2700.0,47.46166840323656,10.263158096309771,27710.52686003638,32.170868444680146,14.432557457978604,15.290799958556413,4.169399361668832,4397,110,1464,2195,187.54778007867088,107.97223981935986,0.0026512473641168016,False
0.45,1.0566030183616,2.800000000000001,7195.0,72.46512,0.3,68900.0,0.33,276.0,2700.0,47.913882379477215,10.589771781676765,28592.383810527266,32.617952212999946,14.761560497189125,15.29593016647727,4.17178871551236,4686,112,1540,2354,182.97428824914428,105.47327801644285,0.002631749517757511,False
0.46,1.1581227403035645,2.800000000000001,7196.0,72.46512,0.3,68900.0,0.33,276.0,2700.0,55.63593852602915,12.592405819300152,33999.49571211041,37.22938239276206,18.30481015043598,18.406556133267088,5.7124043311358275,5351,122,1746,2702,204.21482574471068,117.73016339018042,0.0029143216437926773,False
0.4700000000000001,0.8996678864622025,2.800000000000001,7197.0,72.46512,0.1,68900.0,0.33,276.0,2700.0,35.87807987885009,8.213902388814004,22177.53644979781,25.999033480020227,10.170123349248392,9.87904639882986,1.956220960434388,63629,268,9556,40959,540.5544322722828,299.84820927945225,0.002119422666987188,True
0.4800000000000001,1.0043996546419107,2.800000000000001,7198.0,72.46512,0.2,68900.0,0.33,276.0,2700.0,43.02892050363295,10.095317577708043,27257.357459811716,30.347510869945996,13.118353968972091,12.681409633686958,3.023036391264048,11613,152,2870,6558,176.69629651050104,101.81866447567765,0.0023690141822404775,False
0.49,0.8927572619401984,2.800000000000001,7199.0,72.46512,0.1,68900.0,0.33,276.0,2700.0,34.84590827473067,8.290844037907553,22385.27890235039,25.721798590715228,9.991412415255933,9.12410968401544,1.7005683773483806,64788,266,9490,41861,162.86484756809864,93.41929170019581,0.002034730814168597,False
0.5,0.8950582895014234,2.800000000000001,7200.0,72.46512,0.2,68900.0,0.33,276.0,2700.0,34.72545119402842,8.41956341070795,22732.821208911464,25.81397607890965,10.050705008691205,8.911475115118773,1.6311415979832553,10007,136,2432,5679,157.61730569717412,90.96588310099963,0.001996604775815006,False
0.01,0.5494245494459441,2.800000000000001,7201.0,75.4845,0.05,68900.0,0.33,276.0,2700.0,26.605958663878887,0.13302769892429425,359.17478709559447,13.459358332838892,3.350088552711003,13.146600331039995,3.217060853786709,85736,458,28406,43121,4536.749924141455,2578.840326155486,0.04087492640309326,True
0.02,0.5210526723045484,2.800000000000001,7202.0,75.4845,0.1,68900.0,0.33,276.0,2700.0,24.548369183406837,0.24546693667325045,662.7607290177763,12.578555325977202,2.9807641415098316,11.969813857429635,2.735297204836581,20020,220,6634,10063,1930.5753579379905,1100.7273089817882,0.019500361992387076,True
0.03,0.39246292302570596,2.800000000000001,7203.0,75.4845,0.1,68900.0,0.33,276.0,2700.0,16.867873217298158,0.25296154959170764,682.9961838976106,8.84013056106823,1.6081056734668175,8.027742656229927,1.3551441238751099,14148,178,4644,7176,1020.5599030407133,583.6918286532697,0.009372041799905114,True
0.04,0.46022474012611747,2.800000000000001,7204.0,75.4845,0.1,68900.0,0.33,276.0,2700.0,20.370399869457678,0.4072739561025997,1099.6396814770192,10.758339401452288,2.271467992974353,9.61206046800539,1.8641940368717531,16900,198,5530,8599,913.4338598414951,521.9095255913015,0.008657062418792846,True
0.05,0.41745927896593693,2.800000000000001,7205.0,75.4845,0.08,68900.0,0.33,276.0,2700.0,17.69576897884414,0.44213242508311923,1193.757547724422,9.534296898450881,1.8377198273395707,8.161472080393258,1.3955874022564516,22985,228,7534,11678,668.8196130276384,382.73905196364757,0.006262572220703279,True
0.06000000000000001,0.3871590067133736,2.800000000000001,7206.0,75.4845,0.08,68900.0,0.33,276.0,2700.0,15.795555029976605,0.4734142615571805,1278.2185062043875,8.694856627588385,1.5616039336725691,7.10069840238822,1.0881896721153885,20328,214,6676,10308,497.52536038651516,285.6227189713971,0.004843860700556709,True
0.06999999999999999,0.5242059595517359,2.800000000000001,7207.0,75.4845,0.2,68900.0,0.33,276.0,2700.0,23.258738842915417,0.813337481981922,2196.0112013511894,12.675449619174934,3.0205806417095022,10.583289223740483,2.20724315972758,5099,110,1676,2579,556.0269716587864,320.9859539306606,0.006045607880140832,True
0.08,0.7257761602722794,2.800000000000001,7208.0,75.4845,0.2,68900.0,0.33,276.0,2700.0,35.98947135565036,1.4385065239335897,3883.967614620692,19.387869823307184,6.234932607915557,16.601601532343174,4.796426083981967,7541,140,2472,3827,719.380316834453,411.83213760852846,0.008064264031459116,True
0.09,0.7882749439284098,2.800000000000001,7209.0,75.4845,0.3,68900.0,0.33,276.0,2700.0,40.08842032259269,1.802452100487023,4866.620671314962,21.676515667240402,7.517658383212086,18.411904655352288,5.715206282725063,3961,102,1300,2005,654.045441049795,377.2308473973276,0.00807317856956311,True
0.09999999999999999,0.7240920572819152,2.800000000000001,7210.0,75.4845,0.3,68900.0,0.33,276.0,2700.0,35.20164575916513,1.7579878928558605,4746.567310710823,19.32755788458774,6.202332234131297,15.874087874577391,4.444344341275436,3635,96,1192,1841,546.8077872447177,315.6962967423622,0.006559112808342904,True
0.11,0.579644125346204,2.800000000000001,7211.0,75.4845,0.2,68900.0,0.33,276.0,2700.0,25.453893270790736,1.3971764900122037,3772.37652303295,14.41977314987316,3.7712785181981276,11.034120120917576,2.374102028185924,5462,114,1794,2765,402.28945576280967,232.06196275380938,0.004510540092138581,True
0.12,0.7477573837372823,2.800000000000001,7212.0,75.4845,0.3,68900.0,0.33,276.0,2700.0,36.17784099325657,2.167051344858456,5851.038631117831,20.181609329451017,6.6698031456736615,15.996231663805549,4.502751800815206,3637,96,1196,1837,470.7565169307667,271.78580554594544,0.005770446959367495,True
0.13,0.5394212262937838,2.800000000000001,7213.0,75.4845,0.1,68900.0,0.33,276.0,2700.0,22.45585840845667,1.4550294105097248,3928.579408376257,13.146496814535459,3.21701716580542,9.309361593921212,1.761987755295695,18098,208,5978,9125,312.63173914427233,180.3106337403553,0.00353729054237599,True
0.14,0.7757167211905232,2.800000000000001,7214.0,75.4845,0.3,68900.0,0.33,276.0,2700.0,37.47139664707174,2.6172507451340548,7066.5770118619475,21.208764345155338,7.248381081968062,16.262632301916405,4.631130336834007,3851,100,1270,1940,422.02622899360495,243.3453821907961,0.005248484775374708,True
0.15000000000000002,0.638531947398667,2.800000000000001,7215.0,75.4845,0.2,68900.0,0.33,276.0,2700.0,27.9510761146746,2.08926212513002,5641.007737851053,16.3572396674515,4.6770464493409465,11.5938364472231,2.5877843242109266,6094,122,2008,3076,324.02746306356227,186.79738946248946,0.003825706033614518,True
0.16,0.7835105861605254,2.800000000000001,7216.0,75.4845,0.3,68900.0,0.33,276.0,2700.0,37.3533347212851,2.9796881353634017,8045.157965481185,21.498592830541693,7.4148077779385835,15.854741890743409,4.435119642575182,3910,100,1284,1978,373.54699682893914,215.50080349147532,0.004694393121654484,True
0.17,0.4847656283727978,2.800000000000001,7217.0,75.4845,0.08,68900.0,0.33,276.0,2700.0,18.264200237390458,1.5421672570401306,4163.851594008353,11.481510739456478,2.544329876536868,6.78268949793398,1.0021626194967372,31705,232,7802,17958,230.58073756088854,133.04355172960683,0.00247761499995132,False
0.18000000000000002,0.7088021385492782,2.800000000000001,7218.0,75.4845,0.3,68900.0,0.33,276.0,2700.0,31.600377750533774,2.831819485310885,7645.91261033939,18.78324903447043,5.910984150236744,12.817128716063344,3.079164664925859,3123,88,1026,1578,305.99393699676716,176.5079284536788,0.00369602850130676,True
0.19,0.7314866421145123,2.800000000000001,7219.0,75.4845,0.3,68900.0,0.33,276.0,2700.0,32.80379532533785,3.1019950998997654,8375.386769729366,19.592907091199738,6.34623172728815,13.210888234138114,3.2442366273883847,3348,90,1094,1701,382.60974300035645,214.7308394231357,0.006038386894899995,True
0.2,0.7171612432637491,2.800000000000001,7220.0,75.4845,0.3,68900.0,0.33,276.0,2700.0,31.539422310786136,3.1371870702594653,8470.405089700556,19.08009842373754,6.069234770044621,12.459323887048598,2.9320476997851554,3055,88,1004,1543,280.97210241909846,162.0621995145706,0.0034078751629758744,True
0.21000000000000002,0.6980138438803289,2.800000000000001,7221.0,75.4845,0.3,68900.0,0.33,276.0,2700.0,29.98109332431892,3.128618606010229,8447.270236227618,18.402729808215927,5.710400131348165,11.578363516102993,2.581781525337936,3026,86,992,1532,261.9314691610733,151.02891517304988,0.003155199941486698,False
0.22,0.7849960596631607,2.800000000000001,7222.0,75.4845,0.2,68900.0,0.33,276.0,2700.0,35.50537951619948,3.8832906277316543,10484.884694875467,21.55400597548211,7.446784518446349,13.951373540717373,3.5634938907146947,7371,138,2434,3714,274.20220799793987,158.23520661355644,0.003510131445933718,False
0.23,0.6574852369191051,2.800000000000001,7223.0,75.4845,0.3,68900.0,0.33,276.0,2700.0,26.816498268504237,3.058414795667166,8257.719948301348,16.999361027351043,4.993140844767905,9.817137241153194,1.934726049100739,2715,80,890,1374,228.52267310143208,131.87883083175333,0.0027046216897827985,False
0.24000000000000005,0.6173297241288478,2.800000000000001,7224.0,75.4845,0.1,68900.0,0.33,276.0,2700.0,24.07712760085212,2.860302394206737,7722.8164643581895,15.649625175064013,4.337758064005669,8.427502425788106,1.4774556697989323,26363,214,6510,14902,213.25189942991116,123.05166884567714,0.0024417358457314753,False
0.25,0.65609945920166,2.800000000000001,7225.0,75.4845,0.3,68900.0,0.33,276.0,2700.0,26.1689862273501,3.2383983549438384,8743.675558348365,16.95210613054132,4.969616257010577,9.21688009680878,1.7312179020667382,2702,80,890,1361,211.52496994991654,122.08866138587912,0.0025136258798769875,False
0.26,0.9358615874630569,2.800000000000001,7226.0,75.4845,0.3,68900.0,0.33,276.0,2700.0,45.101184687945526,5.826342921113256,15731.125887005792,27.47062819248965,11.137656520935437,17.630556495455878,5.3113135998221805,4271,108,1404,2159,277.35575238868176,159.9434457877821,0.0038017835324840373,True
0.27,0.8149630508063039,2.800000000000001,7227.0,75.4845,0.3,68900.0,0.33,276.0,2700.0,36.00323040582011,4.819212125985293,13011.87274016029,22.683719528159603,8.109563920414429,13.319510877660509,3.290351794429136,3721,96,1224,1879,238.5702356734572,137.69944868448516,0.0030689408589268663,False
0.28,0.7798653513963945,2.800000000000001,7228.0,75.4845,0.3,68900.0,0.33,276.0,2700.0,33.296839774750254,4.615581407177304,12462.069799378722,21.36284836949112,7.336687871633074,11.933991405259132,2.7211064644557696,3383,92,1116,1703,222.34551624593198,127.98624595204681,0.0028005406819410846,False
0.29000000000000004,0.7320419286559718,2.800000000000001,7229.0,75.4845,0.3,68900.0,0.33,276.0,2700.0,29.84517861774045,4.276470697420103,11546.470883034277,19.612888611666293,6.35711695227965,10.232290006074159,2.0806462548595475,3045,86,1000,1539,205.44439888991053,118.60252841810221,0.0025168234631193784,False
0.3,0.7489631473821379,2.800000000000001,7230.0,75.4845,0.3,68900.0,0.33,276.0,2700.0,30.65704990520092,4.542008818015518,12263.423808641897,20.22550064991998,6.6941638541055655,10.431549255280942,2.152155036090048,3207,86,1052,1623,204.0128002106319,117.44782029693476,0.002512480966321885,False
0.31,0.6844501606322951,2.800000000000001,7231.0,75.4845,0.1,68900.0,0.33,276.0,2700.0,26.278108041547107,4.010712621944405,10828.924079249893,17.928469195594094,5.464012919959856,8.349638845953013,1.453300298015451,36288,224,6942,22213,192.07276949067546,110.80049973539029,0.002236367397995352,False
0.32,0.8234326356734472,2.800000000000001,7232.0,75.4845,0.3,68900.0,0.33,276.0,2700.0,35.048827888788544,5.539183323490941,14955.794973425542,23.007101882821498,8.30305379274659,12.041726005967046,2.7638704692556493,3575,94,1184,1793,208.1066266067628,120.0045833900993,0.0026700462945210223,False
0.33,0.7818794753570367,2.800000000000001,7233.0,75.4845,0.3,68900.0,0.33,276.0,2700.0,31.953680555998563,5.197091014945019,14032.14574035155,21.437810806786466,7.379790771109625,10.515869749212097,2.182699756164606,3380,90,1114,1703,194.57532565996706,112.30713753583312,0.0024447800433418246,False
0.34,0.8054403536864189,2.800000000000001,7234.0,75.4845,0.3,68900.0,0.33,276.0,2700.0,33.23304730763285,5.567299937193115,15031.70983042141,22.3222807158666,7.895276474547152,10.91076659176625,2.3279765373540364,3335,90,1098,1682,194.8393225407097,112.44370654725087,0.002470629237467379,False
0.3500000000000001,0.8513253128758578,2.800000000000001,7235.0,75.4845,0.3,68900.0,0.33,276.0,2700.0,36.06287907839447,6.221206648703542,16797.257951499563,24.084834427829712,8.959768432410947,11.978044650564755,2.7385617837074046,3515,94,1166,1760,200.44538533273683,115.64880329790115,0.0025763956778482033,False
0.36000000000000004,0.7573249066407597,2.800000000000001,7236.0,75.4845,0.1,68900.0,0.33,276.0,2700.0,29.50480567724465,5.21314892400678,14075.502094818306,20.53088458047015,6.864560170399928,8.9739210967745,1.651411246393148,43662,240,7896,27032,184.6839940360228,106.61281306740294,0.002229109336927644,False
0.37,1.0434205480328134,2.800000000000001,7237.0,75.4845,0.3,68900.0,0.33,276.0,2700.0,49.584375230915725,9.067022022597891,24480.959461014307,32.0381529819147,14.335401700911705,17.546222249001026,5.2683796783138135,4643,114,1536,2333,224.76734595762974,129.65756437314295,0.003194243608606123,False
0.38,0.854851569667932,2.800000000000001,7238.0,75.4845,0.2,68900.0,0.33,276.0,2700.0,35.41001692700212,6.612979568071878,17855.04483379407,24.222476113555146,9.044940331528528,11.187540813446972,2.43196076345665,9061,134,2318,5064,198.38838550027086,114.53554313299176,0.0024509925627672884,False
0.39,1.0488372438834719,2.800000000000001,7239.0,75.4845,0.3,68900.0,0.33,276.0,2700.0,49.32137556912154,9.493430812899847,25632.263194829586,32.27586471016408,14.50958610443737,17.045510858957464,5.0161552915375225,4515,112,1496,2265,216.2069275803472,124.59750652942466,0.0030710197441417893,False
0.4,0.8904605295751988,2.800000000000001,7240.0,75.4845,0.2,68900.0,0.33,276.0,2700.0,37.281417855807234,7.322242284608285,19770.05416844237,25.629925863615647,9.932441856853584,11.651491992191588,2.6101995722452997,9964,138,2476,5610,193.20944543237042,111.53451021689976,0.00247289947914741,False
0.4100000000000001,0.8405745686846708,2.800000000000001,7241.0,75.4845,0.3,68900.0,0.33,276.0,2700.0,33.57192437927532,6.737896692899402,18192.321070828384,23.667125445051497,8.703086482200487,9.904798934223827,1.9651897893010846,3430,92,1132,1722,168.6251729577853,97.21560984627263,0.002231506531395111,False
0.42000000000000004,1.0617362691619012,2.800000000000001,7242.0,75.4845,0.3,68900.0,0.33,276.0,2700.0,49.310072585044495,10.199945698513245,27539.853385985763,32.84490737521546,14.929578852081585,16.46516520982903,4.72963315356834,4702,114,1560,2356,204.37683289114594,117.78438979259435,0.0029268427635724885,False
0.43,1.0059224777316822,2.800000000000001,7243.0,75.4845,0.3,68900.0,0.33,276.0,2700.0,44.713027444666906,9.4467818291974,25506.31093883298,30.41277201968909,13.164617542438611,14.300255424977816,3.717835713241211,4481,110,1480,2247,191.5153044825067,110.23595681171548,0.0026775379727072574,False
0.44,0.7527721641817875,2.800000000000001,7244.0,75.4845,0.2,68900.0,0.33,276.0,2700.0,27.09629214994454,5.782775320585535,15613.493365580944,20.364393710168816,6.771467533118664,6.731898439775723,0.9886922125331292,7241,114,1822,4056,157.41533785387438,90.88237786130018,0.0018886800222403476,False
0.45,0.780533455295292,2.800000000000001,7245.0,75.4845,0.2,68900.0,0.33,276.0,2700.0,28.575656785205666,6.238671022965695,16844.411762007378,21.38770281568825,7.350968775971907,7.187953969517416,1.112297753006212,7895,120,1986,4424,159.87770444754057,92.27643578296978,0.0019294895628489987,False
0.46,1.1188648603298295,2.800000000000001,7246.0,75.4845,0.3,68900.0,0.33,276.0,2700.0,52.46187152819196,11.862370409797608,32028.40010645354,35.41541752197285,16.878996450794553,17.046454006219115,5.016626040996945,4806,116,1580,2414,197.64209443320107,113.81482319496845,0.002896042894367314,False
0.4700000000000001,0.7878279811384483,2.800000000000001,7247.0,75.4845,0.1,68900.0,0.33,276.0,2700.0,28.520708896065845,6.484920207859529,17509.28456122073,21.659799789734574,7.507973523167571,6.86090910633127,1.0230533153080419,50247,232,7676,32197,160.3841064745739,92.55103311053884,0.0018991615757076859,False
0.4800000000000001,1.0530062730977414,2.800000000000001,7248.0,75.4845,0.3,68900.0,0.33,276.0,2700.0,46.66617187908557,10.968257907816664,29614.296351104993,32.459324772949124,14.64452740074841,14.206847106136443,3.6762694929317465,4373,108,1456,2177,180.21965718007144,103.9182734563667,0.002582408023475787,False
0.49,0.9762252202987052,2.800000000000001,7249.0,75.4845,0.2,68900.0,0.33,276.0,2700.0,40.67559825106037,9.719118082108333,26241.618821692497,29.150599335466964,12.280238010000534,11.524998915593407,2.561119927892202,11119,146,2736,6285,175.37124723036658,101.03377597687995,0.0023423492076054524,False
0.5,1.0607631771976693,2.800000000000001,7250.0,75.4845,0.3,68900.0,0.33,276.0,2700.0,46.61885685838567,11.392914826797274,30760.87003235264,32.80183342678919,14.897638696035203,13.817023431596482,3.50472386923793,4593,108,1444,2357,189.6487735811328,109.19058724665024,0.0025254864280648986,False
0.01,0.4834166334887555,2.800000000000001,7251.0,78.50388,0.05,68900.0,0.33,276.0,2700.0,22.58656236807102,0.11293071744525301,304.91293710218315,11.441365385580962,2.5288684603682587,11.14519698249006,2.415937742923006,72576,416,24048,36498,3999.277782117045,2274.7401069420403,0.036196469114126495,True
0.02,0.7125547627495801,2.800000000000001,7252.0,78.50388,0.1,68900.0,0.33,276.0,2700.0,37.12758985207435,0.3712591433599215,1002.3996870717881,18.91629538515009,5.98172015092281,18.21129446692426,5.610461007562889,30043,280,9966,15088,2972.886567436792,1693.0545049280804,0.031343388282698476,True
0.03,0.5223782277208132,2.800000000000001,7253.0,78.50388,0.1,68900.0,0.33,276.0,2700.0,24.328171427646847,0.36486602274693847,985.1382614167338,12.619256582260858,2.997464684658208,11.708914845385989,2.6325986619112696,19839,218,6524,10047,1462.573122428653,833.3309681793053,0.013784705221300191,True
0.04,0.4018760651699584,2.800000000000001,7254.0,78.50388,0.05,68900.0,0.33,276.0,2700.0,17.111773147869094,0.34210142167082974,923.6738385112403,9.099696797683762,1.6925389990749056,8.012076350185332,1.3504375774040758,55914,356,18376,28344,896.1597451345071,512.3540043103045,0.00765840602628618,True
0.05,0.5890251125233872,2.800000000000001,7255.0,78.50388,0.1,68900.0,0.33,276.0,2700.0,27.856740445687212,0.6961567117543797,1879.6231217368252,14.722580624334901,3.907968812695703,13.134159821352311,3.2118121009413234,22476,236,7368,11418,1080.9165410806152,617.3121470312135,0.00991163190456072,True
0.06000000000000001,0.4446143782418525,2.800000000000001,7256.0,78.50388,0.1,68900.0,0.33,276.0,2700.0,18.931619654402798,0.5674962002899687,1532.2397407829155,10.306209269346242,2.1070633461841255,8.625410385056556,1.5395671458941567,15757,190,5162,8008,611.0907118962189,350.5481233100017,0.005933468148770843,True
0.06999999999999999,0.6167031931202556,2.800000000000001,7257.0,78.50388,0.2,68900.0,0.33,276.0,2700.0,29.002883676402117,1.0143825511539506,2738.8328881156667,15.628886852166024,4.32795958567683,13.373996824236093,3.313577034522879,6333,124,2076,3213,747.2452698952267,428.5419050139681,0.007704104401135428,True
0.08,0.6303059495286127,2.800000000000001,7258.0,78.50388,0.2,68900.0,0.33,276.0,2700.0,29.568404739012994,1.1816638592680933,3190.492420023852,16.081359390921627,4.543627691760998,13.487045348091367,3.361963832492904,6287,124,2064,3185,636.0489742494957,364.29477384063904,0.007005670188329943,True
0.09,0.6246863244988411,2.800000000000001,7259.0,78.50388,0.2,68900.0,0.33,276.0,2700.0,28.89315447640396,1.2986651374085327,3506.3958710030383,15.893868374342139,4.453783668309623,12.999286102061822,3.1551185309010905,6038,122,1980,3062,552.2632941509098,316.7161675680364,0.0062080489610164755,True
0.09999999999999999,0.47394819091944634,2.800000000000001,7260.0,78.50388,0.1,68900.0,0.33,276.0,2700.0,19.496963670758905,0.9727537884355547,2626.4352287759975,11.160876787222685,2.4218662222393563,8.33608688353622,1.4491124338038017,16170,192,5324,8178,366.9358687857532,211.74554009086995,0.0039995239467601525,True
0.11,0.42672965755935005,2.800000000000001,7261.0,78.50388,0.05,68900.0,0.33,276.0,2700.0,16.62856197963666,0.9117832689987305,2461.8148262965724,9.795733718100342,1.9273165097629992,6.832828261536319,1.0155332407642685,72921,348,17910,41370,308.9648078905747,178.3257955118694,0.0032531331876883614,True
0.12,0.6885603767894999,2.800000000000001,7262.0,78.50388,0.3,68900.0,0.33,276.0,2700.0,32.13654945135466,1.9245738523443467,5196.349401329736,18.071696575072075,5.537997006036647,14.064852876282586,3.6134231536923,3102,88,1018,1569,459.33119978265756,265.18226701881116,0.005391713106962821,True
0.13,0.49157180923792115,2.800000000000001,7263.0,78.50388,0.08,68900.0,0.33,276.0,2700.0,19.688714058155963,1.2751650277401787,3442.9455748984824,11.684756483292455,2.623166118538542,8.003957574863508,1.3480010907983633,25765,242,8376,13079,303.7584266765977,175.32998877224992,0.003292709259091439,True
0.14,0.7786916092663557,2.800000000000001,7264.0,78.50388,0.3,68900.0,0.33,276.0,2700.0,37.68182177418741,2.6319805040321533,7106.347360886814,21.319210605166777,7.311639009612097,16.362611169020635,4.679658505579944,3842,100,1266,1937,440.71471167339973,254.04815668324463,0.005485568314381376,True
0.15000000000000002,0.5075822744064138,2.800000000000001,7265.0,78.50388,0.08,68900.0,0.33,276.0,2700.0,20.065166504784752,1.4978189043882801,4044.1110418483563,12.167450544109101,2.8140999879539597,7.897715960675651,1.3162810835656795,33222,244,8542,18553,276.8362067837031,159.70495304837243,0.00302363231504527,True
0.16,0.670688999781399,2.800000000000001,7266.0,78.50388,0.3,68900.0,0.33,276.0,2700.0,29.71388940082285,2.3685325097264256,6395.037776261349,17.452028911472162,5.220580015119819,12.261860489350688,2.8520475053933936,2964,86,972,1500,341.88649341893375,197.38820085149857,0.003995287107893656,True
0.17,0.5234319689497555,2.800000000000001,7267.0,78.50388,0.08,68900.0,0.33,276.0,2700.0,20.43926081409231,1.7270474060597907,4663.027996361435,12.651643274025894,3.0107791767431955,7.787617540066417,1.2837317706834048,35110,246,8700,19834,255.60527868386038,147.47734102562617,0.002810816467504438,False
0.18000000000000002,0.6422765994195365,2.800000000000001,7268.0,78.50388,0.3,68900.0,0.33,276.0,2700.0,27.30161339259279,2.444930693096193,6601.312871359722,16.483389631095548,4.7385347038009025,10.818223761497244,2.2936040107047093,2907,82,940,1491,293.4933350456065,169.3868402825209,0.0033934972768395262,True
0.19,0.6020032381707453,2.800000000000001,7269.0,78.50388,0.2,68900.0,0.33,276.0,2700.0,24.526585175333494,2.3156601356493294,6252.282366253189,15.145146092147916,4.101777789561878,9.381439083185578,1.786117653912549,5111,110,1676,2591,257.74275826719594,148.80682006383503,0.002986969624659109,False
0.2,0.8089777424536752,2.800000000000001,7270.0,78.50388,0.3,68900.0,0.33,276.0,2700.0,37.83026149205429,3.7662709883862835,10168.931668642965,22.456278045838342,7.974475967229832,15.373983446215949,4.208204978843549,3755,98,1228,1907,326.93661086050656,188.74700678042282,0.004142589539120381,True
0.21000000000000002,0.5681289559805651,2.800000000000001,7271.0,78.50388,0.1,68900.0,0.33,276.0,2700.0,21.963350965124786,2.286755658294837,6174.24027739606,14.05110048452272,3.6073582501890322,7.912250480602065,1.320602591894195,24073,204,5922,13630,229.99928247038932,132.72722565632165,0.0025793151679015342,False
0.22,0.8384100312757801,2.800000000000001,7272.0,78.50388,0.3,68900.0,0.33,276.0,2700.0,39.268782661613486,4.297264973727198,11602.615429063433,23.5833758961083,8.651948764569568,15.685406765505185,4.35468379084237,3831,100,1264,1929,304.8625945080988,175.9180325364414,0.003979791548534918,True
0.23,0.8398969888044847,2.800000000000001,7273.0,78.50388,0.3,68900.0,0.33,276.0,2700.0,39.04513170683166,4.464707641074824,12054.710630902026,23.64089609259419,8.687059001069366,15.404235614237471,4.222351359994542,3893,100,1284,1961,292.6035805489108,168.833758782724,0.0038303360091434683,True
0.24000000000000005,0.8113163268571388,2.800000000000001,7274.0,78.50388,0.3,68900.0,0.33,276.0,2700.0,36.69785161586235,4.374789276007915,11811.93104522137,22.5450369931542,8.0270956271868,14.15281462270815,3.6523063511788845,3445,94,1136,1735,274.3267865334727,158.10437519642375,0.0035170039430155336,False
0.25,0.9036622336501245,2.800000000000001,7275.0,78.50388,0.3,68900.0,0.33,276.0,2700.0,43.02893690796989,5.345892190021342,14433.908913057623,26.15982286436085,10.27429350635679,16.86911404360904,4.928401316335448,4072,104,1342,2053,289.64808209272223,167.22522373281143,0.0039047267129626016,True
0.26,0.6649908679434022,2.800000000000001,7276.0,78.50388,0.3,68900.0,0.33,276.0,2700.0,26.4422184687313,3.4006773126154033,9181.82874406159,17.256141001866382,5.1216945385949915,9.18607746686492,1.7210172259795882,2657,80,874,1340,1052.7346210885946,587.4301312840973,0.002531640182052141,True
0.27,0.6143763041353396,2.800000000000001,7277.0,78.50388,0.2,68900.0,0.33,276.0,2700.0,23.10084622945625,3.077390262176187,8308.953707875704,15.551952642248745,4.291682436083569,7.548893587207504,1.2142921739073822,4753,106,1578,2380,193.34880763002266,111.48464732884275,0.0022670215091399374,False
0.28,0.6618340999284962,2.800000000000001,7278.0,78.50388,0.1,68900.0,0.33,276.0,2700.0,25.697689255123013,3.5517003344294875,9589.590902959617,17.147970263671272,5.067391705467841,8.54971899145174,1.5156913710383537,31354,222,6950,18425,1775.541418167098,974.25293721109,0.0026946647784147474,True
0.29000000000000004,0.6099299515782496,2.800000000000001,7279.0,78.50388,0.05,68900.0,0.33,276.0,2700.0,22.32005553409235,3.1853278502911238,8600.385195786033,15.40532080532311,4.222859144213494,6.914734728769242,1.0375312939223704,192688,410,24142,127507,216.158175629656,122.79375698883325,0.0021601102961381325,False
0.3,0.9205314593500769,2.800000000000001,7280.0,78.50388,0.3,68900.0,0.33,276.0,2700.0,42.59906076456836,6.333310446920634,17099.93820668571,26.843303377764432,10.721344301927624,15.755757386803925,4.388033855006991,4028,104,1330,2027,251.94105244289545,145.41799448921395,0.003396070914536847,False
0.31,0.9260088007465408,2.800000000000001,7281.0,78.50388,0.3,68900.0,0.33,276.0,2700.0,42.672677552802654,6.551870896189021,17690.051419710355,27.066763724222493,10.86898587887349,15.60591382858016,4.317114982684469,3986,104,1318,2003,247.4908078559893,142.86509976812064,0.0033222649296971605,False
0.32,0.8217961993976994,2.800000000000001,7282.0,78.50388,0.3,68900.0,0.33,276.0,2700.0,34.936744324463426,5.521249953198933,14907.37487363712,22.94447959994604,8.265455384491567,11.992264724517387,2.7442054312926336,3545,94,1176,1775,216.11886654268383,124.49373312281904,0.0027700098520656363,False
0.33,0.9545911140135689,2.800000000000001,7283.0,78.50388,0.3,68900.0,0.33,276.0,2700.0,44.13577493309062,7.2071365871652535,19459.268785346183,28.245076287387032,11.659407143451608,15.89069864570359,4.452270556286354,4120,106,1356,2080,239.20820249808196,138.062659445769,0.00327411200218528,False
0.34,0.8357738454709562,2.800000000000001,7284.0,78.50388,0.3,68900.0,0.33,276.0,2700.0,35.292355227992545,5.9173822836542564,15976.932165866492,23.48153652197569,8.589912875928219,11.810818706016853,2.6725305922739624,3498,94,1162,1749,207.29516421063494,119.60934956361524,0.002685317902896268,False
0.3500000000000001,0.8416445111488629,2.800000000000001,7285.0,78.50388,0.3,68900.0,0.33,276.0,2700.0,35.395500573052125,6.104415410269014,16481.921607726337,23.708566785337776,8.728431112079074,11.686933787714349,2.62401570181006,3510,94,1162,1761,205.20487238115055,118.39350827712887,0.0026418585638070045,False
0.36000000000000004,0.8258684661337521,2.800000000000001,7286.0,78.50388,0.3,68900.0,0.33,276.0,2700.0,34.023748225062995,6.0265585826140855,16271.70817305803,23.100439612233203,8.359208839489188,10.923308612829793,2.3326502568751026,3548,92,1172,1784,197.9245946489295,113.69793683073658,0.002529350624678745,False
0.37,0.8971589974327598,2.800000000000001,7287.0,78.50388,0.3,68900.0,0.33,276.0,2700.0,38.66466235087709,7.046875139790735,19026.562877434986,25.898245106851057,10.105021125871366,12.76641724402603,3.05814598608063,3714,98,1232,1860,204.54270305038872,117.71721005449183,0.0027383595853353523,False
0.38,0.8836174736904466,2.800000000000001,7288.0,78.50388,0.3,68900.0,0.33,276.0,2700.0,37.40429631811115,6.991892652382601,18878.110161433022,25.356979353291194,9.757989407092085,12.047316964819956,2.7660967547094835,3590,96,1192,1796,198.83852257780282,114.32772651745194,0.0026195195024677712,False
0.39,0.8534167945762245,2.800000000000001,7289.0,78.50388,0.2,68900.0,0.33,276.0,2700.0,35.01798086113708,6.704268844842799,18101.52588107556,24.166434297440375,9.010226736029033,10.851546563696708,2.3059578911862335,9461,134,2346,5338,196.7720067415676,113.50287531208608,0.002490428770978743,False
0.4,0.715075391277685,2.800000000000001,7290.0,78.50388,0.08,68900.0,0.33,276.0,2700.0,25.796451848711374,5.025249083189116,13568.172524610613,19.00586100082884,6.029513951997983,6.790590847882534,1.0042648688088676,75791,278,10986,49068,198.6163790449778,114.41430306739396,0.002159035135267872,False
0.4100000000000001,1.011119228644925,2.800000000000001,7291.0,78.50388,0.3,68900.0,0.33,276.0,2700.0,45.75214807730808,9.234842550996126,24934.074887689538,30.63591952944565,13.323244670281698,15.116228547862427,4.088402119285572,4444,110,1474,2223,207.55164612845505,119.63511403796358,0.0029203470068690464,False
0.42000000000000004,0.7763756131909909,2.800000000000001,7292.0,78.50388,0.2,68900.0,0.33,276.0,2700.0,29.09886859163013,5.955592859896218,16080.100721719788,21.23320731859969,7.262363419175622,7.86566127303044,1.3067705592794043,8058,122,2032,4514,174.25324318418936,100.38435816238868,0.002106160115863248,False
0.43,0.9627695412411511,2.800000000000001,7293.0,78.50388,0.3,68900.0,0.33,276.0,2700.0,41.52586435450151,8.761541764811852,23656.162764992,28.58601188360009,11.891800457194673,12.939852470901418,3.130258692382821,4057,104,1354,2020,192.59637147524666,110.6573126104744,0.0026326419001486364,False
0.44,0.9768745529791676,2.800000000000001,7294.0,78.50388,0.3,68900.0,0.33,276.0,2700.0,42.245209114182906,9.115537052717977,24611.95004233854,29.177959808492083,12.299175329255357,13.067249305690822,3.18363827653738,4091,104,1354,2046,190.78371031605104,109.83246988218974,0.002627345677855978,False
0.45,1.1172437537051945,2.800000000000001,7295.0,78.50388,0.3,68900.0,0.33,276.0,2700.0,52.67483699838503,11.660986570931051,31484.66374151384,35.34134480204857,16.82164433164659,17.333492196336465,5.160657760715537,4769,116,1572,2397,209.3446247149836,120.6070012991923,0.0030627731206420124,False
0.46,1.1251726019034536,2.800000000000001,7296.0,78.50388,0.3,68900.0,0.33,276.0,2700.0,52.96663965118791,11.978467078086672,32341.861110834012,35.70426367591354,17.103298210061773,17.262375975274374,5.124831131975101,4720,116,1562,2365,205.8972475417704,118.09455391518054,0.0030364822847972883,False
0.4700000000000001,1.0779652387221883,2.800000000000001,7297.0,78.50388,0.3,68900.0,0.33,276.0,2700.0,48.907478212133235,11.275810997135324,30444.689692265372,33.566791432448895,15.468466619045465,15.34068677968434,4.192655621910141,4666,112,1502,2371,197.60986404845067,113.6011429271287,0.002822055620081286,False
0.4800000000000001,1.0884441099054143,2.800000000000001,7298.0,78.50388,0.2,68900.0,0.33,276.0,2700.0,49.392852608191504,11.622661282802065,31381.185463565576,34.036421133228345,15.822666887152147,15.35643147496316,4.200005604350082,13434,166,3312,7594,202.2887650332491,116.6602646547214,0.002838702167276666,False
0.49,1.0437963930057954,2.800000000000001,7299.0,78.50388,0.3,68900.0,0.33,276.0,2700.0,45.65150393446228,10.938214974541767,29533.180431262772,32.05462313271916,14.347446174654193,13.596880801743126,3.4092312001124263,4285,106,1378,2178,197.63829265810688,113.92320584889774,0.0026153657958419745,False
0.5,0.9360005399581799,2.800000000000001,7300.0,78.50388,0.3,68900.0,0.33,276.0,2700.0,37.535686111917435,9.122122140180212,24629.72977848657,27.476341284366928,11.141474030183945,10.059344827550508,2.0193518900037333,3863,96,1170,2020,180.3572024144392,103.70956404339591,0.002261276510954653,False
0.01,0.6072360267187087,2.800000000000001,7301.0,81.52326,0.05,68900.0,0.33,276.0,2700.0,30.30615690240639,0.15152869011695802,409.12746331578666,15.316722256594408,4.181477747389684,14.989434645811981,4.0299490572727255,98048,496,32522,49259,5671.707884630784,3229.5190688101534,0.05052961495064058,True
0.02,0.3674378821658675,2.800000000000001,7302.0,81.52326,0.05,68900.0,0.33,276.0,2700.0,15.790269844818381,0.15788594328736497,426.29204687588543,8.160898048988377,1.3954127790110729,7.629371795830004,1.237526835723708,51779,340,16990,26288,1708.336470305481,973.3206664501265,0.013750101077974084,True
0.03,0.6188876005411901,2.800000000000001,7303.0,81.52326,0.1,68900.0,0.33,276.0,2700.0,30.41935993521012,0.4562338503603876,1231.8313959730465,15.701234012441104,4.362178438104249,14.718125922769017,3.9059445877438614,24726,248,8128,12528,1844.6504738741723,1051.11730014135,0.017734712187391036,True
0.04,0.7309831961479228,2.800000000000001,7304.0,81.52326,0.1,68900.0,0.33,276.0,2700.0,37.73112039492443,0.754488366611821,2037.1185898519166,19.574797708399263,6.336372316054688,18.15632268652517,5.581883949442867,30792,282,10112,15618,7824.540507077716,4227.830089645498,0.01692089603626238,True
0.05,0.6919182720458182,2.800000000000001,7305.0,81.52326,0.2,68900.0,0.33,276.0,2700.0,34.660326237091994,0.8662463565395024,2338.8651626566566,18.189023198849355,5.598876776198817,16.471303038242638,4.732630419659315,7321,138,2406,3706,1100.7292349572576,627.8046533626214,0.012653296692388549,True
0.06000000000000001,0.636349464769617,2.800000000000001,7306.0,81.52326,0.1,68900.0,0.33,276.0,2700.0,30.597828768683996,0.9174824737184057,2477.2026790396953,16.283878675911883,4.641427134225002,14.313950092772114,3.7239446605065964,25435,250,8352,12901,965.4418520940784,551.0734925724374,0.009584934004750807,True
0.06999999999999999,0.690907163225112,2.800000000000001,7307.0,81.52326,0.2,68900.0,0.33,276.0,2700.0,33.92189294443352,1.1865478755350571,3203.6792639446544,18.153664707439347,5.580503572208679,15.768228236994176,4.393955696673622,7024,134,2302,3565,802.069087136219,458.01620037560167,0.009248584819116867,True
0.08,0.46615018745570586,2.800000000000001,7308.0,81.52326,0.1,68900.0,0.33,276.0,2700.0,19.59886961867745,0.7828824544546725,2113.782627027616,10.931564459178603,2.3357287486947613,8.667305159498849,1.552846294240089,16576,196,5452,8392,479.5744063302065,275.5696336501514,0.004999728423648906,True
0.09,0.7476735801977343,2.800000000000001,7309.0,81.52326,0.1,68900.0,0.33,276.0,2700.0,37.18434737475826,1.671768817834482,4513.775808153102,20.178560132755265,6.668111983146049,17.005787242002995,4.996343165311567,30430,280,10012,15406,732.7057449527316,420.37493976523996,0.008120002138833139,True
0.09999999999999999,0.7054953242834796,2.800000000000001,7310.0,81.52326,0.3,68900.0,0.33,276.0,2700.0,33.925872434259794,1.6941992266105792,4574.337911848564,18.6663018782276,5.849064871367329,15.259570556032195,4.154865644756749,3382,92,1108,1714,577.5449210131641,333.4304823895623,0.006846996242516918,True
0.11,0.44466412583630754,2.800000000000001,7311.0,81.52326,0.08,68900.0,0.33,276.0,2700.0,17.60279369344377,0.9653660132581237,2606.488235796934,10.30764040426927,2.1075760909007277,7.295153289174499,1.142210077642604,22306,226,7374,11239,2779.373552682273,1505.8995590813195,0.0035314210358822484,True
0.12,0.7789064135668073,2.800000000000001,7312.0,81.52326,0.3,68900.0,0.33,276.0,2700.0,38.375067234434496,2.298884919329136,6206.989282188668,21.327194080413854,7.3162193251539716,17.047873154020643,5.017334405824835,3869,100,1272,1955,525.9919222553466,303.5017264695308,0.006576001106019986,True
0.13,0.7099487424101723,2.800000000000001,7313.0,81.52326,0.3,68900.0,0.33,276.0,2700.0,33.25343452127014,2.156871857842602,5823.554016175026,18.8238634267126,5.932544377252103,14.429571094557538,3.7756725194095013,3384,92,1108,1716,451.8736856003881,260.794729216212,0.0054107950394534175,True
0.14,0.8107367817619812,2.800000000000001,7314.0,81.52326,0.3,68900.0,0.33,276.0,2700.0,39.97670303971528,2.792622192619096,7540.079920071559,22.523028049888055,8.0140361395717,17.453674989827228,5.221413946952605,3930,102,1294,1983,471.64916437591955,272.2017568435972,0.0060074187046554655,True
0.15000000000000002,0.6226594310083189,2.800000000000001,7315.0,81.52326,0.2,68900.0,0.33,276.0,2700.0,26.949312033993763,2.0141298190789576,5438.150511513186,15.826438638579537,4.421636843848892,11.122873395414226,2.407507024769935,5492,116,1812,2768,343.3396158205335,198.08677854920816,0.004000106826516136,True
0.16,0.840274177655107,2.800000000000001,7316.0,81.52326,0.3,68900.0,0.33,276.0,2700.0,41.43888067552609,3.3065318117026905,8927.635891597265,23.655495780161875,8.695978836801508,17.783384895364218,5.389447025098818,4133,104,1360,2087,428.48184926838155,247.0885688377925,0.005565858208601845,True
0.17,0.7990825603073096,2.800000000000001,7317.0,81.52326,0.3,68900.0,0.33,276.0,2700.0,38.12271131257178,3.2301406984305188,8721.3798857624,22.082236196746873,7.754119640974413,16.040475115824908,4.523978942543895,3842,100,1266,1937,387.9759922030252,223.74316110380366,0.004921104532901151,True
0.18000000000000002,0.7666663052621985,2.800000000000001,7318.0,81.52326,0.3,68900.0,0.33,276.0,2700.0,35.5203574224706,3.1846176557851944,8598.467670620024,20.874124531995854,7.0579488106828325,14.64623289047475,3.873331154897638,3739,98,1226,1894,355.9033096420684,205.47488370333573,0.004419497097440911,True
0.19,0.8198793632783703,2.800000000000001,7319.0,81.52326,0.3,68900.0,0.33,276.0,2700.0,38.938311806049576,3.6847741655674,9948.890247031979,22.87121271336933,8.221544812313182,16.067099092680245,4.536770646745782,4031,102,1326,2036,356.1718270221361,205.4734093274514,0.00459336733504037,True
0.2,0.8874707631422765,2.800000000000001,7320.0,81.52326,0.3,68900.0,0.33,276.0,2700.0,43.54421515397582,4.3376663545784275,11711.699157361754,25.510529354521807,9.85599290463775,18.033685799454013,5.518326550059323,4186,106,1376,2116,368.79263307338863,212.49859025355374,0.004867499177687351,True
0.21000000000000002,0.8984747286353704,2.800000000000001,7321.0,81.52326,0.3,68900.0,0.33,276.0,2700.0,44.01978929579829,4.6026816830154695,12427.240544141769,25.951081605973506,10.139131009596124,18.068707689824784,5.536449326580654,4185,106,1376,2115,352.41593529843317,202.8977829417332,0.004728649439974628,True
0.22,0.8302756972001502,2.800000000000001,7322.0,81.52326,0.3,68900.0,0.33,276.0,2700.0,38.686402725640704,4.233203180770192,11429.648588079519,23.26969773564893,8.461390615135546,15.416704989991775,4.228187434365354,3892,100,1284,1960,312.55951845830145,180.2510296370129,0.004077086395299866,True
0.23,0.600152858928389,2.800000000000001,7323.0,81.52326,0.2,68900.0,0.33,276.0,2700.0,23.31846642024607,2.6561411331174805,7171.581059417197,15.084639323914175,4.073809519113496,8.233827096331897,1.4176683859960155,4737,106,1566,2382,225.1746790477006,129.92942034379914,0.0026226158200368275,False
0.24000000000000005,0.7048317758348359,2.800000000000001,7324.0,81.52326,0.1,68900.0,0.33,276.0,2700.0,29.53581382681524,3.5153447413223424,9491.430801570325,18.64286825874661,5.8366866509969215,10.89294556806863,2.321341909674579,32922,246,8144,18610,255.68458601608373,147.5010583859923,0.00308395105235395,False
0.25,0.9447531027675393,2.800000000000001,7325.0,81.52326,0.3,68900.0,0.33,276.0,2700.0,46.12547892557466,5.732959942221938,15478.991843999233,27.83718464571212,11.383540180824706,18.28829427986254,5.650580238602768,4314,108,1416,2184,313.2441891555163,180.6524299457762,0.004311427227405474,True
0.26,0.6839918661304619,2.800000000000001,7326.0,81.52326,0.3,68900.0,0.33,276.0,2700.0,27.63082513086816,3.5551961786931976,9599.029682471633,17.912525465102764,5.455800054764841,9.718299665765397,1.900603876071643,2832,82,928,1434,229.62392765810588,132.44200045417796,0.002752332811376742,False
0.27,0.93751765536751,2.800000000000001,7327.0,81.52326,0.3,68900.0,0.33,276.0,2700.0,44.88165482010763,6.017799421914129,16248.058439168148,27.53874971228467,11.183206144018987,17.342905107822958,5.1654067221048585,4081,106,1346,2056,290.30385483274796,167.55113760916623,0.003978134384980228,True
0.28,0.588536954926281,2.800000000000001,7328.0,81.52326,0.05,68900.0,0.33,276.0,2700.0,21.331090831185232,2.940376555078198,7939.016698711135,14.706768906762148,3.9007857326635884,6.624321924423084,0.9604091775853902,177075,396,22790,116718,225.35222839498948,128.23343484183903,0.0022175805083404785,False
0.29000000000000004,0.9672040684366933,2.800000000000001,7329.0,81.52326,0.3,68900.0,0.33,276.0,2700.0,46.44857872615666,6.6839637131404555,18046.70202547923,28.77157770072998,12.018977169993931,17.67700102542668,5.335013456853476,4570,112,1512,2296,281.029054430022,162.21984402663247,0.0038814950567309255,True
0.3,0.888305469074939,2.800000000000001,7330.0,81.52326,0.3,68900.0,0.33,276.0,2700.0,40.243113817617136,5.979918404877953,16145.779693170472,25.543840783125187,9.877300596240838,14.699273034491949,3.897382191362885,3914,102,1290,1973,254.45854067632905,146.863741860614,0.0033642886265037703,False
0.31,0.9515659385089097,2.800000000000001,7331.0,81.52326,0.3,68900.0,0.33,276.0,2700.0,44.57881291895301,6.847321877942325,18487.76907044428,28.119391151436563,11.574150998321354,16.45942176751645,4.726829120379029,4135,106,1362,2086,260.11520598689145,150.01208460194658,0.0035799038642040345,False
0.32,0.6892828025401729,2.800000000000001,7332.0,81.52326,0.1,68900.0,0.33,276.0,2700.0,26.307350266001897,4.140546903845079,11179.476640381714,18.096914584705882,5.551061573280942,8.210435681296016,1.4105146694358623,37431,226,7148,22901,202.43021555240628,116.84069490522639,0.0023744047010353145,False
0.33,0.6871438657351081,2.800000000000001,7333.0,81.52326,0.08,68900.0,0.33,276.0,2700.0,25.908353420320488,4.199612037558175,11338.952501407073,18.02228792125493,5.512433247971364,7.886065499065559,1.3128212104131887,65822,280,10944,41432,201.74660387428682,114.63722050902517,0.0023095810272567296,False
0.34,0.8407671069322984,2.800000000000001,7334.0,81.52326,0.3,68900.0,0.33,276.0,2700.0,35.63577565112389,5.975763755586601,16134.562140083823,23.67458077273456,8.707644026762974,11.961194878389332,2.731880271176373,3502,94,1162,1753,218.90754432167256,126.30906346131073,0.002809405886279544,False
0.3500000000000001,1.0308926139490198,2.800000000000001,7335.0,81.52326,0.3,68900.0,0.33,276.0,2700.0,49.29603286047093,8.537008560567314,23049.923113531746,31.491189558295076,13.937460111147448,17.804843302175854,5.400451550580135,4683,114,1546,2358,253.1564115587687,146.08119352682124,0.003565027613945971,False
0.36000000000000004,1.0497395853879845,2.800000000000001,7336.0,81.52326,0.3,68900.0,0.33,276.0,2700.0,50.428402083006844,8.979396277043985,24244.36994801876,32.31553562478916,14.53872785357703,18.11286645821768,5.559331576533044,4646,114,1538,2333,250.08327809682416,144.02533238764698,0.0035620823315833062,False
0.37,0.7756108919679027,2.800000000000001,7337.0,81.52326,0.3,68900.0,0.33,276.0,2700.0,30.40814067000341,5.5194186288291105,14902.430297838599,21.20483940633872,7.246136782613767,9.203301263664688,1.726718153784656,3182,88,1058,1589,187.8298523237833,108.04405961576067,0.0023694557617426077,False
0.38,0.8521756525874739,2.800000000000001,7338.0,81.52326,0.1,68900.0,0.33,276.0,2700.0,35.22661580653061,6.578133355182298,17760.960058992205,24.117997458328198,8.980262822204994,11.108618348202413,2.4021294670226956,53927,268,9486,33532,209.06031943432964,120.64012313101038,0.0026466811456769975,False
0.39,0.8092836618057807,2.800000000000001,7339.0,81.52326,0.2,68900.0,0.33,276.0,2700.0,32.05345731431648,6.126186753212791,16540.704233674536,22.46788113595115,7.981347552005408,9.585576178365333,1.8551607987926166,8756,130,2214,4905,201.86102854983673,116.38271787227782,0.0024313074727289365,False
0.4,0.894633967017045,2.800000000000001,7340.0,81.52326,0.2,68900.0,0.33,276.0,2700.0,37.573546203827085,7.380667954212257,19927.803476373094,25.79696802227761,10.039755166840148,11.776578181549475,2.6590872126278917,10570,142,2626,5961,209.2122849891913,120.77489055786734,0.0026852217105840814,False
0.4100000000000001,0.8402922112818614,2.800000000000001,7341.0,81.52326,0.3,68900.0,0.33,276.0,2700.0,33.552970798755844,6.73401120889291,18181.830264010856,23.6561938896063,8.696405437477807,9.896776909149544,1.9623942285848974,3430,92,1132,1722,182.056484775093,104.95913249782602,0.0024090722494035832,False
0.42000000000000004,0.75582892923803,2.800000000000001,7342.0,81.52326,0.2,68900.0,0.33,276.0,2700.0,27.801580005910793,5.683162256895156,15344.538093616922,20.476120182651435,6.833887401172166,7.325459823259358,1.1507251442770103,7432,116,1846,4187,178.93703109641464,103.30115435483367,0.0021205806329901346,False
0.43,0.8785074701533593,2.800000000000001,7343.0,81.52326,0.2,68900.0,0.33,276.0,2700.0,35.57231949363412,7.481529619725357,20200.129973258467,25.153926035136646,9.62893423395556,10.418393458497473,2.1474046142302026,9627,136,2404,5413,194.82064149893685,112.45479278379699,0.0024770990227234277,False
0.44,0.7967591758959316,2.800000000000001,7344.0,81.52326,0.08,68900.0,0.33,276.0,2700.0,29.870614638672354,6.393126268105656,17261.44092388527,21.99476807475669,7.702915754929766,7.875846563915665,1.3097894868241093,94191,300,12500,61785,195.39966198159095,111.58972387839619,0.002184310086956754,False
0.45,0.9594184179779797,2.800000000000001,7345.0,81.52326,0.3,68900.0,0.33,276.0,2700.0,40.66932930635073,8.959747340223334,24191.317818603,28.44610970854369,11.796239701305744,12.223219597807041,2.83649236108241,3974,102,1316,1986,188.7745742539739,108.12288878611868,0.002611532203439391,False
0.46,1.159129019571263,2.800000000000001,7346.0,81.52326,0.3,68900.0,0.33,276.0,2700.0,55.718316235497916,12.611352692477972,34050.65226969052,37.2763880754774,18.34229695437492,18.441928160020517,5.730944261896948,5335,122,1742,2692,229.8543542487102,132.51101047931914,0.0032818265245492186,False
0.4700000000000001,0.78359268893777,2.800000000000001,7347.0,81.52326,0.08,68900.0,0.33,276.0,2700.0,28.254446416275943,6.422348525109082,17340.341017794522,21.501654091656484,7.4165729977846855,6.75279232461946,0.9942244726756035,95031,290,11922,62848,188.94841496823943,106.56158435518353,0.002042541763627747,False
0.4800000000000001,0.8322570998711007,2.800000000000001,7348.0,81.52326,0.1,68900.0,0.33,276.0,2700.0,31.102481346189215,7.2329721799211875,19529.024885787207,23.34595186318275,8.507572785155752,7.756529483006464,1.2746006052345642,56867,248,8502,36626,1160.9228501591826,648.9892952971616,0.002168916985794523,True
0.49,1.1637998298213332,2.800000000000001,7349.0,81.52326,0.3,68900.0,0.33,276.0,2700.0,55.05422191668332,13.241880880185953,35753.078376502075,37.49490587821991,18.516918004059807,17.559316038463407,5.2750371238738545,5667,122,1738,2944,220.2623711185024,126.79552445944076,0.003139015963436448,False
0.5,1.1029970944083731,2.800000000000001,7350.0,81.52326,0.3,68900.0,0.33,276.0,2700.0,49.8708977978805,12.205925061670982,32955.99766651165,34.69321742461953,16.322771114289324,15.17768037326097,4.116846052618342,5175,114,1554,2716,210.98952896111484,121.67419022133504,0.002877946758422084,False
0.01,0.3278292446853543,2.800000000000001,7351.0,84.54263999999999,0.05,68900.0,0.33,276.0,2700.0,13.978947885079823,0.06989264503029678,188.7101415818013,7.118006456179123,1.0929546294390988,6.860941428900699,1.023061984408802,45680,318,15124,22988,2899.3520853135706,1652.4897518798512,0.024368203566213265,True
0.02,0.6982360779712085,2.800000000000001,7352.0,84.54263999999999,0.1,68900.0,0.33,276.0,2700.0,36.12327409400018,0.3612159857791779,975.2831616037804,18.410538828120302,5.714490712968946,17.71273526587988,5.353274727189768,29009,274,9608,14591,88711.66865845946,45654.968207836704,0.03991936134696546,True
0.03,0.6353978592431642,2.800000000000001,7353.0,84.54263999999999,0.1,68900.0,0.33,276.0,2700.0,31.508302094523344,0.4725679827490862,1275.9335534225327,16.251929312990313,4.62594650868496,15.256372781533031,4.1533785259358735,26097,254,8596,13197,1992.1868364501488,1135.036519123189,0.019025502639795286,True
0.04,0.552873148826484,2.800000000000001,7354.0,84.54263999999999,0.1,68900.0,0.33,276.0,2700.0,25.896178430409055,0.5177895273216265,1398.0317237683917,13.56779885155035,3.396691385574171,12.328379578858705,2.8789018582525445,21482,228,7050,10901,1295.3603907549546,739.122063287686,0.012143103240649588,True
0.05,0.37971381426255485,2.800000000000001,7355.0,84.54263999999999,0.1,68900.0,0.33,276.0,2700.0,15.658859672024715,0.3912096924128178,1056.266169514608,8.492126070117738,1.4976246010994676,7.1667336019069765,1.10641490868665,13032,170,4270,6621,660.6667058728731,378.5424139441389,0.006274134225318616,True
0.06000000000000001,0.7373405114686822,2.800000000000001,7356.0,84.54263999999999,0.2,68900.0,0.33,276.0,2700.0,37.48566739418814,1.1241176324835274,3035.117607705524,19.803943443957106,6.461543315153159,17.681723950231035,5.3374256826696325,7878,144,2582,3999,1014.3609138019458,578.6928617552655,0.012022209488170219,True
0.06999999999999999,0.5060217875660347,2.800000000000001,7357.0,84.54263999999999,0.2,68900.0,0.33,276.0,2700.0,22.180072068381566,0.7755841448732343,2094.0771911577326,12.120120598793873,2.795149778335966,10.059951469587693,2.019565633462731,4542,104,1484,2310,616.2424213830865,355.7855169173243,0.006488637861404118,True
0.08,0.4914639782393877,2.800000000000001,7358.0,84.54263999999999,0.2,68900.0,0.33,276.0,2700.0,21.047899032562917,0.8408436310100927,2270.2778037272506,11.681527364252705,2.621906313681523,9.366371668310212,1.7810626826714304,4526,102,1476,2306,520.0766602630544,300.266307769181,0.0055312518362596605,True
0.09,0.47778631054844484,2.800000000000001,7359.0,84.54263999999999,0.2,68900.0,0.33,276.0,2700.0,19.986305418281507,0.8978569297930221,2424.2137104411595,11.27430384361094,2.4649205574019994,8.712001574670566,1.5670636276089773,4452,102,1454,2265,462.04949087238504,266.76200632691337,0.004795473522225724,True
0.09999999999999999,0.4549045701394912,2.800000000000001,7360.0,84.54263999999999,0.2,68900.0,0.33,276.0,2700.0,18.430193743758785,0.9194152920855475,2482.4212886309783,10.603560904066601,2.21464383792371,7.826632839692184,1.2952285458381625,3954,96,1300,1998,396.513219941219,228.92480311221485,0.00410220413359714,True
0.11,0.6796671881501383,2.800000000000001,7361.0,84.54263999999999,0.2,68900.0,0.33,276.0,2700.0,31.862489087243503,1.7496492599171076,4724.05300177619,17.76233301458908,5.378659086708247,14.100156072654425,3.629009826791139,6792,130,2220,3456,534.1840453643459,306.71621271489806,0.006184358855340808,True
0.12,0.5534143744713957,2.800000000000001,7362.0,84.54263999999999,0.1,68900.0,0.33,276.0,2700.0,23.570436480969352,1.4106070741212282,3808.639100127316,13.58484471961802,3.4040392387560603,9.985591761351332,1.993432164634832,19201,214,6324,9709,385.0218783362981,222.2426651619527,0.004397693598942057,True
0.13,0.4948121133921368,2.800000000000001,7363.0,84.54263999999999,0.08,68900.0,0.33,276.0,2700.0,19.87246883336976,1.287109088129078,3475.194537948511,11.781927323077017,2.6611856437951675,8.090541510292741,1.3740765556660894,25495,242,8326,12910,326.9000312754427,188.67631881145348,0.0035740984977788875,True
0.14,0.5072047449385406,2.800000000000001,7364.0,84.54263999999999,0.1,68900.0,0.33,276.0,2700.0,20.31063858177796,1.4159976805634902,3823.1937375214234,12.155994371391753,2.8095085794587615,8.15464421038621,1.3935108988952714,16584,196,5478,8361,310.4960137296107,179.07045352220942,0.0034424679042185722,True
0.15000000000000002,0.8450605825221089,2.800000000000001,7365.0,84.54263999999999,0.3,68900.0,0.33,276.0,2700.0,42.14014553898265,3.153442331953119,8514.294296273421,23.84107168532136,8.809647507982026,18.29907385366129,5.656205176028907,4144,104,1364,2092,475.9420367141869,274.4968302069818,0.006177718734664553,True
0.16,0.4855552894766524,2.800000000000001,7366.0,84.54263999999999,0.08,68900.0,0.33,276.0,2700.0,18.564362092437438,1.4765703250555926,3986.7398776501,11.505031846575319,2.553405664801721,7.059330245862119,1.0768353397461283,32220,234,7926,18263,272.21208004691744,157.01427774648627,0.002924360322204987,False
0.17,0.5721516538318313,2.800000000000001,7367.0,84.54263999999999,0.08,68900.0,0.33,276.0,2700.0,23.286843152855493,1.9690919048546602,5316.548143107582,14.179513478202786,3.664139728916826,9.107329674652707,1.6950478240621658,39675,264,9770,22472,295.74057270810545,170.50196340799758,0.0033582710562546406,True
0.18000000000000002,0.841809301981536,2.800000000000001,7368.0,84.54263999999999,0.3,68900.0,0.33,276.0,2700.0,40.862073592809665,3.6653721111157083,9896.504700012412,23.714952071418164,8.732338592650047,17.1471215213915,5.0669664815343385,4034,102,1318,2051,400.35722416544775,231.1328504578153,0.005188756828033489,True
0.19,0.6770518267929093,2.800000000000001,7369.0,84.54263999999999,0.3,68900.0,0.33,276.0,2700.0,29.221382986809505,2.761665927739586,7456.498004896882,17.671731789840972,5.332322682266135,11.549651196968533,2.570656754526549,3032,86,992,1538,315.9549487046459,182.32969934820693,0.0037210803288876384,True
0.2,0.8871440175418837,2.800000000000001,7370.0,84.54263999999999,0.3,68900.0,0.33,276.0,2700.0,43.51978757985037,4.335223597165888,11705.103712347898,25.497494366196854,9.847659581043072,18.02229321365352,5.512435983877183,4176,106,1372,2112,382.2267587519857,220.23467738538065,0.005045564394991769,True
0.21000000000000002,0.5303223950310724,2.800000000000001,7371.0,84.54263999999999,0.2,68900.0,0.33,276.0,2700.0,19.788904509333193,2.058438780436723,5557.784707179152,12.864108092752335,3.0986856909265703,6.9247964165808575,1.0402469104898473,4240,100,1398,2137,226.7322532737278,130.86841415885561,0.0025466834065260196,False
0.22,0.7312908201931779,2.800000000000001,7372.0,84.54263999999999,0.3,68900.0,0.33,276.0,2700.0,31.86603964401346,3.4829632417911975,9404.000752836233,19.585862451904305,6.3423956963397465,12.280177192109154,2.859432454548549,3186,88,1044,1614,293.07613788904604,168.9220580927856,0.003587932639749252,True
0.23,0.9146038741167153,2.800000000000001,7373.0,84.54263999999999,0.3,68900.0,0.33,276.0,2700.0,44.53614182106038,5.096173804211128,13759.669271370047,26.602323863612465,10.562942982722161,17.933817957447918,5.466769178511033,4310,108,1420,2174,339.7130796103831,196.12795933285042,0.004622695741186438,True
0.24000000000000005,0.866924988392879,2.800000000000001,7374.0,84.54263999999999,0.3,68900.0,0.33,276.0,2700.0,40.66457228668219,4.850795756505884,13097.148542565888,24.696109100618038,9.340243926940428,15.968463186064149,4.489448170434543,4056,104,1338,2043,315.044520090864,181.72539248465282,0.004133474272599933,True
0.25,0.8750987290483463,2.800000000000001,7375.0,84.54263999999999,0.3,68900.0,0.33,276.0,2700.0,40.92644041969573,5.083080128987063,13724.316348265069,25.018839724006043,9.543421332412507,15.907600695689688,4.460341203425444,4050,104,1334,2043,302.6211112092188,174.59716918802098,0.004031336304575829,True
0.26,0.6449128390468353,2.800000000000001,7376.0,84.54263999999999,0.1,68900.0,0.33,276.0,2700.0,25.205958093347167,3.2399634638154673,8747.901352301762,16.572410746571098,4.782106170862846,8.63354734677607,1.542142707047379,29296,224,7002,16773,232.301532495555,133.94516312437767,0.0026932627697938125,False
0.27,0.7320378275063204,2.800000000000001,7377.0,84.54263999999999,0.3,68900.0,0.33,276.0,2700.0,30.423990671363807,4.066014761833708,10978.239856951011,19.612741006829577,6.357036517191032,10.81124966453423,2.291021755357324,3182,86,1042,1613,248.74851198125666,142.58124253756785,0.00630301461585613,False
0.28,0.6278747750964749,2.800000000000001,7378.0,84.54263999999999,0.1,68900.0,0.33,276.0,2700.0,23.64102460248127,3.2637672830596443,8812.171664261039,16.000149208087677,4.504629850131714,7.640875394393593,1.2408625670720697,28902,212,6422,16967,217.22685305160803,125.12452289567689,0.0024627823355134987,False
0.29000000000000004,0.8619478511168346,2.800000000000001,7379.0,84.54263999999999,0.3,68900.0,0.33,276.0,2700.0,38.6734130374107,5.556564688272282,15002.72465833516,24.500415151827998,9.217815257810381,14.1729978855827,3.6612505695380992,3707,98,1224,1865,263.4971380951793,151.6663818777697,0.0034495325360732578,False
0.3,0.7347296225646976,2.800000000000001,7380.0,84.54263999999999,0.1,68900.0,0.33,276.0,2700.0,29.732791960150532,4.4033701262579665,11889.09934089651,19.7097125529934,6.409960469429535,10.023079407157134,2.0065903431715686,40872,244,8110,24777,266.349518050831,148.69224896948214,0.002788250852666427,False
0.31,0.9017772816728491,2.800000000000001,7381.0,84.54263999999999,0.3,68900.0,0.33,276.0,2700.0,40.895732703071545,6.276444444480695,16946.400000097874,26.083895602095975,10.225055070171834,14.81183710097557,3.9486106256911393,3943,102,1298,1990,260.381009042001,150.19380133605185,0.00345616593426236,False
0.32,1.00243532678548,2.800000000000001,7382.0,84.54263999999999,0.3,68900.0,0.33,276.0,2700.0,48.121828957842375,7.630863494539559,20603.33143525681,30.263414947742483,13.058824119852737,17.858414010099892,5.427960625313178,4538,112,1502,2279,274.8956876439917,158.4548345934675,0.003866045242428786,False
0.33,0.6866954520822943,2.800000000000001,7383.0,84.54263999999999,0.08,68900.0,0.33,276.0,2700.0,25.880811682838928,4.195067650873653,11326.682657358862,18.00665752490465,5.5043553126429705,7.874154157934278,1.3092876617693179,65023,278,10880,40875,204.37908098621844,117.93511572939241,0.0023934753638824237,False
0.34,0.9671604901586759,2.800000000000001,7384.0,84.54263999999999,0.3,68900.0,0.33,276.0,2700.0,44.74606942655065,7.524513697409153,20316.186983004714,28.769751733368576,12.017723393968323,15.976317693182072,4.49320969655917,4427,110,1464,2225,253.59476919837977,146.18818765880735,0.00348815011170027,False
0.3500000000000001,0.8621766062553733,2.800000000000001,7385.0,84.54263999999999,0.3,68900.0,0.33,276.0,2700.0,36.81654891727385,6.353098870507818,17153.36695037111,24.50939582825783,9.223420880835564,12.307153089016019,2.8703220103277456,3513,96,1166,1758,226.36096207913732,130.57936079427665,0.0029350218342339466,False
0.36000000000000004,0.8764819087224596,2.800000000000001,7386.0,84.54263999999999,0.1,68900.0,0.33,276.0,2700.0,37.51216751156327,6.654474054184132,17967.079946297155,25.073619075433122,9.578064762289024,12.438548436130148,2.923590708104892,56100,280,10162,34709,233.02546898847774,132.74718758811878,0.0029673836719692993,False
0.37,0.9489620095615424,2.800000000000001,7387.0,84.54263999999999,0.3,68900.0,0.33,276.0,2700.0,42.40923298160251,7.739620706474946,20896.975907482352,28.011391486473432,11.501070750424956,14.397841495129075,3.7614500439500107,4042,104,1340,2026,231.67792236969922,133.580731703264,0.0031611058568066413,False
0.38,0.8868681647201486,2.800000000000001,7388.0,84.54263999999999,0.2,68900.0,0.33,276.0,2700.0,37.63227558050971,7.035208712238328,18995.063523043485,25.48649175201864,9.84062754287003,12.145783828491073,2.8054188306317016,9603,138,2460,5359,223.89468049980584,129.25981629449012,0.00286740865120038,False
0.39,0.7803513925452313,2.800000000000001,7389.0,84.54263999999999,0.2,68900.0,0.33,276.0,2700.0,30.16313986867508,5.757574851312782,15545.45209854451,21.380928702015893,7.347075488649326,8.782211166659188,1.5895006373365437,8320,126,2110,4655,203.43409024329068,117.43096710009931,0.002414165422483025,False
0.4,0.7263603234080551,2.800000000000001,7390.0,84.54263999999999,0.2,68900.0,0.33,276.0,2700.0,26.488894968746486,5.16373770719613,13942.091809429552,19.408806816649637,6.2462644016398885,7.080088152096849,1.0825266944437582,7057,114,1778,3952,187.0814721704028,107.99246649740769,0.002185707461164541,False
0.4100000000000001,0.726792259233376,2.800000000000001,7391.0,84.54263999999999,0.1,68900.0,0.33,276.0,2700.0,26.258721329675154,5.238690067731367,14144.463182874691,19.424293345583116,6.25465110505528,6.834427984092038,1.0159610373239127,41627,222,7046,26068,184.77395269865963,106.67857478058724,0.002156521321321215,False
0.42000000000000004,0.7445002457367692,2.800000000000001,7392.0,84.54263999999999,0.08,68900.0,0.33,276.0,2700.0,27.095378523095334,5.534859945503913,14944.121852860566,20.063228058354827,6.604261723454959,7.032150464740507,1.0694017779510459,82180,284,11418,53535,194.43743932506928,111.32391347480211,0.00217639475313728,False
0.43,1.1072873777171053,2.800000000000001,7393.0,84.54263999999999,0.3,68900.0,0.33,276.0,2700.0,52.56774442825903,11.13554598066971,30065.974147808214,34.887859738702,16.47203221587525,17.679884689557035,5.336486235205539,4914,118,1634,2457,231.59532707894812,133.44453687902083,0.0033941645506308706,False
0.44,0.9214575899078561,2.800000000000001,7394.0,84.54263999999999,0.3,68900.0,0.33,276.0,2700.0,38.264180721833114,8.239710806401023,22247.21917728276,26.881033969955592,10.746222175521009,11.383146751877522,2.506511369119986,3713,98,1234,1856,199.6652452493112,114.80898221342409,0.002630160227178185,False
0.45,0.975626726173829,2.800000000000001,7395.0,84.54263999999999,0.3,68900.0,0.33,276.0,2700.0,41.844579033363,9.224178528801094,24905.282027762954,29.12539039556918,12.262799091711837,12.719188637793817,3.0386205629107437,3912,102,1300,1950,199.93739851885107,115.05473470369165,0.0027647068135699306,False
0.46,1.0670317221747696,2.800000000000001,7396.0,84.54263999999999,0.3,68900.0,0.33,276.0,2700.0,48.38973839121894,10.925779788293815,29499.6054283933,33.07972791837192,15.104128945369995,15.310010472847019,4.17834915707618,4690,112,1520,2372,211.0455264160624,121.61848038699527,0.0030520708283014158,False
0.4700000000000001,0.9492855047480129,2.800000000000001,7397.0,84.54263999999999,0.3,68900.0,0.33,276.0,2700.0,39.343509124601184,9.028278261565523,24376.351306226912,28.024799391674996,11.510134469362672,11.318709732926187,2.481856207797149,3838,98,1234,1951,330.0485652186659,189.24958564724574,0.002591736690967082,True
0.4800000000000001,1.0217056912883205,2.800000000000001,7398.0,84.54263999999999,0.2,68900.0,0.33,276.0,2700.0,44.310323546236866,10.402854307932984,28087.706631419056,31.092599945022894,13.649985518092784,13.217723601213972,3.2471312101598,12573,158,3126,7092,209.54997261932508,120.9356095835228,0.00282180818377919,False
0.49,0.934263328730341,2.800000000000001,7399.0,84.54263999999999,0.3,68900.0,0.33,276.0,2700.0,37.701062057212255,8.99035671461555,24273.963129461983,27.404949984790374,11.093803843468766,10.29611207242188,2.103447128853217,3808,96,1168,1980,193.1439366031145,110.86167954006628,0.002471071642569879,False
0.5,1.0927048133452757,2.800000000000001,7400.0,84.54263999999999,0.3,68900.0,0.33,276.0,2700.0,49.070122565815716,12.005731253654776,32415.474384867895,34.22816149943412,15.968094296178636,14.841961066381593,3.96236304252386,4981,112,1488,2621,211.89885333206206,122.06886487125571,0.002951008729211632,False
0.01,0.317851596698652,2.800000000000001,7401.0,87.56201999999999,0.05,68900.0,0.33,276.0,2700.0,13.468469066036777,0.067340250935081,181.8186775247187,6.861513218432994,1.0232153466531557,6.606955847603783,0.9558750957180747,43499,310,14408,21881,2832.780352280902,1611.688595008824,0.024342207841501196,True
0.02,0.6222509647650065,2.800000000000001,7402.0,87.56201999999999,0.1,68900.0,0.33,276.0,2700.0,30.966115675471798,0.30964440159389905,836.0398843035274,15.812862476981648,4.415175050757775,15.15325319849015,4.105530649163876,25363,252,8396,12763,2585.5735926542875,1481.3227753890671,0.028360745340257107,True
0.03,0.606181188231164,2.800000000000001,7403.0,87.56201999999999,0.1,68900.0,0.33,276.0,2700.0,29.59063257400005,0.4438029399422372,1198.2679378440405,15.28208012724807,4.165339352634209,14.30855244675198,3.721536412691972,25139,248,8254,12752,1956.0254019027334,1114.2306463223872,0.018548409763214823,True
0.04,0.6577963908403255,2.800000000000001,7404.0,87.56201999999999,0.1,68900.0,0.33,276.0,2700.0,32.67505634668801,0.6533670856472052,1764.091131247454,17.009977983498075,4.998431914300479,15.665078363189934,4.345064828653274,27109,260,8908,13741,1698.0073643164792,967.3344183303527,0.015850627603060392,True
0.05,0.6625858037604494,2.800000000000001,7405.0,87.56201999999999,0.2,68900.0,0.33,276.0,2700.0,32.666551403835754,0.8164019857080886,2204.2853614118394,17.173705648845836,5.0802915722294815,15.492845754989919,4.263889586521393,6804,132,2246,3429,1159.486857903655,663.5080046730903,0.012848385592449472,True
0.06000000000000001,0.6392637254225833,2.800000000000001,7406.0,87.56201999999999,0.2,68900.0,0.33,276.0,2700.0,30.78940506422432,0.9232297625848596,2492.7203589791206,16.38186412444828,4.689025326859545,14.407540939776037,3.7657955642746854,6818,130,2236,3458,963.427977558991,551.1603024629826,0.010366195832559613,True
0.06999999999999999,0.37147873927275626,2.800000000000001,7407.0,87.56201999999999,0.05,68900.0,0.33,276.0,2700.0,14.7155511626521,0.5143259131727025,1388.6799655662967,8.269509899338413,1.428609106183824,6.4460412633136865,0.9142831930111215,47802,326,15808,24084,472.8120236848466,272.05427734176607,0.0046461911790936,True
0.08,0.4043602566420744,2.800000000000001,7408.0,87.56201999999999,0.08,68900.0,0.33,276.0,2700.0,16.19711567606349,0.6468122967501145,1746.3932012253092,9.168569474204444,1.7152299026083488,7.028546201859045,1.0684176058582344,20918,216,6872,10604,436.07574286244125,250.84937237504283,0.004536068755778131,True
0.09,0.5841009002907029,2.800000000000001,7409.0,87.56201999999999,0.2,68900.0,0.33,276.0,2700.0,26.32393366498129,1.1830502008945099,3194.2355424151765,14.56335693523816,3.8358639767816736,11.76057672974313,2.6528137758871635,5688,116,1860,2892,569.7001711880271,327.4769562062726,0.006361140904496413,True
0.09999999999999999,0.4303822416435177,2.800000000000001,7410.0,87.56201999999999,0.2,68900.0,0.33,276.0,2700.0,17.083372337765258,0.852074221785871,2300.6003988218517,9.899334534249089,1.9632853541196893,7.184037803516169,1.1112111323338183,3560,92,1168,1802,396.5702429821723,228.9509873919701,0.003982018862022955,True
0.11,0.7324653816738879,2.800000000000001,7411.0,87.56201999999999,0.3,68900.0,0.33,276.0,2700.0,35.4481199341854,1.9468589564989158,5256.519182547073,19.62813142149472,6.365425316300196,15.819988512690678,4.4185663598012805,3717,96,1208,1899,590.1241745759745,338.14443709526665,0.007068290444675426,True
0.12,0.47544927976326545,2.800000000000001,7412.0,87.56201999999999,0.2,68900.0,0.33,276.0,2700.0,19.046272292952203,1.1391572228401985,3075.724501668536,11.205194032599127,2.4386529448492196,7.8410782603530755,1.299495722009021,3885,96,1276,1965,360.2906904821119,208.01226760382474,0.003793321787193502,True
0.13,0.824295405647868,2.800000000000001,7413.0,87.56201999999999,0.3,68900.0,0.33,276.0,2700.0,41.31239781841703,2.6807044721571494,7237.902074824303,23.040145006624865,8.322917882412003,18.272252811792168,5.642213410254854,4190,104,1378,2117,552.4050313998995,318.7958549222322,0.0070727235424927195,True
0.14,0.7939567783262974,2.800000000000001,7414.0,87.56201999999999,0.3,68900.0,0.33,276.0,2700.0,38.768583031712566,2.7080537920589123,7311.745238559063,21.889447121995083,7.641425292017791,16.879135909717483,4.933371499958879,3831,100,1258,1938,499.86038160668517,288.460551337201,0.006275396832109784,True
0.15000000000000002,0.6994208304658693,2.800000000000001,7415.0,87.56201999999999,0.3,68900.0,0.33,276.0,2700.0,31.91143200469181,2.3862888168813083,6442.979805579533,18.452190453097625,5.736327314724006,13.459241551594186,3.350038497842698,3126,88,1022,1587,421.62401183743907,243.33352235709913,0.004986843290763158,True
0.16,0.5961965968152068,2.800000000000001,7416.0,87.56201999999999,0.3,68900.0,0.33,276.0,2700.0,25.02050248053116,1.9930615561030909,5381.2662014783455,14.955559588345936,4.014386198391159,10.064942892185224,2.021324642288068,2659,80,868,1351,343.90375012257533,198.5470221511568,0.0038438997544656783,True
0.17,0.7055723742635939,2.800000000000001,7417.0,87.56201999999999,0.3,68900.0,0.33,276.0,2700.0,31.695814686447946,2.683854485209959,7246.40711006689,18.66902366249764,5.850503214411803,13.026791023950306,3.1666487292018437,3141,88,1032,1587,375.0689548765196,216.30679552472705,0.0044922324783017295,True
0.18000000000000002,0.5636233442188935,2.800000000000001,7418.0,87.56201999999999,0.2,68900.0,0.33,276.0,2700.0,22.506162528134286,2.013340115294927,5436.018311296302,13.907754726988424,3.544372568313757,8.598407801145862,1.5310324530188302,4745,108,1558,2402,288.6316085023475,166.115110639919,0.003233351633803501,True
0.19,0.8109698561155041,2.800000000000001,7419.0,87.56201999999999,0.3,68900.0,0.33,276.0,2700.0,38.302187888636624,3.6243423934131695,9785.724462215558,22.53187832255289,8.01928671113308,15.770309566083736,4.3949443177199115,3706,98,1216,1876,383.38154781714536,221.33536135776185,0.004861190665600261,True
0.2,0.5305937965566236,2.800000000000001,7420.0,87.56201999999999,0.08,68900.0,0.33,276.0,2700.0,20.062017988380507,1.989446638018906,5371.505922651046,12.872501126555438,3.1021781683870193,7.189516861825069,1.1127315303681133,34957,242,8492,19899,252.8114959903188,145.7313448628398,0.002775020076761918,False
0.21000000000000002,0.5294082928858701,2.800000000000001,7421.0,87.56201999999999,0.08,68900.0,0.33,276.0,2700.0,19.737219437968115,2.0530118479433903,5543.1319894471535,12.835853298339238,3.08693949760668,6.901366139628877,1.0339276496632896,35642,242,8474,20467,243.60216872870106,140.51161198209917,0.002660157236481981,False
0.22,0.7731737369122507,2.800000000000001,7422.0,87.56201999999999,0.3,68900.0,0.33,276.0,2700.0,34.69179430287143,3.793796254265575,10243.249886517053,21.114529357191774,7.1945673811652755,13.577264945679655,3.4007711268997003,3526,94,1162,1777,315.9531292706299,182.34776301971704,0.003988788111958558,True
0.23,0.6933766824466281,2.800000000000001,7423.0,87.56201999999999,0.1,68900.0,0.33,276.0,2700.0,29.090442803398904,3.319918417180055,8963.779726386148,18.240069092266683,5.625441053246752,10.850373711132221,2.3055226360666974,32101,242,7906,18180,279.834305839217,161.5072517582399,0.0033675510967772107,True
0.24000000000000005,0.6099844814505306,2.800000000000001,7424.0,87.56201999999999,0.1,68900.0,0.33,276.0,2700.0,23.636414875284633,2.8074168671386737,7580.025541274419,15.407116082260728,4.223699243337229,8.229298793023904,1.4162823761985557,26436,214,6512,14974,244.85486780378662,141.33398910379645,0.0027938744301225227,False
0.25,0.9485473470267989,2.800000000000001,7425.0,87.56201999999999,0.3,68900.0,0.33,276.0,2700.0,46.41568732341668,5.769235991952192,15576.937178270917,27.99420881452395,11.489459038483965,18.421478508892726,5.720223046531773,4339,108,1424,2197,338.1115824440039,195.16046560106003,0.00465628298576981,True
0.26,0.9185838830347585,2.800000000000001,7426.0,87.56201999999999,0.3,68900.0,0.33,276.0,2700.0,43.8008884417653,5.6573044091093845,15274.721904595339,26.764029379724256,10.669142131596855,17.036859062041046,5.011837722487471,4213,106,1380,2137,321.25775052728557,185.47821176037078,0.00429977039892166,True
0.27,0.7470581924156323,2.800000000000001,7427.0,87.56201999999999,0.3,68900.0,0.33,276.0,2700.0,31.408932101176234,4.198981854858383,11337.251008117633,20.156174619233386,6.655701232153797,11.252757481942847,2.456719377295414,3119,86,1026,1574,260.543510408085,150.23832625317357,0.0031831854217602993,False
0.28,0.6569634355566731,2.800000000000001,7428.0,87.56201999999999,0.08,68900.0,0.33,276.0,2700.0,25.39914837325248,3.5099046109676135,9476.742449612557,16.981561982118354,4.984275199103946,8.417586391134126,1.4743705881363325,57810,276,10634,35675,274.48042817126304,153.87385720842346,0.002704400766973211,False
0.29000000000000004,0.8989252115827551,2.800000000000001,7429.0,87.56201999999999,0.3,68900.0,0.33,276.0,2700.0,41.341437191207774,5.943428190572857,16047.256114546713,25.96918188135363,10.150825606067025,15.372255309854143,4.207397415494168,3998,102,1312,2024,282.3936503407309,163.00871781413505,0.003782260658025734,True
0.3,0.750745343532724,2.800000000000001,7430.0,87.56201999999999,0.2,68900.0,0.33,276.0,2700.0,30.77349468222497,4.559475534569128,12310.583943336644,20.29044175963273,6.730267520549746,10.48305292259224,2.1707919859806184,6459,126,2136,3247,234.2093059864584,134.8639331961284,0.002932763764503991,False
0.31,0.9375905667064499,2.800000000000001,7431.0,87.56201999999999,0.3,68900.0,0.33,276.0,2700.0,43.53241576636036,6.685130319290462,18049.851862084248,27.541750467661853,11.185214140526973,15.990665298698506,4.500083821236512,4142,106,1360,2096,276.01461463884766,159.06281433226204,0.0037713614903081894,True
0.32,0.9658390754944314,2.800000000000001,7432.0,87.56201999999999,0.3,68900.0,0.33,276.0,2700.0,45.31813555410208,7.182272549941071,19392.13588484089,28.714405987690128,11.979743194314187,16.60372956641195,4.797470644373116,4440,110,1466,2235,277.3565736777881,159.80654222417027,0.0038035827545564354,True
0.33,0.660566290554269,2.800000000000001,7433.0,87.56201999999999,0.1,68900.0,0.33,276.0,2700.0,24.29340204787939,3.9331450611053973,10619.491664984573,17.104597627315755,5.04567884640403,7.188804420563635,1.1125337852986328,34917,216,6630,21384,206.8465919274027,119.38385437489345,0.0023762331655156057,False
0.34,0.742517934644194,2.800000000000001,7434.0,87.56201999999999,0.2,68900.0,0.33,276.0,2700.0,29.108788492290433,4.8661759385849095,13138.675034179256,19.991311119398876,6.564561461109421,9.117477372891557,1.6983855225245117,6530,122,1990,3409,226.4404827596177,130.5664382703227,0.002636329380701888,False
0.3500000000000001,0.7454522563647246,2.800000000000001,7435.0,87.56201999999999,0.1,68900.0,0.33,276.0,2700.0,29.020121229549687,4.9887240251560785,13469.554867921412,20.097801480239628,6.623378585123016,8.92231974931006,1.634654559966937,42286,238,7792,26074,215.57920524886492,124.4125362902659,0.002597339536406493,False
0.36000000000000004,0.9707339563349182,2.800000000000001,7436.0,87.56201999999999,0.3,68900.0,0.33,276.0,2700.0,44.35144003164351,7.885543107798573,21290.966391056147,28.91964155359898,12.120798846216449,15.431798478044534,4.235255738417876,4310,108,1428,2162,251.79963019626757,145.2582615149895,0.0034583430978205173,False
0.37,0.8334825683464673,2.800000000000001,7437.0,87.56201999999999,0.2,68900.0,0.33,276.0,2700.0,34.24663314032309,6.229539735838253,16819.757286763284,23.39316330687406,8.536211437404305,10.85346983344903,2.306671701566051,8849,134,2342,4878,229.0229514295568,132.20242187808785,0.0028175852031479013,False
0.38,0.7156943259987063,2.800000000000001,7438.0,87.56201999999999,0.2,68900.0,0.33,276.0,2700.0,26.34983395219046,4.8915448028575526,13207.170967715392,19.027878057053538,6.041284152338052,7.32195589513692,1.149739349480499,6821,114,1774,3780,245.1981715808256,136.66729886972539,0.002294431824933681,False
0.39,1.0488991996869648,2.800000000000001,7439.0,87.56201999999999,0.3,68900.0,0.33,276.0,2700.0,49.32621468513429,9.494374440522323,25634.81098941027,32.278587906409925,14.511585865927316,17.047626778724364,5.017211425404993,4515,112,1496,2265,250.8120537134065,144.53994807465935,0.0035626567874695323,False
0.4,0.7066533835438045,2.800000000000001,7440.0,87.56201999999999,0.05,68900.0,0.33,276.0,2700.0,25.28384902093422,4.922728517633674,13291.36699761092,18.707225958739883,5.8707052481158835,6.5766230621943365,0.9479767304822095,275453,434,26816,188345,266.2163190402497,151.8661398058324,0.0022119807347868656,False
0.4100000000000001,1.1006061800981208,2.800000000000001,7441.0,87.56201999999999,0.3,68900.0,0.33,276.0,2700.0,52.72809103405478,10.6649108571292,28795.25931424884,34.58494674863411,16.23995206585974,18.143144285420668,5.575041208730539,4924,118,1634,2467,292.17626306729636,168.6077081886568,0.00363465556026971,True
0.42000000000000004,0.8861986319322386,2.800000000000001,7442.0,87.56201999999999,0.3,68900.0,0.33,276.0,2700.0,36.39277917233356,7.487314081843937,20215.74802097863,25.4597948462573,9.823572438848727,10.932984326076262,2.3362583570047892,3561,94,1174,1792,203.12439315223025,116.48406689606826,0.002702372566559548,False
0.43,0.9183330438292951,2.800000000000001,7443.0,87.56201999999999,0.3,68900.0,0.33,276.0,2700.0,38.34172165227678,8.076951083833134,21807.76792634946,26.753826169516646,10.662429943448759,11.587895482760135,2.585478859615625,3715,98,1234,1858,212.92133923051907,122.6951481298739,0.002765031602106023,False
0.44,1.0480888592958233,2.800000000000001,7444.0,87.56201999999999,0.3,68900.0,0.33,276.0,2700.0,47.587728665411,10.29089135398816,27785.40665576803,32.24297794524276,14.485443651587127,15.344750720168243,4.1945522975989675,4397,110,1462,2198,225.5672823991711,129.6628828678868,0.0032094184591270054,False
0.45,0.949678155097472,2.800000000000001,7445.0,87.56201999999999,0.3,68900.0,0.33,276.0,2700.0,39.96942387629609,8.80226861846104,23766.125269844808,28.041077104559385,11.521141612235368,11.928346771736706,2.718872993774328,3680,98,1222,1841,201.2482161526067,116.04624654234811,0.002774547780804649,False
0.46,0.9555680920598846,2.800000000000001,7446.0,87.56201999999999,0.3,68900.0,0.33,276.0,2700.0,40.09035105314274,9.016920700536287,24345.685891447974,28.2857153377529,11.687021812677864,11.80463571538984,2.6701011121415767,3801,100,1260,1901,197.76822959320714,113.99124112450973,0.002755888295466454,False
0.4700000000000001,1.0196834902119527,2.800000000000001,7447.0,87.56201999999999,0.1,68900.0,0.33,276.0,2700.0,44.4726385931033,10.233623686663504,27630.78395399146,31.005148298572788,13.587198468743031,13.46749029453051,3.3535747820795265,79813,308,12006,51368,239.2271591301665,135.23262328853085,0.0029786472633534723,False
0.4800000000000001,0.8628601671841698,2.800000000000001,7448.0,87.56201999999999,0.2,68900.0,0.33,276.0,2700.0,33.113869951542185,7.7157054452062575,20832.404702056894,24.53623951903961,9.240183720192325,8.577630432502573,1.524478274986068,8938,130,2232,5020,191.8501735355001,110.72842156994881,0.0023886200357283224,False
0.49,0.8939924852791438,2.800000000000001,7449.0,87.56201999999999,0.1,68900.0,0.33,276.0,2700.0,34.9296276531514,8.31135528562063,22440.6592711757,25.771264194317254,10.023215127781603,9.158363458834145,1.7118598421609725,64388,266,9494,41553,215.5406963765544,121.80058961698798,0.0024631815847554316,False
0.5,0.8798191785866103,2.800000000000001,7450.0,87.56201999999999,0.2,68900.0,0.33,276.0,2700.0,33.7009714354276,8.163443471057747,22041.297371855915,25.205986041814814,9.661962989913283,8.494985393612783,1.4985195188555362,8971,128,2204,5071,191.74847213296087,110.53278242764222,0.002360426936027146,False
0.01,0.6518236365752432,2.800000000000001,7451.0,90.5814,0.05,68900.0,0.33,276.0,2700.0,33.2747166331696,0.16637148877075172,449.2030196810297,16.806605166278633,4.897443289935755,16.468111466890964,4.731071801165004,106484,522,35306,53519,456814.706859904,238615.59401436828,0.09041063189570128,True
0.02,0.6696259364197117,2.800000000000001,7452.0,90.5814,0.1,68900.0,0.33,276.0,2700.0,34.147420383938226,0.34145744867855715,921.9351114321043,17.41542146024802,5.202046863133156,16.731998923690206,4.860589414454599,28293,268,9364,14241,3071.0959007084143,1749.1340466411245,0.032717438893564085,True
0.03,0.4167563497943842,2.800000000000001,7453.0,90.5814,0.08,68900.0,0.33,276.0,2700.0,18.198418226800737,0.2729197247342476,736.8832567824685,9.514561471947564,1.8310248289502584,8.683856754853172,1.5581051042160108,23538,232,7732,11934,1372.2704102599052,782.2902667908546,0.012074411381463776,True
0.04,0.4901058303401652,2.800000000000001,7454.0,90.5814,0.08,68900.0,0.33,276.0,2700.0,22.105443591235513,0.4419748305381575,1193.3320424530252,11.64088113650084,2.6060686788733314,10.464562454734674,2.164093848335174,28565,258,9370,14504,1259.7048617256996,719.6944649639594,0.011213803017568663,True
0.05,0.5644297587067051,2.800000000000001,7455.0,90.5814,0.1,68900.0,0.33,276.0,2700.0,26.309233164397224,0.6574690297221318,1775.166380249756,13.933373267117323,3.5555983117011563,12.3758598972799,2.8981292819790245,21904,230,7172,11140,1178.7225887748527,673.2708832551182,0.010844124743069497,True
0.06000000000000001,0.4548251155545838,2.800000000000001,7456.0,90.5814,0.1,68900.0,0.33,276.0,2700.0,19.50631316890403,0.5847370057248938,1578.7899154572133,10.601254741155747,2.2138014280122325,8.905058427748282,1.6290644222873385,16381,194,5372,8317,859.505390488547,493.52538085108046,0.045062070550870165,True
0.06999999999999999,0.5808390009016837,2.800000000000001,7457.0,90.5814,0.1,68900.0,0.33,276.0,2700.0,26.72464443793588,0.9346441778076358,2523.5392800806167,14.458219441748685,3.788531318344707,12.266424996187194,2.853887140537071,22739,234,7464,11537,809.8390634428011,463.66230188605545,0.00823356134510185,True
0.08,0.4397591734915725,2.800000000000001,7458.0,90.5814,0.08,68900.0,0.33,276.0,2700.0,18.1224717415787,0.7238265393707846,1954.3316563011183,10.166834379640358,2.0573631765028035,7.955637361938342,1.333536637132019,23625,232,7772,11961,496.63090584286726,285.77579193855865,0.005180352442016573,True
0.09,0.5901908283818857,2.800000000000001,7459.0,90.5814,0.1,68900.0,0.33,276.0,2700.0,26.704170877630098,1.2001608754637112,3240.43436375202,14.760363087969342,3.9251531768983323,11.943807789660756,2.724992301434621,22356,232,7352,11322,607.1139291062592,348.15169999065773,0.006661632155743022,True
0.09999999999999999,0.6867972311864998,2.800000000000001,7460.0,90.5814,0.3,68900.0,0.33,276.0,2700.0,32.66067172183402,1.6309391909893078,4403.535815671131,18.010204805250886,5.506188194632854,14.650466916583134,3.875249003643546,3335,92,1094,1688,623.3124482662139,359.4354957407875,0.0073501542930370116,True
0.11,0.5893383277034344,2.800000000000001,7461.0,90.5814,0.2,68900.0,0.33,276.0,2700.0,26.053004376726744,1.430127600838686,3861.3445222644523,14.73272900620064,3.912581737685985,11.320275370526103,2.482454136847299,5680,116,1852,2896,488.3418795605278,281.4894568228545,0.005527822597525957,True
0.12,0.5751356405184376,2.800000000000001,7462.0,90.5814,0.08,68900.0,0.33,276.0,2700.0,24.885299962978667,1.4894988830417848,4021.646984212819,14.275031358145903,3.7065936647514177,10.610268604832765,2.217094781709633,31809,276,10526,16012,433.05383325875323,249.3367539160189,0.0049431928504421055,True
0.13,0.5778831548157022,2.800000000000001,7463.0,90.5814,0.3,68900.0,0.33,276.0,2700.0,24.763555013601465,1.6050296898441463,4333.580162579195,14.36317760739329,3.745935565602986,10.400377406208175,2.1409058757588397,2813,80,920,1427,430.5861235745626,247.82344501169993,0.004624895536813778,True
0.14,0.4518868265590792,2.800000000000001,7464.0,90.5814,0.05,68900.0,0.33,276.0,2700.0,17.22545570165145,1.2000348789546347,3240.0941731775138,10.516082566372528,2.1827770612299457,6.70937313527892,0.9827421822753111,84684,356,18556,49986,307.1633224102448,176.90881263770117,0.0032437887187930807,True
0.15000000000000002,0.7316069859532394,2.800000000000001,7465.0,90.5814,0.3,68900.0,0.33,276.0,2700.0,34.08018596203274,2.5489453636818813,6882.15248194108,19.597236905543944,6.348589873468512,14.482949056488799,3.799644509786631,3574,94,1164,1822,451.70093308099933,260.6116554772541,0.005470607351557113,True
0.16,0.5915535626548002,2.800000000000001,7466.0,90.5814,0.2,68900.0,0.33,276.0,2700.0,24.737203031469296,1.9703976001781387,5320.073520480974,14.804574489729438,3.945297748454988,9.932628541739858,1.9749001482768491,5185,112,1706,2620,343.02249352791557,197.98537244956356,0.00393745340266206,True
0.17,0.8693260931479605,2.800000000000001,7467.0,90.5814,0.3,68900.0,0.33,276.0,2700.0,43.23959827767358,3.6650760904641877,9895.705444253306,24.790739744677165,9.399655451985499,18.448858532996415,5.734579361521311,4227,106,1382,2148,471.01664907414033,271.5512955031479,0.006122967370684048,True
0.18000000000000002,0.5381621001602682,2.800000000000001,7468.0,90.5814,0.1,68900.0,0.33,276.0,2700.0,21.0204268116641,1.8796239008126132,5074.984532194056,13.107294891507538,3.20048875236581,7.913131920156564,1.3208648515531969,19872,200,5650,10705,291.5328838333422,168.30601789988708,0.003177403139035791,True
0.19,0.8001663506384873,2.800000000000001,7469.0,90.5814,0.3,68900.0,0.33,276.0,2700.0,37.53618816864104,3.55157242001358,9589.245534036667,22.123083900340976,7.778074287562113,15.413104268300064,4.226501867548533,3795,98,1248,1917,391.38619109011114,225.9552253133751,0.004938915443426836,True
0.2,0.5747047998285506,2.800000000000001,7470.0,90.5814,0.1,68900.0,0.33,276.0,2700.0,22.617742163889158,2.2450190555697707,6061.551450038381,14.261226257367014,3.7004463744599847,8.356515906522144,1.455427318890214,25285,210,6274,14272,279.1106228557245,161.10566738625647,0.003140961838439342,True
0.21000000000000002,0.8074097177167253,2.800000000000001,7471.0,90.5814,0.3,68900.0,0.33,276.0,2700.0,37.391939890607574,3.906757495470537,10548.24523777045,22.396842001165304,7.939310574422822,14.99509788944227,4.032553078952285,3758,98,1224,1916,360.4121017228549,208.077438608951,0.004556449772996434,True
0.22,0.8890437696408546,2.800000000000001,7472.0,90.5814,0.3,68900.0,0.33,276.0,2700.0,42.96870557206063,4.704256493876395,12701.492533466266,25.57331946214681,9.896170509566513,17.39538610991382,5.191914015690118,4175,106,1376,2105,369.9976949622698,213.5831577336755,0.004961197698689549,True
0.23,0.5772826342644927,2.800000000000001,7473.0,90.5814,0.2,68900.0,0.33,276.0,2700.0,21.96918059674954,2.5009732634153634,6752.627811221481,14.343895396759047,3.7373159724045273,7.625285199990492,1.2363427089891639,4639,104,1534,2332,240.70405336336543,138.92703780590762,0.0027857404520463176,False
0.24000000000000005,0.9333675261310692,2.800000000000001,7474.0,90.5814,0.3,68900.0,0.33,276.0,2700.0,45.60791475010069,5.4439968521166024,14698.791500714826,27.368166305234087,11.069270895002905,18.239748444866603,5.625274042886303,4277,108,1404,2165,357.0153478512378,205.90723526396914,0.004894029787236946,True
0.25,0.7029872568426334,2.800000000000001,7475.0,90.5814,0.2,68900.0,0.33,276.0,2700.0,29.125741397376007,3.6079927511971057,9741.580428232186,18.577786076166188,5.802359562228855,10.54795532120982,2.194366811031749,6270,124,2078,3147,269.0427444706201,155.1789870882264,0.0032717963296866855,False
0.26,0.8071124745961931,2.800000000000001,7476.0,90.5814,0.3,68900.0,0.33,276.0,2700.0,35.77240492911669,4.6136015524655045,12456.724191656862,22.385581955250935,7.932654940756924,13.386822973865755,3.3190533882914197,3454,94,1136,1744,294.49560389019274,170.0271023174307,0.00375210818946751,True
0.27,0.6712072800059543,2.800000000000001,7477.0,90.5814,0.2,68900.0,0.33,276.0,2700.0,26.55106825126357,3.543170235120172,9566.559634824465,17.469886611547178,5.229629683937829,9.081181639716391,1.686459448817657,5628,118,1868,2820,238.6534379347408,137.75816742445284,0.0029038990352717154,False
0.28,0.8396579004690379,2.800000000000001,7478.0,90.5814,0.3,68900.0,0.33,276.0,2700.0,37.41366015847488,5.19193626089875,14018.227904426625,23.63164365420818,8.681407844677786,13.782016504266704,3.4894715837790358,3603,96,1192,1809,285.4977280549243,164.80524846499785,0.0036971139672625423,True
0.29000000000000004,0.7793986645625728,2.800000000000001,7479.0,90.5814,0.3,68900.0,0.33,276.0,2700.0,32.9652292415207,4.728878037868236,12767.970702244236,21.345493588958128,7.326722161402773,11.619735652562575,2.5978441235345375,3417,92,1124,1725,258.67976780609246,149.27812526368368,0.003256872205969095,False
0.3,0.6644027536041643,2.800000000000001,7480.0,90.5814,0.1,68900.0,0.33,276.0,2700.0,25.315557993817134,3.7407850313079516,10100.119584531469,17.23596951997505,5.111551886626848,8.079588473842083,1.3707668553188963,34398,220,6834,20833,229.4504893603297,132.33341399673938,0.002661835401189519,False
0.31,0.7303636459546248,2.800000000000001,7481.0,90.5814,0.3,68900.0,0.33,276.0,2700.0,29.168492209571184,4.458722167988138,12038.549853567973,19.55252070016091,6.324251647710471,9.615971509410276,1.8655294797223334,2968,84,980,1492,229.01537425025512,132.16272157232464,0.002854230837126299,False
0.32,0.712130345648627,2.800000000000001,7482.0,90.5814,0.2,68900.0,0.33,276.0,2700.0,27.73223076978614,4.368527784450525,11795.025018016418,18.901230258783045,5.973694948783432,8.831000511003094,1.605167164332907,6031,120,1918,3084,215.95085093856426,124.4537202449967,0.002709470362802585,False
0.33,0.805932466806574,2.800000000000001,7483.0,90.5814,0.3,68900.0,0.33,276.0,2700.0,33.56037467877963,5.462195545203931,14747.927972050615,22.34090327380685,7.906266143711867,11.219471404972783,2.4440705985079356,3292,90,1090,1651,237.92218110649154,137.32822314323897,0.003044913500661547,False
0.34,0.8897852095625295,2.800000000000001,7484.0,90.5814,0.3,68900.0,0.33,276.0,2700.0,39.07362249867024,6.56019771966948,17712.533843107598,25.602937275625557,9.915142568606482,13.470685223044683,3.354944848937002,3672,98,1216,1842,255.87456902620778,147.5889437656179,0.0033517221627550058,False
0.3500000000000001,0.7108158443609944,2.800000000000001,7485.0,90.5814,0.08,68900.0,0.33,276.0,2700.0,26.83839484789604,4.606921908366697,12438.689152590083,18.854599392916136,5.948879910194115,7.983795454979905,1.3419580018274182,70958,284,11198,45183,225.62114195192345,127.22143714532137,0.002545584121161118,False
0.36000000000000004,0.8979287133297156,2.800000000000001,7486.0,90.5814,0.3,68900.0,0.33,276.0,2700.0,39.02918265474703,6.927536779957211,18704.34930588447,25.929149705292872,10.124967309758619,13.10003294945416,3.197430529801408,3728,98,1230,1877,240.62831680736429,138.73493925093095,0.0032354926768659205,False
0.37,0.8715587321584148,2.800000000000001,7487.0,90.5814,0.3,68900.0,0.33,276.0,2700.0,36.86395381079408,6.713744059875311,18127.10896166334,24.87886094094214,9.455102572739579,11.98509286985194,2.7413585128642675,3597,96,1190,1806,233.14158258889938,134.2540119224938,0.003039838209297495,False
0.38,0.8218455319564597,2.800000000000001,7488.0,90.5814,0.3,68900.0,0.33,276.0,2700.0,33.17301983464689,6.187950120524394,16707.465325415862,22.946366448467867,8.266587340920935,10.22665338617902,2.0786372203965415,3400,92,1128,1702,213.78594861261158,123.08002163453739,0.0027754150972092734,False
0.39,0.8908643753233647,2.800000000000001,7489.0,90.5814,0.3,68900.0,0.33,276.0,2700.0,37.610201109062295,7.2097517931882855,19466.32984160837,25.646070690931946,9.9427956533114,11.964130418130349,2.7330438601231144,3573,96,1184,1791,225.43401282954756,129.50043849287425,0.0029882877229652775,False
0.4,0.7895825974781757,2.800000000000001,7490.0,90.5814,0.1,68900.0,0.33,276.0,2700.0,30.486600093046796,5.963278732056199,16100.852576551737,21.72544918961889,7.546035745234895,8.761150903427907,1.5827570131786963,48289,246,8280,30177,389.72861215621566,224.43658987918886,0.0025816609626516185,True
0.4100000000000001,1.0948834570911228,2.800000000000001,7491.0,90.5814,0.3,68900.0,0.33,276.0,2700.0,52.269929333735604,10.570987708563761,28541.666813122156,34.32638121660053,16.042772237389546,17.943548117135073,5.4717845288257845,4728,116,1568,2370,255.49324841822363,147.22955135604934,0.0037331371905797942,False
0.42000000000000004,0.8680499780102389,2.800000000000001,7492.0,90.5814,0.2,68900.0,0.33,276.0,2700.0,35.145618869435445,7.225410418235341,19508.60812923542,24.7404283560473,9.36805171963671,10.405190513388145,2.14264130140137,9525,136,2388,5347,219.79745216558857,126.76495899760877,0.002763870780308488,False
0.43,0.9844436467110518,2.800000000000001,7493.0,90.5814,0.3,68900.0,0.33,276.0,2700.0,43.11495697294209,9.103196677776484,24578.631029996508,29.49767507491029,12.521235111142651,13.617281898031798,3.418038433366167,4018,104,1340,2002,223.9702975660478,128.894505547968,0.0031234027937476396,False
0.44,0.7433144435617658,2.800000000000001,7494.0,90.5814,0.08,68900.0,0.33,276.0,2700.0,26.512484182605355,5.654337567770918,15266.71143298148,20.020196068608794,6.580496221191436,6.492288113996562,0.9261586534205177,83684,278,11168,54856,199.20621415796748,113.30727243656244,0.002249975500345221,False
0.45,0.8248408926943394,2.800000000000001,7495.0,90.5814,0.2,68900.0,0.33,276.0,2700.0,31.42123824827862,6.878926852157111,18573.1025008242,23.061046202922753,8.335491683387907,8.360192045355866,1.4565648312307964,8243,124,2070,4622,201.52171630339674,116.11819355204156,0.0025685321012930713,False
0.46,0.832626467538992,2.800000000000001,7496.0,90.5814,0.2,68900.0,0.33,276.0,2700.0,31.660611714855715,7.078080652730258,19110.8177623717,23.360177860485347,8.516198652155651,8.300433854370368,1.4381179994253932,8557,126,2150,4798,342.34835614743827,189.7149258012363,0.002431368974369995,True
0.4700000000000001,0.9569822025697947,2.800000000000001,7497.0,90.5814,0.3,68900.0,0.33,276.0,2700.0,39.89215423887323,9.157209863419435,24724.466631232477,28.344580140758573,11.727062554763057,11.547574098114659,2.5698526913436215,4121,102,1324,2093,213.7623811278583,123.08478551883661,0.002811014684148768,False
0.4800000000000001,0.8539328000289079,2.800000000000001,7498.0,90.5814,0.2,68900.0,0.33,276.0,2700.0,32.52225480033368,7.573717808916211,20449.03808407377,24.186583333379286,9.022701946116097,8.335671466954391,1.4489841371998864,8609,126,2128,4859,194.85453802127748,112.33885050399454,0.0024386431601878637,False
0.49,1.1146427760970887,2.800000000000001,7499.0,90.5814,0.3,68900.0,0.33,276.0,2700.0,51.11505568204607,12.27678515269983,33147.31991228954,35.222637140750955,16.729876700013218,15.892418541295115,4.453091547313388,5113,116,1588,2645,220.69057451913739,127.13839382162517,0.0032844714390393415,False
0.5,0.9881263760871212,2.800000000000001,7500.0,90.5814,0.2,68900.0,0.33,276.0,2700.0,41.23547636595009,10.047069703688395,27127.088199958667,29.653752699073134,12.630154356883473,11.581723666876957,2.583084653195078,11480,148,2812,6510,211.43475068353237,121.9485521726948,0.002805528912874779,False
0.01,0.3825124656688601,3.200000000000001,7501.0,3.01938,0.05,68900.0,0.33,276.0,2700.0,18.763114542400114,0.09381347831689758,253.29639145562348,9.52952785166629,1.70536330467613,9.233586690733825,1.6115498263592325,61347,370,20302,30888,122.87328072064285,69.93257354889826,0.0011611251256184044,False
0.02,0.5179255617696084,3.200000000000001,7502.0,3.01938,0.1,68900.0,0.33,276.0,2700.0,26.911367107513303,0.2690969159143101,726.5616729686374,13.784401100660464,3.278668509213766,13.12696600685284,3.009571593299456,22419,228,7426,11274,76.46830891193817,43.608648384659745,0.0008528697177185348,False
0.03,0.5995261862153949,3.200000000000001,7503.0,3.01938,0.1,68900.0,0.33,276.0,2700.0,32.097972843450606,0.4814130439840008,1299.815218756802,16.570940497163345,4.516037932427476,15.52703234628726,4.034624888443475,26310,250,8658,13317,65.13030225321661,37.10896748916488,0.0006916094221329617,False
0.04,0.5274818572897034,3.200000000000001,7504.0,3.01938,0.1,68900.0,0.33,276.0,2700.0,26.88974118821988,0.5376607824778437,1451.684112690178,14.102082657720068,3.411912421325134,12.787658530499812,2.8742516388472903,22403,228,7358,11360,56.721746578219886,30.42443731678966,0.0004654441916852019,False
0.05,0.5257505424673501,3.200000000000001,7505.0,3.01938,0.1,68900.0,0.33,276.0,2700.0,26.45414470404108,0.6610918182132276,1784.9479091757146,14.044358021694215,3.3875472572216845,12.409786682346866,2.7264554390084568,22106,226,7248,11228,34.44366186963764,19.705123967177908,0.00036397811576387027,False
0.06000000000000001,0.49681890820087504,3.200000000000001,7506.0,3.01938,0.1,68900.0,0.33,276.0,2700.0,24.271445860595083,0.7276909864757344,1964.7656634844827,13.090881884401343,2.995064558671302,11.18056397619374,2.2673735721955675,20214,214,6636,10254,26.63367334783088,15.238728739718603,0.0002872212125726777,False
0.06999999999999999,0.43622048252805157,3.200000000000001,7507.0,3.01938,0.05,68900.0,0.33,276.0,2700.0,20.210635799872314,0.7066538754754094,1907.9654637836052,11.161966624046638,2.26068840069089,9.048669175825676,1.5540345252154806,66221,384,21866,33416,19.63336767816981,11.27299578314121,0.00021360902938233388,False
0.08,0.6882484974937564,3.200000000000001,7508.0,3.01938,0.1,68900.0,0.33,276.0,2700.0,36.66926536238311,1.4656982842029003,3957.3853673478307,19.790570870087183,6.1276138910898315,16.878694492295924,4.661915606886931,30684,272,10062,15585,28.291433082719568,16.223999925334844,0.00032827120216707343,False
0.09,0.5200017231887871,3.200000000000001,7509.0,3.01938,0.2,68900.0,0.33,276.0,2700.0,24.822462311185888,1.1154839899737197,3011.8067729290433,13.853224132471263,3.307358576084017,10.969238178714624,2.1918745861102975,5310,112,1742,2691,17.640015218996613,10.180540322584061,0.00020856983554531385,False
0.09999999999999999,0.7281359039955717,3.200000000000001,7510.0,3.01938,0.3,68900.0,0.33,276.0,2700.0,38.89004565286675,1.9424078875409547,5244.501296360578,21.30250318523331,6.947029053160301,17.587542467633444,5.004621165619346,3874,98,1266,1969,22.03063723288194,12.69503155608115,0.0002875840498288889,False
0.11,0.5022259746083415,3.200000000000001,7511.0,3.01938,0.1,68900.0,0.33,276.0,2700.0,23.086876571777818,1.2669905715664924,3420.8745432295295,13.267479707935118,3.066324933343974,9.8193968638427,1.7993343617774815,19066,208,6286,9631,13.611621072072941,7.851710478333232,0.0001664081902937215,False
0.12,0.6027344318655755,3.200000000000001,7512.0,3.01938,0.1,68900.0,0.33,276.0,2700.0,29.318241252332765,1.7554753604030324,4739.783473088188,16.683916447064444,4.569382738335796,12.63432480526832,2.8139073779327637,24110,238,7958,12167,14.910073129897052,8.587812667559419,0.00019134016690274458,False
0.13,0.7967861152183002,3.200000000000001,7513.0,3.01938,0.3,68900.0,0.33,276.0,2700.0,42.99190887933361,2.78987269111672,7532.656266015145,23.99832340301594,8.501307093155724,18.993585476317666,5.7114344020390035,3981,102,1310,2010,18.57410032006728,10.669524605515331,0.0002529534552311332,False
0.14,0.444985778774056,3.200000000000001,7514.0,3.01938,0.08,68900.0,0.33,276.0,2700.0,18.7362469764029,1.3057902681872366,3525.633724105539,11.435266434976125,2.3597227112897374,7.3009805414267746,1.0539324431025008,25556,228,7852,13316,10.334474671315421,5.941291900664465,0.00011705105250929353,False
0.15000000000000002,0.7681134743869811,3.200000000000001,7515.0,3.01938,0.3,68900.0,0.33,276.0,2700.0,40.087045150083945,2.9994598027857173,8098.541467521437,22.857975168308013,7.829609553182854,17.229069981775933,4.830149750397137,3934,100,1284,2002,15.64084004396105,9.022158135910733,0.00021130846017244554,False
0.16,0.7290729033089394,3.200000000000001,7516.0,3.01938,0.3,68900.0,0.33,276.0,2700.0,36.84993379709522,2.9394160614282026,7936.423365856147,21.33850084258049,6.967006347185021,15.511432954514728,4.027590285756818,3543,92,1156,1803,14.024633121443818,8.091164194272782,0.00018610679125790908,False
0.17,0.6034203861040929,3.200000000000001,7517.0,3.01938,0.3,68900.0,0.33,276.0,2700.0,27.78317262459337,2.3512799099523773,6348.455756871419,16.708105375839477,4.58083543711084,11.075067248753893,2.229555527158463,2858,82,932,1454,11.303231923525821,6.507116780513975,0.00013969548419461524,False
0.18000000000000002,0.5364031354777206,3.200000000000001,7518.0,3.01938,0.1,68900.0,0.33,276.0,2700.0,23.162856477453012,2.0724425707336134,5595.594940980756,14.40072571108273,3.539051675525125,8.762130766370282,1.4666091047915115,22230,208,6306,11981,9.700512848921,5.588313754929489,0.00011624633231079907,False
0.19,0.7216659409406547,3.200000000000001,7519.0,3.01938,0.2,68900.0,0.33,276.0,2700.0,35.29643955146752,3.3387963013820974,9014.750013731664,21.054542237515065,6.810005360896291,14.241897313952457,3.4712090595141936,7289,134,2400,3683,11.627683320074905,6.704680450691905,0.00015692275058782905,False
0.2,0.5035851373896486,3.200000000000001,7520.0,3.01938,0.05,68900.0,0.33,276.0,2700.0,20.5740938243456,2.0406542216154118,5509.766398361612,13.311986292647342,3.084387838552843,7.262107531698257,1.0437336169374314,130240,386,22036,81678,8.760843215415969,4.898312973210543,9.987247081631475e-05,False
0.21000000000000002,0.6609041860122618,3.200000000000001,7521.0,3.01938,0.3,68900.0,0.33,276.0,2700.0,30.398079711472462,3.1724021766613455,8565.485876985633,18.77718670472436,5.600352324230314,11.620893006748101,2.427950147568968,2966,84,962,1517,10.12203484721298,5.843915452891057,0.00012879120393633473,False
0.22,0.6229108629492777,3.200000000000001,7522.0,3.01938,0.08,68900.0,0.33,276.0,2700.0,27.54133582687378,3.007245821905822,8119.563719145719,17.4003433006734,4.913214894751768,10.140992526200382,1.905969072845946,50533,284,11490,29470,9.191188141432585,5.303364122916623,0.00011645830027295794,False
0.23,0.5937440782820589,3.200000000000001,7523.0,3.01938,0.08,68900.0,0.33,276.0,2700.0,25.34414321418043,2.8890939644199296,7800.55370393381,16.36798116907039,4.420810137158036,8.97616204511004,1.5317161727381068,50940,272,10664,30472,8.592799757661211,4.959600094384633,0.00010641803660231484,False
0.24000000000000005,0.6457878330647888,3.200000000000001,7524.0,3.01938,0.1,68900.0,0.33,276.0,2700.0,28.453112578450085,3.385420591518528,9140.635597100025,18.225038193137113,5.320690212884192,10.228074385312972,1.9352696213656642,31818,234,7820,18032,8.854522587984716,5.111334213100589,0.00011280114033841731,False
0.25,0.8321813142070342,3.200000000000001,7525.0,3.01938,0.3,68900.0,0.33,276.0,2700.0,41.39916692235555,5.142170941819545,13883.861542912771,25.434533205518395,9.376057117802594,15.964633716837152,4.233886175983049,4153,102,1368,2095,10.376210366220903,5.989129440558287,0.00014643568079929266,False
0.26,0.9257426637377101,3.200000000000001,7526.0,3.01938,0.3,68900.0,0.33,276.0,2700.0,48.33766671669685,6.24708558485093,16867.13107909751,29.382533724943354,11.938721166033364,18.955132991753498,5.691635581182434,4484,108,1476,2264,11.031156222618465,6.349948650211162,0.00016229394120971817,False
0.27,0.7834517580335661,3.200000000000001,7527.0,3.01938,0.3,68900.0,0.33,276.0,2700.0,37.10189496277613,4.967531841174372,13412.335971170805,23.465428515674937,8.184862748085841,13.636466447101192,3.217330906911469,3564,94,1174,1797,9.252225081497532,5.329117715461286,0.00012681214289402164,False
0.28,0.8925056031977792,3.200000000000001,7528.0,3.01938,0.3,68900.0,0.33,276.0,2700.0,44.984431226293495,6.251844210393316,16879.979368061955,27.95483663452943,10.985935241131669,17.029594591764067,4.734091030738353,4257,104,1398,2154,10.034908518797502,5.770789946113485,0.000144724851397106,False
0.29000000000000004,0.8651145610741564,3.200000000000001,7529.0,3.01938,0.2,68900.0,0.33,276.0,2700.0,42.51890003348291,6.114160302702709,16508.232817297314,26.799123672456616,10.23609426572136,15.719776361026291,4.12193396301865,8576,150,2846,4301,9.338167612405087,5.385449137159048,0.00013480669776411703,False
0.3,0.6478710242939587,3.200000000000001,7530.0,3.01938,0.08,68900.0,0.33,276.0,2700.0,26.81586069458833,3.9658304364236336,10707.742178343811,18.300788837568923,5.358735335204303,8.515071857019407,1.3929048987806691,63779,278,11202,39698,7.611189421831519,4.338131717716831,9.472430965937995e-05,False
0.31,0.793413926099265,3.200000000000001,7531.0,3.01938,0.3,68900.0,0.33,276.0,2700.0,36.51937148963853,5.598108456398583,15114.892832276173,23.863134917407102,8.420608228985655,12.656236572231428,2.822499772587072,3455,94,1140,1739,8.349754889680726,4.814121491250215,0.00017209608233210918,False
0.32,0.6871484482623558,3.200000000000001,7532.0,3.01938,0.1,68900.0,0.33,276.0,2700.0,28.82531906188929,4.543421911187068,12267.239160205085,19.74944009450831,6.105865914542258,9.07587896738098,1.5624440033551892,41765,234,7970,25566,7.482902494860864,4.319043988088565,9.590833039223675e-05,False
0.33,0.6517480505175473,3.200000000000001,7533.0,3.01938,0.08,68900.0,0.33,276.0,2700.0,26.21208051096513,4.249727007514542,11474.262920289264,18.44205870921809,5.429961704883616,7.770021801747038,1.180234697369074,66079,276,11056,41515,7.068653806443812,4.079268933492181,8.860027195361144e-05,False
0.34,0.9440164190192034,3.200000000000001,7534.0,3.01938,0.2,68900.0,0.33,276.0,2700.0,46.90844408808264,7.892117389869585,21308.71695264788,30.179311093365115,12.482917673866575,16.729132994717524,4.59080028399699,9856,156,3110,5067,9.14944690965769,5.28118407009235,0.0001310017081555351,False
0.3500000000000001,0.6565359938306955,3.200000000000001,7535.0,3.01938,0.05,68900.0,0.33,276.0,2700.0,25.96110390079942,4.453395992624792,12024.169180086938,18.61704163934088,5.518679910853862,7.344062261458539,1.0652839182290705,253499,434,27798,170884,8.176814594980248,4.642632973651673,8.551472050771783e-05,False
0.36000000000000004,0.6990805562458057,3.200000000000001,7536.0,3.01938,0.08,68900.0,0.33,276.0,2700.0,28.459650498243022,5.025020991786263,13567.556677822911,20.197205099514022,6.344186198523798,8.262445398729,1.3191652067375346,76224,286,11788,48784,7.290266679472843,4.129650955597769,8.930444012305604e-05,False
0.37,0.8101019598987793,3.200000000000001,7537.0,3.01938,0.2,68900.0,0.33,276.0,2700.0,35.81768981650795,6.520185220932478,17604.50009651769,24.534937883048997,8.824432832734454,11.282751933458954,2.3042476118019755,8716,134,2382,4749,7.7588853294145235,4.479384922624728,0.00010235688241490016,False
0.38,0.9397058858908776,3.200000000000001,7538.0,3.01938,0.3,68900.0,0.33,276.0,2700.0,45.180835677264575,8.469435130621756,22867.47485267874,29.990605670668547,12.353235631842358,15.190230006596028,3.883800501220602,4114,102,1366,2059,8.026728759680083,4.631976993452508,0.00011835693627672694,False
0.39,1.0819061313775755,3.200000000000001,7539.0,3.01938,0.2,68900.0,0.33,276.0,2700.0,56.389760883110476,10.871765949127683,29353.768062644744,36.46221262058018,17.07201690690326,19.927548262530294,6.200250957775578,14351,174,3632,8051,9.113521088191778,5.249864385261415,0.00013928082827567654,False
0.4,1.0209758850902306,3.200000000000001,7540.0,3.01938,0.3,68900.0,0.33,276.0,2700.0,50.95821168113769,10.057601049674375,27155.522834120813,33.627019332161936,14.937213583353282,17.331192348975755,4.879612533678907,4831,112,1610,2410,8.257039767786365,4.759444895752635,0.00012557647789828674,False
0.4100000000000001,0.9619647123530661,3.200000000000001,7541.0,3.01938,0.1,68900.0,0.33,276.0,2700.0,45.89651015635115,9.264436777199954,25013.979298439877,30.970067277827756,13.031669054408972,14.926442878523392,3.7672322772090183,72960,306,12162,45891,8.152062929027657,4.601912645180577,0.00011567612065120941,False
0.42000000000000004,0.9529787762221773,3.200000000000001,7542.0,3.01938,0.2,68900.0,0.33,276.0,2700.0,44.85901522622532,9.265223653161202,25016.103863535245,30.573157736993917,12.755158829440493,14.2858574892314,3.4899351762792907,11960,152,2978,6733,7.830578087820752,4.520952185618884,0.00011175994121032678,False
0.43,0.7586132105576368,3.200000000000001,7543.0,3.01938,0.2,68900.0,0.33,276.0,2700.0,30.448855336788966,6.379984826003655,17225.95903020987,22.484694541867487,7.614227686527723,7.964160794921479,1.234242860524068,8064,120,2010,4539,6.595048176153442,3.8076151898126915,8.48924392923809e-05,False
0.44,1.0849042299781615,3.200000000000001,7544.0,3.01938,0.2,68900.0,0.33,276.0,2700.0,54.79706888501169,11.876946202300301,32067.754746210812,36.604128022686574,17.18154689727831,18.192940862325116,5.304600694978008,14816,174,3674,8361,8.258228270197124,4.7676047072146455,0.00012604815841010133,False
0.45,0.895576265708714,3.200000000000001,7545.0,3.01938,0.1,68900.0,0.33,276.0,2700.0,39.53931992818889,8.705495230136918,23504.83712136968,28.085572831303654,11.071975772714332,11.453747096885234,2.3664805425774134,68951,278,10682,44098,7.506727955734109,4.2170811309966645,9.873905391205683e-05,False
0.46,1.0475554838258716,3.200000000000001,7546.0,3.01938,0.2,68900.0,0.33,276.0,2700.0,51.004026738481926,11.5270661081643,31123.07849204361,34.85234215080164,15.847251230116017,16.151684587680286,4.320185121951717,13685,164,3368,7745,7.830183330534079,4.51867906489205,0.00011631329142992127,False
0.4700000000000001,0.8606344377021407,3.200000000000001,7547.0,3.01938,0.2,68900.0,0.33,276.0,2700.0,36.38362772374409,8.332706132364097,22498.30655738306,26.611887693108613,10.116450493883809,9.771740030635478,1.7837443615197124,9968,136,2456,5632,6.608897850175187,3.811352443584701,9.085535288877149e-05,False
0.4800000000000001,0.853389117603019,3.200000000000001,7548.0,3.01938,0.2,68900.0,0.33,276.0,2700.0,35.56958446314726,8.305076927991465,22423.707705576955,26.3101545391424,9.924732722331433,9.25942992400486,1.6196557943399679,9185,130,2260,5193,6.548343899052668,3.7806755584095324,8.86229696263542e-05,False
0.49,1.1319029291745972,3.200000000000001,7549.0,3.01938,0.3,68900.0,0.33,276.0,2700.0,56.94240966552075,13.704486878651116,37002.11457235801,38.85834605800384,18.95464852891826,18.08406360751691,5.2501616502671435,5459,118,1746,2782,7.532715721267097,4.341898432180269,0.0001205694854841174,False
0.5,1.0064051866556645,3.200000000000001,7550.0,3.01938,0.2,68900.0,0.33,276.0,2700.0,46.36732153479971,11.330030995900806,30591.083688932176,32.962842968212875,14.452089661041219,13.404478566586832,3.122058665140413,12401,152,3016,7041,7.166677030173293,4.133068534529885,0.00010367321639522911,False
0.01,0.6490238934121919,3.200000000000001,7551.0,6.03876,0.05,68900.0,0.33,276.0,2700.0,36.32259172524315,0.1816108642311137,490.349333424007,18.34275725682765,5.379857938332481,17.9798344684155,5.198247074101368,117934,538,39104,59272,426.1170628892022,242.52102428093383,0.004443551729896669,True
0.02,0.39556605321030125,3.200000000000001,7552.0,6.03876,0.05,68900.0,0.33,276.0,2700.0,19.243307223767676,0.19241631707685888,519.524056107519,9.919618860132715,1.8322992157571265,9.323688363634961,1.6398828986802676,63087,374,20722,31998,2515.208453839761,1322.0937245677176,0.0012328301919739871,True
0.03,0.6507919860053066,3.200000000000001,7553.0,6.03876,0.1,68900.0,0.33,276.0,2700.0,35.73181201808268,0.5359206316034782,1446.9857053293913,18.407186835679425,5.412346578729751,17.324625182403253,4.876425947126273,29598,266,9720,15012,199.70338742964077,114.80824253110531,0.0026815773466674422,False
0.04,0.5789509493840279,3.200000000000001,7554.0,6.03876,0.1,68900.0,0.33,276.0,2700.0,30.338930337457356,0.6066445654625982,1637.940326749015,15.85254841979648,4.182495693613765,14.486381917660875,3.5758511281511667,25090,244,8226,12745,360.6692080924153,198.8198755297638,0.0010082413068607133,True
0.05,0.6909717112799147,3.200000000000001,7555.0,6.03876,0.1,68900.0,0.33,276.0,2700.0,37.94285063207706,0.9483094664138776,2560.4355593174696,19.892522507743855,6.181646622276317,18.050328124333205,5.23333715586244,31746,278,10406,16131,98.17697843993429,56.04483800865591,0.0010200903268417357,False
0.06000000000000001,0.5387402296554988,3.200000000000001,7556.0,6.03876,0.1,68900.0,0.33,276.0,2700.0,26.985049106487846,0.8090990838521109,2184.5675264006995,14.479291439069778,3.5727993087575753,12.505757667418068,2.7637002249054645,22372,228,7332,11368,60.87104287074033,34.82251640443884,0.0006331002761573058,False
0.06999999999999999,0.6710408652820086,3.200000000000001,7557.0,6.03876,0.2,68900.0,0.33,276.0,2700.0,35.774908126806054,1.2514034069180857,3378.7891986788313,19.150661584537932,5.792581359527903,16.62424654226812,4.541177952609817,7471,136,2456,3781,57.5532936034882,32.94823328998439,0.000720097521603593,False
0.08,0.41887156285943705,3.200000000000001,7558.0,6.03876,0.08,68900.0,0.33,276.0,2700.0,18.88318759373581,0.7542551734570082,2036.4889683339222,10.626724754117546,2.0716942089275605,8.256462839618262,1.3174390354705523,24194,232,7972,12230,30.824694128878626,17.789089420964324,0.00036051921370468406,False
0.09,0.4650329870443056,3.200000000000001,7559.0,6.03876,0.08,68900.0,0.33,276.0,2700.0,21.37553438061105,0.9603722330978542,2593.0050293642066,12.067591991230344,2.595289186109494,9.307942389380706,1.6349169530116399,27699,250,9128,14001,33.29895620503291,19.20602279862626,0.0003653802265025049,False
0.09999999999999999,0.7398202690186417,3.200000000000001,7560.0,6.03876,0.2,68900.0,0.33,276.0,2700.0,39.76161602634739,1.9859864062149735,5362.163296780428,21.752971378100945,7.198563652699392,18.008644648246445,5.212577246484419,8395,146,2754,4258,46.44320382431272,26.632699737825764,0.0005860302008107206,False
0.11,0.6660961994780967,3.200000000000001,7561.0,6.03876,0.2,68900.0,0.33,276.0,2700.0,34.03519759734034,1.8691482279724307,5046.700215525563,18.96815815833727,5.698339200497215,15.067039439003072,3.8291909725247844,7038,132,2312,3564,36.28696238922031,20.840558336718022,0.00047014019700227763,False
0.12,0.4947764496752047,3.200000000000001,7562.0,6.03876,0.1,68900.0,0.33,276.0,2700.0,22.324732450430233,1.3358648322888815,3606.83504717998,13.024365244315268,2.968394921942358,9.300367206114965,1.6325300896534765,18415,204,6070,9304,29.787707535141745,17.08570775732006,0.0002988785423738881,False
0.13,0.7094735332762396,3.200000000000001,7563.0,6.03876,0.1,68900.0,0.33,276.0,2700.0,36.460791230289324,2.3653500439288533,6386.445118607904,20.59012828417634,6.55613475687824,15.870662946112983,4.190784712949387,30391,272,10044,15319,33.62964667534436,19.36570858459492,0.0004354804488867266,False
0.14,0.6370314055449001,3.200000000000001,7564.0,6.03876,0.3,68900.0,0.33,276.0,2700.0,31.00563111090422,2.164647157602327,5844.547325526283,17.90782281514849,5.1624942298069225,13.09780829575573,2.9978470722045953,3000,86,986,1515,28.537391009137746,16.412910002902425,0.0003557123279543808,False
0.15000000000000002,0.5847032269115584,3.200000000000001,7565.0,6.03876,0.2,68900.0,0.33,276.0,2700.0,27.167174869546216,2.0304695317453887,5482.267735712549,16.05231985640203,4.274258123378304,11.114855013144187,2.243788591632915,5649,116,1854,2862,23.929235140580445,13.812527213347277,0.00030104718826430587,False
0.16,0.48757103676748115,3.200000000000001,7566.0,6.03876,0.05,68900.0,0.33,276.0,2700.0,20.72515732957293,1.6494339440264345,4453.471648871373,12.790544295376248,2.875392164231057,7.934613034196682,1.2259582202046224,119558,390,22486,73515,19.480882876298708,11.238070937916362,0.0002319771692316443,False
0.17,0.5051497045270821,3.200000000000001,7567.0,6.03876,0.08,68900.0,0.33,276.0,2700.0,21.51338274082498,1.8183477698319965,4909.53897854639,13.363276447067376,3.1052554502641336,8.150106293757604,1.286907680432137,36967,248,9118,20926,19.049631618432787,10.996467293725765,0.00022879437350810708,False
0.18000000000000002,0.8443577273394733,3.200000000000001,7568.0,6.03876,0.3,68900.0,0.33,276.0,2700.0,44.84002594904729,4.0233878231771,10863.147122578172,25.935887322951004,9.68880706828589,18.904138626096284,5.665419245108789,4244,104,1394,2147,28.561299207689878,16.465990168522428,0.00040352772832658094,False
0.19,0.7205759969278778,3.200000000000001,7569.0,6.03876,0.2,68900.0,0.33,276.0,2700.0,35.218307287077174,3.3313737362650193,8994.709087915553,21.012873743641336,6.787079799517346,14.205433543435838,3.4557060632523267,7272,134,2390,3681,23.21208403305692,13.376276777245515,0.0003132412642706385,False
0.2,0.5161050596879423,3.200000000000001,7570.0,6.03876,0.08,68900.0,0.33,276.0,2700.0,21.3354734626987,2.1167921854507243,5715.338900716955,13.724142108556565,3.2536288417624313,7.611331354142136,1.136836656311707,37375,248,9110,21254,17.122958057044368,9.883167200534244,0.00020464726817521952,False
0.21000000000000002,0.5921622038365947,3.200000000000001,7571.0,6.03876,0.08,68900.0,0.33,276.0,2700.0,25.831721441212817,2.6929345582840836,7270.923307367026,16.312601752389664,4.394961855955254,9.519119688823153,1.7020272976711701,46046,276,10888,26500,19.604709321295736,10.989428335471638,0.00022865539453455344,False
0.22,0.7560269967688853,3.200000000000001,7572.0,6.03876,0.2,68900.0,0.33,276.0,2700.0,36.77156478990812,4.02257100783961,10860.941721166946,22.383470850102707,7.556208388750004,14.388093939805412,3.5336373809103936,7447,136,2456,3757,21.286907756343005,12.277825439199008,0.0002913681565280773,False
0.23,0.6930886484909087,3.200000000000001,7573.0,6.03876,0.3,68900.0,0.33,276.0,2700.0,31.9777268209596,3.65195607919953,9860.281413838731,19.97190513064676,6.223841847537388,12.005821690312839,2.571885768337858,3126,86,1018,1593,19.15340815782574,11.057866344624674,0.000251853754099699,False
